
     Program PWSCF v.6.1 starts on 22Jun2022 at  7:26: 9 

     This program is part of the open-source Quantum ESPRESSO suite
     for quantum simulation of materials; please cite
         "P. Giannozzi et al., J. Phys.:Condens. Matter 21 395502 (2009);
          URL http://www.quantum-espresso.org", 
     in publications or presentations arising from this work. More details at
     http://www.quantum-espresso.org/quote

     Parallel version (MPI & OpenMP), running on     120 processor cores
     Number of MPI processes:               120
     Threads/MPI process:                     1
     K-points division:     npool     =       2
     R & G space division:  proc/nbgrp/npool/nimage =      60
     Waiting for input...
     Reading input from standard input

     Current dimensions of program PWSCF are:
     Max number of different atomic species (ntypx) = 10
     Max number of k-points (npk) =  40000
     Max angular momentum in pseudopotentials (lmaxx) =  3

     gamma-point specific algorithms are used

     Subspace diagonalization in iterative solution of the eigenvalue problem:
     one sub-group per band group will be used
     scalapack distributed-memory algorithm (size of sub-group:  5*  5 procs)

 
     Parallelization info
     --------------------
     sticks:   dense  smooth     PW     G-vecs:    dense   smooth      PW
     Min         184     184     44                14592    14592    1804
     Max         186     186     46                14606    14606    1822
     Sum       11057   11057   2757               875727   875727  109127
 


     bravais-lattice index     =            0
     lattice parameter (alat)  =      20.2276  a.u.
     unit-cell volume          =    8276.2749 (a.u.)^3
     number of atoms/cell      =          215
     number of atomic types    =            2
     number of electrons       =       862.00 (up: 432.00, down: 430.00)
     number of Kohn-Sham states=          800
     kinetic-energy cutoff     =      85.0000  Ry
     charge density cutoff     =     340.0000  Ry
     convergence threshold     =      1.0E-10
     mixing beta               =       0.7000
     number of iterations used =            8  plain     mixing
     Exchange-correlation      = PBE ( 1  4  3  4 0 0)

     celldm(1)=  20.227629  celldm(2)=   0.000000  celldm(3)=   0.000000
     celldm(4)=   0.000000  celldm(5)=   0.000000  celldm(6)=   0.000000

     crystal axes: (cart. coord. in units of alat)
               a(1) = (   1.000000   0.000000   0.000000 )  
               a(2) = (   0.000000   1.000000   0.000000 )  
               a(3) = (   0.000000   0.000000   1.000000 )  

     reciprocal axes: (cart. coord. in units 2 pi/alat)
               b(1) = (  1.000000  0.000000  0.000000 )  
               b(2) = (  0.000000  1.000000  0.000000 )  
               b(3) = (  0.000000  0.000000  1.000000 )  


     PseudoPot. # 1 for C  read from file:
     /home/jinyuchem/program/QE/pseudo-potential/C_ONCV_PBE-1.0.upf
     MD5 check sum: 40f8c33130f0afa4272e9dcc1c4fb0df
     Pseudo is Norm-conserving, Zval =  4.0
     Generated using ONCVPSP code by D. R. Hamann
     Using radial grid of  602 points,  4 beta functions with: 
                l(1) =   0
                l(2) =   0
                l(3) =   1
                l(4) =   1

     PseudoPot. # 2 for N  read from file:
     /home/jinyuchem/program/QE/pseudo-potential/N_ONCV_PBE-1.0.upf
     MD5 check sum: e7391ac1e3da9302b4611eea0a09cd4a
     Pseudo is Norm-conserving, Zval =  5.0
     Generated using ONCVPSP code by D. R. Hamann
     Using radial grid of  602 points,  4 beta functions with: 
                l(1) =   0
                l(2) =   0
                l(3) =   1
                l(4) =   1

     atomic species   valence    mass     pseudopotential
        C              4.00    12.01100     C ( 1.00)
        N              5.00    14.00700     N ( 1.00)

     Starting magnetic structure 
     atomic species   magnetization
        C            0.000
        N            0.000

     No symmetry found


                                    s                        frac. trans.

      isym =  1     identity                                     

 cryst.   s( 1) = (     1          0          0      )
                  (     0          1          0      )
                  (     0          0          1      )

 cart.    s( 1) = (  1.0000000  0.0000000  0.0000000 )
                  (  0.0000000  1.0000000  0.0000000 )
                  (  0.0000000  0.0000000  1.0000000 )


   Cartesian axes

     site n.     atom                  positions (alat units)
         1           C   tau(   1) = (   0.0000474   0.0000825  -0.0000032  )
         2           C   tau(   2) = (   0.0832957   0.0834302   0.0834013  )
         3           C   tau(   3) = (  -0.0001576   0.1668641   0.1668561  )
         4           C   tau(   4) = (   0.0828680   0.2502797   0.2502943  )
         5           C   tau(   5) = (   0.1666616   0.0000077   0.1667162  )
         6           C   tau(   6) = (   0.2498655   0.0832480   0.2500661  )
         7           C   tau(   7) = (   0.1666119   0.1667221  -0.0000307  )
         8           C   tau(   8) = (   0.2498256   0.2500079   0.0832569  )
         9           C   tau(   9) = (  -0.0000086   0.0003596   0.3334128  )
        10           C   tau(  10) = (   0.0831136   0.0837352   0.4167793  )
        11           C   tau(  11) = (  -0.0005700   0.1673382   0.5002601  )
        12           C   tau(  12) = (   0.0829570   0.2503627   0.5835881  )
        13           C   tau(  13) = (   0.1669965   0.0003174   0.5001512  )
        14           C   tau(  14) = (   0.2500604   0.0833829   0.5833306  )
        15           C   tau(  15) = (   0.1663166   0.1668235   0.3334483  )
        16           C   tau(  16) = (   0.2494673   0.2500468   0.4167010  )
        17           C   tau(  17) = (   0.0000987   0.0002506   0.6667396  )
        18           C   tau(  18) = (   0.0833775   0.0834960   0.7500635  )
        19           C   tau(  19) = (  -0.0000102   0.1667943   0.8333949  )
        20           C   tau(  20) = (   0.0832941   0.2501606   0.9166837  )
        21           C   tau(  21) = (   0.1667541   0.0000046   0.8332941  )
        22           C   tau(  22) = (   0.2500506   0.0833580   0.9165901  )
        23           C   tau(  23) = (   0.1666703   0.1668335   0.6666576  )
        24           C   tau(  24) = (   0.2500929   0.2502234   0.7499062  )
        25           C   tau(  25) = (  -0.0000617   0.3334007   0.0002959  )
        26           C   tau(  26) = (   0.0831423   0.4167010   0.0836136  )
        27           C   tau(  27) = (  -0.0003875   0.5001830   0.1671205  )
        28           C   tau(  28) = (   0.0834803   0.5835478   0.2498497  )
        29           C   tau(  29) = (   0.1663082   0.3333959   0.1668180  )
        30           C   tau(  30) = (   0.2494783   0.4166072   0.2500760  )
        31           C   tau(  31) = (   0.1669491   0.5001307   0.0002592  )
        32           C   tau(  32) = (   0.2500376   0.5833010   0.0833522  )
        33           C   tau(  33) = (  -0.0007825   0.3338698   0.3338517  )
        34           C   tau(  34) = (   0.0821901   0.4173512   0.4173523  )
        35           C   tau(  35) = (  -0.0017522   0.5011170   0.5008651  )
        36           C   tau(  36) = (   0.0824169   0.5836347   0.5835991  )
        37           C   tau(  37) = (   0.1660786   0.3336931   0.5001920  )
        38           C   tau(  38) = (   0.2497972   0.4168817   0.5833436  )
        39           C   tau(  39) = (   0.1661910   0.5001466   0.3336413  )
        40           C   tau(  40) = (   0.2498719   0.5833000   0.4168980  )
        41           C   tau(  41) = (  -0.0004320   0.3335932   0.6668044  )
        42           C   tau(  42) = (   0.0830561   0.4170301   0.7502009  )
        43           C   tau(  43) = (   0.0007293   0.5004813   0.8346535  )
        44           C   tau(  44) = (   0.0838483   0.5833337   0.9173222  )
        45           C   tau(  45) = (   0.1666641   0.3335051   0.8332348  )
        46           C   tau(  46) = (   0.2502292   0.4167219   0.9163519  )
        47           C   tau(  47) = (   0.1663840   0.5002116   0.6666721  )
        48           C   tau(  48) = (   0.2501912   0.5833755   0.7497866  )
        49           C   tau(  49) = (   0.0002396   0.6668012   0.0003616  )
        50           C   tau(  50) = (   0.0835502   0.7501167   0.0834540  )
        51           C   tau(  51) = (   0.0001655   0.8335356   0.1666283  )
        52           C   tau(  52) = (   0.0834064   0.9167678   0.2501474  )
        53           C   tau(  53) = (   0.1669436   0.6666529   0.1666574  )
        54           C   tau(  54) = (   0.2502414   0.7499218   0.2502108  )
        55           C   tau(  55) = (   0.1667930   0.8333387  -0.0000414  )
        56           C   tau(  56) = (   0.2500873   0.9166105   0.0833656  )
        57           C   tau(  57) = (   0.0004654   0.6667487   0.3325629  )
        58           C   tau(  58) = (   0.0834124   0.7501987   0.4167640  )
        59           C   tau(  59) = (   0.0009720   0.8345993   0.5002979  )
        60           C   tau(  60) = (   0.0839060   0.9173080   0.5833015  )
        61           C   tau(  61) = (   0.1664901   0.6666843   0.5001957  )
        62           C   tau(  62) = (   0.2502777   0.7497537   0.5834226  )
        63           C   tau(  63) = (   0.1668782   0.8333066   0.3334653  )
        64           C   tau(  64) = (   0.2503774   0.9163844   0.4167898  )
        65           C   tau(  65) = (  -0.0011431   0.6664278   0.6665205  )
        66           C   tau(  66) = (   0.0828465   0.7497809   0.7497815  )
        67           C   tau(  67) = (  -0.0000497   0.8333293   0.8333751  )
        68           C   tau(  68) = (   0.0833961   0.9166775   0.9166252  )
        69           C   tau(  69) = (   0.1667200   0.6666697   0.8332803  )
        70           C   tau(  70) = (   0.2501292   0.7499899   0.9165569  )
        71           C   tau(  71) = (   0.1667646   0.8332851   0.6666737  )
        72           C   tau(  72) = (   0.2501676   0.9165476   0.7500002  )
        73           C   tau(  73) = (   0.3333920  -0.0000907  -0.0000804  )
        74           C   tau(  74) = (   0.4166141   0.0831693   0.0832169  )
        75           C   tau(  75) = (   0.3331206   0.1665021   0.1665482  )
        76           C   tau(  76) = (   0.4162558   0.2496987   0.2498074  )
        77           C   tau(  77) = (   0.4999756  -0.0003450   0.1667091  )
        78           C   tau(  78) = (   0.5831309   0.0829378   0.2499285  )
        79           C   tau(  79) = (   0.4999420   0.1666075  -0.0003264  )
        80           C   tau(  80) = (   0.5830815   0.2497538   0.0830520  )
        81           C   tau(  81) = (   0.3333880  -0.0003301   0.3334152  )
        82           C   tau(  82) = (   0.4165394   0.0829140   0.4166519  )
        83           C   tau(  83) = (   0.3329980   0.1664429   0.4999411  )
        84           C   tau(  84) = (   0.4162220   0.2495750   0.5829885  )
        85           C   tau(  85) = (   0.5001642  -0.0003975   0.5000740  )
        86           C   tau(  86) = (   0.5834086   0.0831687   0.5833154  )
        87           C   tau(  87) = (   0.4995966   0.1660819   0.3330736  )
        88           C   tau(  88) = (   0.5827929   0.2491737   0.4160921  )
        89           C   tau(  89) = (   0.3334961  -0.0001087   0.6666017  )
        90           C   tau(  90) = (   0.4168259   0.0833324   0.7498961  )
        91           C   tau(  91) = (   0.3334117   0.1667378   0.8331438  )
        92           C   tau(  92) = (   0.4167632   0.2501126   0.9162561  )
        93           C   tau(  93) = (   0.5001598  -0.0000663   0.8331820  )
        94           C   tau(  94) = (   0.5833095   0.0834411   0.9163808  )
        95           C   tau(  95) = (   0.5000467   0.1667679   0.6663969  )
        96           C   tau(  96) = (   0.5835364   0.2509599   0.7490603  )
        97           C   tau(  97) = (   0.3332787   0.3333298  -0.0003183  )
        98           C   tau(  98) = (   0.4163910   0.4165101   0.0830408  )
        99           C   tau(  99) = (   0.3328841   0.4998600   0.1664429  )
       100           C   tau( 100) = (   0.4160935   0.5829410   0.2494663  )
       101           C   tau( 101) = (   0.4995181   0.3329245   0.1661290  )
       102           C   tau( 102) = (   0.5827086   0.4160252   0.2490619  )
       103           C   tau( 103) = (   0.4999130   0.4999111  -0.0000916  )
       104           C   tau( 104) = (   0.5832830   0.5832442   0.0832829  )
       105           C   tau( 105) = (   0.3327011   0.3330793   0.3331516  )
       106           C   tau( 106) = (   0.4159533   0.4161928   0.4161762  )
       107           C   tau( 107) = (   0.3333561   0.4999037   0.4999679  )
       108           C   tau( 108) = (   0.4176228   0.5831155   0.5832409  )
       109           C   tau( 109) = (   0.4989702   0.3321914   0.4994813  )
       110           C   tau( 110) = (   0.5841752   0.4171110   0.5793162  )
       111           C   tau( 111) = (   0.4987819   0.4994505   0.3318913  )
       112           C   tau( 112) = (   0.5838729   0.5793084   0.4164112  )
       113           C   tau( 113) = (   0.3335223   0.3335116   0.6663660  )
       114           C   tau( 114) = (   0.4179203   0.4169935   0.7489391  )
       115           C   tau( 115) = (   0.3338923   0.5001658   0.8327894  )
       116           C   tau( 116) = (   0.4167206   0.5834007   0.9167243  )
       117           C   tau( 117) = (   0.5003691   0.3336853   0.8328198  )
       118           C   tau( 118) = (   0.5835976   0.4169331   0.9164604  )
       119           C   tau( 119) = (   0.5022979   0.5008817   0.6650951  )
       120           C   tau( 120) = (   0.5862122   0.5842539   0.7488669  )
       121           C   tau( 121) = (   0.3333133   0.6665412   0.0000532  )
       122           C   tau( 122) = (   0.4167480   0.7499014   0.0833867  )
       123           C   tau( 123) = (   0.3334758   0.8331615   0.1667932  )
       124           C   tau( 124) = (   0.4168484   0.9162296   0.2502101  )
       125           C   tau( 125) = (   0.4999442   0.6663784   0.1667393  )
       126           C   tau( 126) = (   0.5835096   0.7490789   0.2507588  )
       127           C   tau( 127) = (   0.5001072   0.8332020   0.0000831  )
       128           C   tau( 128) = (   0.5832992   0.9164445   0.0834659  )
       129           C   tau( 129) = (   0.3335814   0.6663160   0.3335413  )
       130           C   tau( 130) = (   0.4180130   0.7488356   0.4170879  )
       131           C   tau( 131) = (   0.3340584   0.8326847   0.5002519  )
       132           C   tau( 132) = (   0.4171329   0.9162451   0.5835151  )
       133           C   tau( 133) = (   0.5023741   0.6647309   0.5008380  )
       134           C   tau( 134) = (   0.5872096   0.7470597   0.5844193  )
       135           C   tau( 135) = (   0.5004625   0.8326856   0.3337589  )
       136           C   tau( 136) = (   0.5838084   0.9159905   0.4171434  )
       137           C   tau( 137) = (   0.3338789   0.6664933   0.6665681  )
       138           C   tau( 138) = (   0.4173509   0.7496842   0.7499641  )
       139           C   tau( 139) = (   0.3336255   0.8331839   0.8332196  )
       140           C   tau( 140) = (   0.4168392   0.9165449   0.9165724  )
       141           C   tau( 141) = (   0.5001628   0.6662810   0.8337527  )
       142           C   tau( 142) = (   0.5836053   0.7500068   0.9168019  )
       143           C   tau( 143) = (   0.5007264   0.8328780   0.6665707  )
       144           C   tau( 144) = (   0.5837844   0.9164166   0.7501046  )
       145           C   tau( 145) = (   0.6667761   0.0002245   0.0002117  )
       146           C   tau( 146) = (   0.7499361   0.0833393   0.0833289  )
       147           C   tau( 147) = (   0.6664432   0.1662166   0.1663288  )
       148           C   tau( 148) = (   0.7495578   0.2493176   0.2493372  )
       149           C   tau( 149) = (   0.8332563   0.0004376   0.1664756  )
       150           C   tau( 150) = (   0.9165914   0.0836281   0.2501334  )
       151           C   tau( 151) = (   0.8332006   0.1664708   0.0003245  )
       152           C   tau( 152) = (   0.9165808   0.2500690   0.0835340  )
       153           C   tau( 153) = (   0.6666497  -0.0001713   0.3333915  )
       154           C   tau( 154) = (   0.7498952   0.0833175   0.4167736  )
       155           C   tau( 155) = (   0.6664621   0.1665808   0.4999221  )
       156           C   tau( 156) = (   0.7497366   0.2505351   0.5833212  )
       157           C   tau( 157) = (   0.8333354   0.0000977   0.5001260  )
       158           C   tau( 158) = (   0.9165018   0.0836398   0.5834418  )
       159           C   tau( 159) = (   0.8329628   0.1668855   0.3334388  )
       160           C   tau( 160) = (   0.9155204   0.2511450   0.4170605  )
       161           C   tau( 161) = (   0.6668249  -0.0001133   0.6666425  )
       162           C   tau( 162) = (   0.7500141   0.0834688   0.7498986  )
       163           C   tau( 163) = (   0.6667537   0.1670082   0.8329716  )
       164           C   tau( 164) = (   0.7500244   0.2495420   0.9172458  )
       165           C   tau( 165) = (   0.8333965   0.0001631   0.8334210  )
       166           C   tau( 166) = (   0.9167074   0.0834203   0.9167281  )
       167           C   tau( 167) = (   0.8332094   0.1669808   0.6666904  )
       168           C   tau( 168) = (   0.9164011   0.2502149   0.7502931  )
       169           C   tau( 169) = (   0.6665314   0.3331943   0.0000213  )
       170           C   tau( 170) = (   0.7498667   0.4166335   0.0833576  )
       171           C   tau( 171) = (   0.6664159   0.4998134   0.1664737  )
       172           C   tau( 172) = (   0.7498160   0.5832750   0.2501158  )
       173           C   tau( 173) = (   0.8329937   0.3333070   0.1667979  )
       174           C   tau( 174) = (   0.9156420   0.4169379   0.2508515  )
       175           C   tau( 175) = (   0.8333061   0.5000726   0.0002699  )
       176           C   tau( 176) = (   0.9166141   0.5834141   0.0835862  )
       177           C   tau( 177) = (   0.6660864   0.3318150   0.3317035  )
       178           C   tau( 178) = (   0.7459673   0.4165067   0.4161090  )
       179           C   tau( 179) = (   0.8313324   0.3350959   0.5007590  )
       180           C   tau( 180) = (   0.9134729   0.4195863   0.5846156  )
       181           C   tau( 181) = (   0.8316319   0.5007230   0.3344085  )
       182           C   tau( 182) = (   0.9150244   0.5846478   0.4176307  )
       183           C   tau( 183) = (   0.6675125   0.3349435   0.6653936  )
       184           C   tau( 184) = (   0.7509518   0.4175936   0.7504165  )
       185           C   tau( 185) = (   0.6669961   0.5000774   0.8334486  )
       186           C   tau( 186) = (   0.7501448   0.5834419   0.9168155  )
       187           C   tau( 187) = (   0.8328916   0.3324686   0.8346472  )
       188           C   tau( 188) = (   0.9166719   0.4166730   0.9171575  )
       189           C   tau( 189) = (   0.8370708   0.4961192   0.6755391  )
       190           C   tau( 190) = (   0.9155786   0.5828412   0.7505977  )
       191           C   tau( 191) = (   0.6667551   0.6666271   0.0001644  )
       192           C   tau( 192) = (   0.7500331   0.7499803   0.0835002  )
       193           C   tau( 193) = (   0.6667625   0.8330512   0.1669553  )
       194           C   tau( 194) = (   0.7500983   0.9172908   0.2494395  )
       195           C   tau( 195) = (   0.8333322   0.6667403   0.1667510  )
       196           C   tau( 196) = (   0.9167310   0.7503440   0.2497450  )
       197           C   tau( 197) = (   0.8334625   0.8335683   0.0003174  )
       198           C   tau( 198) = (   0.9167713   0.9168925   0.0834157  )
       199           C   tau( 199) = (   0.6674337   0.6653285   0.3343322  )
       200           C   tau( 200) = (   0.7511505   0.7501605   0.4166357  )
       201           C   tau( 201) = (   0.6675173   0.8325124   0.5003453  )
       202           C   tau( 202) = (   0.7502417   0.9162806   0.5835026  )
       203           C   tau( 203) = (   0.8403902   0.6762873   0.4919259  )
       204           C   tau( 204) = (   0.9159488   0.7501228   0.5825855  )
       205           C   tau( 205) = (   0.8331257   0.8346705   0.3320012  )
       206           C   tau( 206) = (   0.9167683   0.9171284   0.4165859  )
       207           C   tau( 207) = (   0.6669778   0.6696511   0.6722198  )
       208           C   tau( 208) = (   0.7497626   0.7493837   0.7502283  )
       209           C   tau( 209) = (   0.6673322   0.8341152   0.8344115  )
       210           C   tau( 210) = (   0.7500318   0.9171948   0.9172646  )
       211           C   tau( 211) = (   0.8335299   0.6669543   0.8339960  )
       212           C   tau( 212) = (   0.9166806   0.7500145   0.9169980  )
       213           C   tau( 213) = (   0.8332670   0.8330907   0.6667832  )
       214           C   tau( 214) = (   0.9165633   0.9165877   0.7498985  )
       215           N   tau( 215) = (   0.6596737   0.4920800   0.4911538  )

   Crystallographic axes

     site n.     atom                  positions (cryst. coord.)
         1           C   tau(   1) = (  0.0000474  0.0000825 -0.0000032  )
         2           C   tau(   2) = (  0.0832957  0.0834302  0.0834013  )
         3           C   tau(   3) = ( -0.0001576  0.1668641  0.1668561  )
         4           C   tau(   4) = (  0.0828680  0.2502797  0.2502943  )
         5           C   tau(   5) = (  0.1666616  0.0000077  0.1667162  )
         6           C   tau(   6) = (  0.2498655  0.0832480  0.2500661  )
         7           C   tau(   7) = (  0.1666119  0.1667221 -0.0000307  )
         8           C   tau(   8) = (  0.2498256  0.2500079  0.0832569  )
         9           C   tau(   9) = ( -0.0000086  0.0003596  0.3334128  )
        10           C   tau(  10) = (  0.0831136  0.0837352  0.4167793  )
        11           C   tau(  11) = ( -0.0005700  0.1673382  0.5002601  )
        12           C   tau(  12) = (  0.0829570  0.2503627  0.5835881  )
        13           C   tau(  13) = (  0.1669965  0.0003174  0.5001512  )
        14           C   tau(  14) = (  0.2500604  0.0833829  0.5833306  )
        15           C   tau(  15) = (  0.1663166  0.1668235  0.3334483  )
        16           C   tau(  16) = (  0.2494673  0.2500468  0.4167010  )
        17           C   tau(  17) = (  0.0000987  0.0002506  0.6667396  )
        18           C   tau(  18) = (  0.0833775  0.0834960  0.7500635  )
        19           C   tau(  19) = ( -0.0000102  0.1667943  0.8333949  )
        20           C   tau(  20) = (  0.0832941  0.2501606  0.9166837  )
        21           C   tau(  21) = (  0.1667541  0.0000046  0.8332941  )
        22           C   tau(  22) = (  0.2500506  0.0833580  0.9165901  )
        23           C   tau(  23) = (  0.1666703  0.1668335  0.6666576  )
        24           C   tau(  24) = (  0.2500929  0.2502234  0.7499062  )
        25           C   tau(  25) = ( -0.0000617  0.3334007  0.0002959  )
        26           C   tau(  26) = (  0.0831423  0.4167010  0.0836136  )
        27           C   tau(  27) = ( -0.0003875  0.5001830  0.1671205  )
        28           C   tau(  28) = (  0.0834803  0.5835478  0.2498497  )
        29           C   tau(  29) = (  0.1663082  0.3333959  0.1668180  )
        30           C   tau(  30) = (  0.2494783  0.4166072  0.2500760  )
        31           C   tau(  31) = (  0.1669491  0.5001307  0.0002592  )
        32           C   tau(  32) = (  0.2500376  0.5833010  0.0833522  )
        33           C   tau(  33) = ( -0.0007825  0.3338698  0.3338517  )
        34           C   tau(  34) = (  0.0821901  0.4173512  0.4173523  )
        35           C   tau(  35) = ( -0.0017522  0.5011170  0.5008651  )
        36           C   tau(  36) = (  0.0824169  0.5836347  0.5835991  )
        37           C   tau(  37) = (  0.1660786  0.3336931  0.5001920  )
        38           C   tau(  38) = (  0.2497972  0.4168817  0.5833436  )
        39           C   tau(  39) = (  0.1661910  0.5001466  0.3336413  )
        40           C   tau(  40) = (  0.2498719  0.5833000  0.4168980  )
        41           C   tau(  41) = ( -0.0004320  0.3335932  0.6668044  )
        42           C   tau(  42) = (  0.0830561  0.4170301  0.7502009  )
        43           C   tau(  43) = (  0.0007293  0.5004813  0.8346535  )
        44           C   tau(  44) = (  0.0838483  0.5833337  0.9173222  )
        45           C   tau(  45) = (  0.1666641  0.3335051  0.8332348  )
        46           C   tau(  46) = (  0.2502292  0.4167219  0.9163519  )
        47           C   tau(  47) = (  0.1663840  0.5002116  0.6666721  )
        48           C   tau(  48) = (  0.2501912  0.5833755  0.7497866  )
        49           C   tau(  49) = (  0.0002396  0.6668012  0.0003616  )
        50           C   tau(  50) = (  0.0835502  0.7501167  0.0834540  )
        51           C   tau(  51) = (  0.0001655  0.8335356  0.1666283  )
        52           C   tau(  52) = (  0.0834064  0.9167678  0.2501474  )
        53           C   tau(  53) = (  0.1669436  0.6666529  0.1666574  )
        54           C   tau(  54) = (  0.2502414  0.7499218  0.2502108  )
        55           C   tau(  55) = (  0.1667930  0.8333387 -0.0000414  )
        56           C   tau(  56) = (  0.2500873  0.9166105  0.0833656  )
        57           C   tau(  57) = (  0.0004654  0.6667487  0.3325629  )
        58           C   tau(  58) = (  0.0834124  0.7501987  0.4167640  )
        59           C   tau(  59) = (  0.0009720  0.8345993  0.5002979  )
        60           C   tau(  60) = (  0.0839060  0.9173080  0.5833015  )
        61           C   tau(  61) = (  0.1664901  0.6666843  0.5001957  )
        62           C   tau(  62) = (  0.2502777  0.7497537  0.5834226  )
        63           C   tau(  63) = (  0.1668782  0.8333066  0.3334653  )
        64           C   tau(  64) = (  0.2503774  0.9163844  0.4167898  )
        65           C   tau(  65) = ( -0.0011431  0.6664278  0.6665205  )
        66           C   tau(  66) = (  0.0828465  0.7497809  0.7497815  )
        67           C   tau(  67) = ( -0.0000497  0.8333293  0.8333751  )
        68           C   tau(  68) = (  0.0833961  0.9166775  0.9166252  )
        69           C   tau(  69) = (  0.1667200  0.6666697  0.8332803  )
        70           C   tau(  70) = (  0.2501292  0.7499899  0.9165569  )
        71           C   tau(  71) = (  0.1667646  0.8332851  0.6666737  )
        72           C   tau(  72) = (  0.2501676  0.9165476  0.7500002  )
        73           C   tau(  73) = (  0.3333920 -0.0000907 -0.0000804  )
        74           C   tau(  74) = (  0.4166141  0.0831693  0.0832169  )
        75           C   tau(  75) = (  0.3331206  0.1665021  0.1665482  )
        76           C   tau(  76) = (  0.4162558  0.2496987  0.2498074  )
        77           C   tau(  77) = (  0.4999756 -0.0003450  0.1667091  )
        78           C   tau(  78) = (  0.5831309  0.0829378  0.2499285  )
        79           C   tau(  79) = (  0.4999420  0.1666075 -0.0003264  )
        80           C   tau(  80) = (  0.5830815  0.2497538  0.0830520  )
        81           C   tau(  81) = (  0.3333880 -0.0003301  0.3334152  )
        82           C   tau(  82) = (  0.4165394  0.0829140  0.4166519  )
        83           C   tau(  83) = (  0.3329980  0.1664429  0.4999411  )
        84           C   tau(  84) = (  0.4162220  0.2495750  0.5829885  )
        85           C   tau(  85) = (  0.5001642 -0.0003975  0.5000740  )
        86           C   tau(  86) = (  0.5834086  0.0831687  0.5833154  )
        87           C   tau(  87) = (  0.4995966  0.1660819  0.3330736  )
        88           C   tau(  88) = (  0.5827929  0.2491737  0.4160921  )
        89           C   tau(  89) = (  0.3334961 -0.0001087  0.6666017  )
        90           C   tau(  90) = (  0.4168259  0.0833324  0.7498961  )
        91           C   tau(  91) = (  0.3334117  0.1667378  0.8331438  )
        92           C   tau(  92) = (  0.4167632  0.2501126  0.9162561  )
        93           C   tau(  93) = (  0.5001598 -0.0000663  0.8331820  )
        94           C   tau(  94) = (  0.5833095  0.0834411  0.9163808  )
        95           C   tau(  95) = (  0.5000467  0.1667679  0.6663969  )
        96           C   tau(  96) = (  0.5835364  0.2509599  0.7490603  )
        97           C   tau(  97) = (  0.3332787  0.3333298 -0.0003183  )
        98           C   tau(  98) = (  0.4163910  0.4165101  0.0830408  )
        99           C   tau(  99) = (  0.3328841  0.4998600  0.1664429  )
       100           C   tau( 100) = (  0.4160935  0.5829410  0.2494663  )
       101           C   tau( 101) = (  0.4995181  0.3329245  0.1661290  )
       102           C   tau( 102) = (  0.5827086  0.4160252  0.2490619  )
       103           C   tau( 103) = (  0.4999130  0.4999111 -0.0000916  )
       104           C   tau( 104) = (  0.5832830  0.5832442  0.0832829  )
       105           C   tau( 105) = (  0.3327011  0.3330793  0.3331516  )
       106           C   tau( 106) = (  0.4159533  0.4161928  0.4161762  )
       107           C   tau( 107) = (  0.3333561  0.4999037  0.4999679  )
       108           C   tau( 108) = (  0.4176228  0.5831155  0.5832409  )
       109           C   tau( 109) = (  0.4989702  0.3321914  0.4994813  )
       110           C   tau( 110) = (  0.5841752  0.4171110  0.5793162  )
       111           C   tau( 111) = (  0.4987819  0.4994505  0.3318913  )
       112           C   tau( 112) = (  0.5838729  0.5793084  0.4164112  )
       113           C   tau( 113) = (  0.3335223  0.3335116  0.6663660  )
       114           C   tau( 114) = (  0.4179203  0.4169935  0.7489391  )
       115           C   tau( 115) = (  0.3338923  0.5001658  0.8327894  )
       116           C   tau( 116) = (  0.4167206  0.5834007  0.9167243  )
       117           C   tau( 117) = (  0.5003691  0.3336853  0.8328198  )
       118           C   tau( 118) = (  0.5835976  0.4169331  0.9164604  )
       119           C   tau( 119) = (  0.5022979  0.5008817  0.6650951  )
       120           C   tau( 120) = (  0.5862122  0.5842539  0.7488669  )
       121           C   tau( 121) = (  0.3333133  0.6665412  0.0000532  )
       122           C   tau( 122) = (  0.4167480  0.7499014  0.0833867  )
       123           C   tau( 123) = (  0.3334758  0.8331615  0.1667932  )
       124           C   tau( 124) = (  0.4168484  0.9162296  0.2502101  )
       125           C   tau( 125) = (  0.4999442  0.6663784  0.1667393  )
       126           C   tau( 126) = (  0.5835096  0.7490789  0.2507588  )
       127           C   tau( 127) = (  0.5001072  0.8332020  0.0000831  )
       128           C   tau( 128) = (  0.5832992  0.9164445  0.0834659  )
       129           C   tau( 129) = (  0.3335814  0.6663160  0.3335413  )
       130           C   tau( 130) = (  0.4180130  0.7488356  0.4170879  )
       131           C   tau( 131) = (  0.3340584  0.8326847  0.5002519  )
       132           C   tau( 132) = (  0.4171329  0.9162451  0.5835151  )
       133           C   tau( 133) = (  0.5023741  0.6647309  0.5008380  )
       134           C   tau( 134) = (  0.5872096  0.7470597  0.5844193  )
       135           C   tau( 135) = (  0.5004625  0.8326856  0.3337589  )
       136           C   tau( 136) = (  0.5838084  0.9159905  0.4171434  )
       137           C   tau( 137) = (  0.3338789  0.6664933  0.6665681  )
       138           C   tau( 138) = (  0.4173509  0.7496842  0.7499641  )
       139           C   tau( 139) = (  0.3336255  0.8331839  0.8332196  )
       140           C   tau( 140) = (  0.4168392  0.9165449  0.9165724  )
       141           C   tau( 141) = (  0.5001628  0.6662810  0.8337527  )
       142           C   tau( 142) = (  0.5836053  0.7500068  0.9168019  )
       143           C   tau( 143) = (  0.5007264  0.8328780  0.6665707  )
       144           C   tau( 144) = (  0.5837844  0.9164166  0.7501046  )
       145           C   tau( 145) = (  0.6667761  0.0002245  0.0002117  )
       146           C   tau( 146) = (  0.7499361  0.0833393  0.0833289  )
       147           C   tau( 147) = (  0.6664432  0.1662166  0.1663288  )
       148           C   tau( 148) = (  0.7495578  0.2493176  0.2493372  )
       149           C   tau( 149) = (  0.8332563  0.0004376  0.1664756  )
       150           C   tau( 150) = (  0.9165914  0.0836281  0.2501334  )
       151           C   tau( 151) = (  0.8332006  0.1664708  0.0003245  )
       152           C   tau( 152) = (  0.9165808  0.2500690  0.0835340  )
       153           C   tau( 153) = (  0.6666497 -0.0001713  0.3333915  )
       154           C   tau( 154) = (  0.7498952  0.0833175  0.4167736  )
       155           C   tau( 155) = (  0.6664621  0.1665808  0.4999221  )
       156           C   tau( 156) = (  0.7497366  0.2505351  0.5833212  )
       157           C   tau( 157) = (  0.8333354  0.0000977  0.5001260  )
       158           C   tau( 158) = (  0.9165018  0.0836398  0.5834418  )
       159           C   tau( 159) = (  0.8329628  0.1668855  0.3334388  )
       160           C   tau( 160) = (  0.9155204  0.2511450  0.4170605  )
       161           C   tau( 161) = (  0.6668249 -0.0001133  0.6666425  )
       162           C   tau( 162) = (  0.7500141  0.0834688  0.7498986  )
       163           C   tau( 163) = (  0.6667537  0.1670082  0.8329716  )
       164           C   tau( 164) = (  0.7500244  0.2495420  0.9172458  )
       165           C   tau( 165) = (  0.8333965  0.0001631  0.8334210  )
       166           C   tau( 166) = (  0.9167074  0.0834203  0.9167281  )
       167           C   tau( 167) = (  0.8332094  0.1669808  0.6666904  )
       168           C   tau( 168) = (  0.9164011  0.2502149  0.7502931  )
       169           C   tau( 169) = (  0.6665314  0.3331943  0.0000213  )
       170           C   tau( 170) = (  0.7498667  0.4166335  0.0833576  )
       171           C   tau( 171) = (  0.6664159  0.4998134  0.1664737  )
       172           C   tau( 172) = (  0.7498160  0.5832750  0.2501158  )
       173           C   tau( 173) = (  0.8329937  0.3333070  0.1667979  )
       174           C   tau( 174) = (  0.9156420  0.4169379  0.2508515  )
       175           C   tau( 175) = (  0.8333061  0.5000726  0.0002699  )
       176           C   tau( 176) = (  0.9166141  0.5834141  0.0835862  )
       177           C   tau( 177) = (  0.6660864  0.3318150  0.3317035  )
       178           C   tau( 178) = (  0.7459673  0.4165067  0.4161090  )
       179           C   tau( 179) = (  0.8313324  0.3350959  0.5007590  )
       180           C   tau( 180) = (  0.9134729  0.4195863  0.5846156  )
       181           C   tau( 181) = (  0.8316319  0.5007230  0.3344085  )
       182           C   tau( 182) = (  0.9150244  0.5846478  0.4176307  )
       183           C   tau( 183) = (  0.6675125  0.3349435  0.6653936  )
       184           C   tau( 184) = (  0.7509518  0.4175936  0.7504165  )
       185           C   tau( 185) = (  0.6669961  0.5000774  0.8334486  )
       186           C   tau( 186) = (  0.7501448  0.5834419  0.9168155  )
       187           C   tau( 187) = (  0.8328916  0.3324686  0.8346472  )
       188           C   tau( 188) = (  0.9166719  0.4166730  0.9171575  )
       189           C   tau( 189) = (  0.8370708  0.4961192  0.6755391  )
       190           C   tau( 190) = (  0.9155786  0.5828412  0.7505977  )
       191           C   tau( 191) = (  0.6667551  0.6666271  0.0001644  )
       192           C   tau( 192) = (  0.7500331  0.7499803  0.0835002  )
       193           C   tau( 193) = (  0.6667625  0.8330512  0.1669553  )
       194           C   tau( 194) = (  0.7500983  0.9172908  0.2494395  )
       195           C   tau( 195) = (  0.8333322  0.6667403  0.1667510  )
       196           C   tau( 196) = (  0.9167310  0.7503440  0.2497450  )
       197           C   tau( 197) = (  0.8334625  0.8335683  0.0003174  )
       198           C   tau( 198) = (  0.9167713  0.9168925  0.0834157  )
       199           C   tau( 199) = (  0.6674337  0.6653285  0.3343322  )
       200           C   tau( 200) = (  0.7511505  0.7501605  0.4166357  )
       201           C   tau( 201) = (  0.6675173  0.8325124  0.5003453  )
       202           C   tau( 202) = (  0.7502417  0.9162806  0.5835026  )
       203           C   tau( 203) = (  0.8403902  0.6762873  0.4919259  )
       204           C   tau( 204) = (  0.9159488  0.7501228  0.5825855  )
       205           C   tau( 205) = (  0.8331257  0.8346705  0.3320012  )
       206           C   tau( 206) = (  0.9167683  0.9171284  0.4165859  )
       207           C   tau( 207) = (  0.6669778  0.6696511  0.6722198  )
       208           C   tau( 208) = (  0.7497626  0.7493837  0.7502283  )
       209           C   tau( 209) = (  0.6673322  0.8341152  0.8344115  )
       210           C   tau( 210) = (  0.7500318  0.9171948  0.9172646  )
       211           C   tau( 211) = (  0.8335299  0.6669543  0.8339960  )
       212           C   tau( 212) = (  0.9166806  0.7500145  0.9169980  )
       213           C   tau( 213) = (  0.8332670  0.8330907  0.6667832  )
       214           C   tau( 214) = (  0.9165633  0.9165877  0.7498985  )
       215           N   tau( 215) = (  0.6596737  0.4920800  0.4911538  )

     number of k points=     1
                       cart. coord. in units 2pi/alat
        k(    1) = (   0.0000000   0.0000000   0.0000000), wk =   1.0000000

                       cryst. coord.
        k(    1) = (   0.0000000   0.0000000   0.0000000), wk =   1.0000000

     Dense  grid:   437864 G-vectors     FFT dimensions: ( 120, 120, 120)

     Estimated max dynamical RAM per process >     104.69MB

     Estimated total allocated dynamical RAM >   12562.26MB
     Generating pointlists ...
     new r_m :   0.0565 (alat units)  1.1437 (a.u.) for type    1
     new r_m :   0.0565 (alat units)  1.1437 (a.u.) for type    2

     Initial potential from superposition of free atoms

     starting charge  859.50659, renormalised to  862.00000
     Starting wfc are random

     total cpu time spent up to now is        4.4 secs

     per-process dynamical memory:    76.4 Mb

     Self-consistent Calculation

     iteration #  1     ecut=    85.00 Ry     beta=0.70
     Davidson diagonalization with overlap
     ethr =  1.00E-02,  avg # of iterations =  8.0

     total cpu time spent up to now is       48.1 secs

     total energy              =   -2455.48293873 Ry
     Harris-Foulkes estimate   =   -2461.07848145 Ry
     estimated scf accuracy    <      12.59912127 Ry

     total magnetization       =     2.00 Bohr mag/cell
     absolute magnetization    =     2.00 Bohr mag/cell

     iteration #  2     ecut=    85.00 Ry     beta=0.70
     Davidson diagonalization with overlap
     ethr =  1.46E-03,  avg # of iterations =  7.0

     total cpu time spent up to now is       68.6 secs

     total energy              =   -2455.94324559 Ry
     Harris-Foulkes estimate   =   -2456.63401761 Ry
     estimated scf accuracy    <       1.01598077 Ry

     total magnetization       =     2.00 Bohr mag/cell
     absolute magnetization    =     2.08 Bohr mag/cell

     iteration #  3     ecut=    85.00 Ry     beta=0.70
     Davidson diagonalization with overlap
     ethr =  1.18E-04,  avg # of iterations =  6.0

     total cpu time spent up to now is      102.2 secs

     total energy              =   -2455.30472900 Ry
     Harris-Foulkes estimate   =   -2457.45664477 Ry
     estimated scf accuracy    <       6.86347360 Ry

     total magnetization       =     2.00 Bohr mag/cell
     absolute magnetization    =     2.20 Bohr mag/cell

     iteration #  4     ecut=    85.00 Ry     beta=0.70
     Davidson diagonalization with overlap
     ethr =  1.18E-04,  avg # of iterations =  6.0

     total cpu time spent up to now is      125.9 secs

     total energy              =   -2456.48360670 Ry
     Harris-Foulkes estimate   =   -2456.51637687 Ry
     estimated scf accuracy    <       0.10047403 Ry

     total magnetization       =     2.00 Bohr mag/cell
     absolute magnetization    =     2.15 Bohr mag/cell

     iteration #  5     ecut=    85.00 Ry     beta=0.70
     Davidson diagonalization with overlap
     ethr =  1.17E-05,  avg # of iterations =  7.0

     total cpu time spent up to now is      149.4 secs

     total energy              =   -2456.49859520 Ry
     Harris-Foulkes estimate   =   -2456.50496363 Ry
     estimated scf accuracy    <       0.02377361 Ry

     total magnetization       =     2.00 Bohr mag/cell
     absolute magnetization    =     2.18 Bohr mag/cell

     iteration #  6     ecut=    85.00 Ry     beta=0.70
     Davidson diagonalization with overlap
     ethr =  2.76E-06,  avg # of iterations =  7.0

     total cpu time spent up to now is      173.9 secs

     total energy              =   -2456.50274039 Ry
     Harris-Foulkes estimate   =   -2456.50465701 Ry
     estimated scf accuracy    <       0.00648727 Ry

     total magnetization       =     2.00 Bohr mag/cell
     absolute magnetization    =     2.22 Bohr mag/cell

     iteration #  7     ecut=    85.00 Ry     beta=0.70
     Davidson diagonalization with overlap
     ethr =  7.53E-07,  avg # of iterations =  7.0

     total cpu time spent up to now is      198.3 secs

     total energy              =   -2456.50407516 Ry
     Harris-Foulkes estimate   =   -2456.50452983 Ry
     estimated scf accuracy    <       0.00142495 Ry

     total magnetization       =     2.00 Bohr mag/cell
     absolute magnetization    =     2.24 Bohr mag/cell

     iteration #  8     ecut=    85.00 Ry     beta=0.70
     Davidson diagonalization with overlap
     ethr =  1.65E-07,  avg # of iterations =  7.0

     total cpu time spent up to now is      223.2 secs

     total energy              =   -2456.50446769 Ry
     Harris-Foulkes estimate   =   -2456.50454279 Ry
     estimated scf accuracy    <       0.00044314 Ry

     total magnetization       =     2.00 Bohr mag/cell
     absolute magnetization    =     2.25 Bohr mag/cell

     iteration #  9     ecut=    85.00 Ry     beta=0.70
     Davidson diagonalization with overlap
     ethr =  5.14E-08,  avg # of iterations =  7.0

     total cpu time spent up to now is      247.1 secs

     total energy              =   -2456.50457743 Ry
     Harris-Foulkes estimate   =   -2456.50457588 Ry
     estimated scf accuracy    <       0.00006422 Ry

     total magnetization       =     2.00 Bohr mag/cell
     absolute magnetization    =     2.26 Bohr mag/cell

     iteration # 10     ecut=    85.00 Ry     beta=0.70
     Davidson diagonalization with overlap
     ethr =  7.45E-09,  avg # of iterations =  7.0

     total cpu time spent up to now is      271.7 secs

     total energy              =   -2456.50460129 Ry
     Harris-Foulkes estimate   =   -2456.50459649 Ry
     estimated scf accuracy    <       0.00001252 Ry

     total magnetization       =     2.00 Bohr mag/cell
     absolute magnetization    =     2.27 Bohr mag/cell

     iteration # 11     ecut=    85.00 Ry     beta=0.70
     Davidson diagonalization with overlap
     ethr =  1.45E-09,  avg # of iterations =  7.0

     total cpu time spent up to now is      299.2 secs

     total energy              =   -2456.50460586 Ry
     Harris-Foulkes estimate   =   -2456.50460732 Ry
     estimated scf accuracy    <       0.00000568 Ry

     total magnetization       =     2.00 Bohr mag/cell
     absolute magnetization    =     2.28 Bohr mag/cell

     iteration # 12     ecut=    85.00 Ry     beta=0.70
     Davidson diagonalization with overlap
     ethr =  6.59E-10,  avg # of iterations =  7.0

     total cpu time spent up to now is      323.9 secs

     total energy              =   -2456.50460733 Ry
     Harris-Foulkes estimate   =   -2456.50460753 Ry
     estimated scf accuracy    <       0.00000091 Ry

     total magnetization       =     2.00 Bohr mag/cell
     absolute magnetization    =     2.28 Bohr mag/cell

     iteration # 13     ecut=    85.00 Ry     beta=0.70
     Davidson diagonalization with overlap
     ethr =  1.05E-10,  avg # of iterations =  7.0

     total cpu time spent up to now is      348.3 secs

     total energy              =   -2456.50460761 Ry
     Harris-Foulkes estimate   =   -2456.50460760 Ry
     estimated scf accuracy    <       0.00000015 Ry

     total magnetization       =     2.00 Bohr mag/cell
     absolute magnetization    =     2.28 Bohr mag/cell

     iteration # 14     ecut=    85.00 Ry     beta=0.70
     Davidson diagonalization with overlap
     ethr =  1.70E-11,  avg # of iterations =  6.5

     total cpu time spent up to now is      375.4 secs

     total energy              =   -2456.50460766 Ry
     Harris-Foulkes estimate   =   -2456.50460766 Ry
     estimated scf accuracy    <       0.00000004 Ry

     total magnetization       =     2.00 Bohr mag/cell
     absolute magnetization    =     2.28 Bohr mag/cell

     iteration # 15     ecut=    85.00 Ry     beta=0.70
     Davidson diagonalization with overlap
     ethr =  4.25E-12,  avg # of iterations =  6.0

     total cpu time spent up to now is      400.3 secs

     total energy              =   -2456.50460767 Ry
     Harris-Foulkes estimate   =   -2456.50460768 Ry
     estimated scf accuracy    <       0.00000002 Ry

     total magnetization       =     2.00 Bohr mag/cell
     absolute magnetization    =     2.28 Bohr mag/cell

     iteration # 16     ecut=    85.00 Ry     beta=0.70
     Davidson diagonalization with overlap
     ethr =  2.38E-12,  avg # of iterations =  6.0

     total cpu time spent up to now is      422.3 secs

     total energy              =   -2456.50460768 Ry
     Harris-Foulkes estimate   =   -2456.50460768 Ry
     estimated scf accuracy    <          6.0E-09 Ry

     total magnetization       =     2.00 Bohr mag/cell
     absolute magnetization    =     2.28 Bohr mag/cell

     iteration # 17     ecut=    85.00 Ry     beta=0.70
     Davidson diagonalization with overlap
     ethr =  7.02E-13,  avg # of iterations =  6.5

     total cpu time spent up to now is      448.7 secs

     total energy              =   -2456.50460768 Ry
     Harris-Foulkes estimate   =   -2456.50460768 Ry
     estimated scf accuracy    <          1.8E-09 Ry

     total magnetization       =     2.00 Bohr mag/cell
     absolute magnetization    =     2.28 Bohr mag/cell

     iteration # 18     ecut=    85.00 Ry     beta=0.70
     Davidson diagonalization with overlap
     ethr =  2.04E-13,  avg # of iterations =  7.0

     total cpu time spent up to now is      474.0 secs

     total energy              =   -2456.50460768 Ry
     Harris-Foulkes estimate   =   -2456.50460768 Ry
     estimated scf accuracy    <          5.5E-10 Ry

     total magnetization       =     2.00 Bohr mag/cell
     absolute magnetization    =     2.28 Bohr mag/cell

     iteration # 19     ecut=    85.00 Ry     beta=0.70
     Davidson diagonalization with overlap
     ethr =  1.00E-13,  avg # of iterations =  7.0

     total cpu time spent up to now is      498.3 secs

     total energy              =   -2456.50460768 Ry
     Harris-Foulkes estimate   =   -2456.50460768 Ry
     estimated scf accuracy    <          3.6E-10 Ry

     total magnetization       =     2.00 Bohr mag/cell
     absolute magnetization    =     2.28 Bohr mag/cell

     iteration # 20     ecut=    85.00 Ry     beta=0.70
     Davidson diagonalization with overlap
     ethr =  1.00E-13,  avg # of iterations =  7.0
 
     Magnetic moment per site:
     atom:    1    charge:    1.7913    magn:    0.0001    constr:    0.0000
     atom:    2    charge:    1.7902    magn:   -0.0000    constr:    0.0000
     atom:    3    charge:    1.7916    magn:    0.0002    constr:    0.0000
     atom:    4    charge:    1.7896    magn:    0.0001    constr:    0.0000
     atom:    5    charge:    1.7912    magn:    0.0005    constr:    0.0000
     atom:    6    charge:    1.7895    magn:    0.0000    constr:    0.0000
     atom:    7    charge:    1.7911    magn:    0.0005    constr:    0.0000
     atom:    8    charge:    1.7897    magn:    0.0000    constr:    0.0000
     atom:    9    charge:    1.7917    magn:    0.0011    constr:    0.0000
     atom:   10    charge:    1.7892    magn:   -0.0001    constr:    0.0000
     atom:   11    charge:    1.7880    magn:    0.0002    constr:    0.0000
     atom:   12    charge:    1.7912    magn:    0.0032    constr:    0.0000
     atom:   13    charge:    1.7913    magn:    0.0013    constr:    0.0000
     atom:   14    charge:    1.7932    magn:    0.0013    constr:    0.0000
     atom:   15    charge:    1.7915    magn:    0.0001    constr:    0.0000
     atom:   16    charge:    1.7906    magn:   -0.0000    constr:    0.0000
     atom:   17    charge:    1.7895    magn:    0.0001    constr:    0.0000
     atom:   18    charge:    1.7911    magn:   -0.0001    constr:    0.0000
     atom:   19    charge:    1.7910    magn:    0.0011    constr:    0.0000
     atom:   20    charge:    1.7903    magn:   -0.0001    constr:    0.0000
     atom:   21    charge:    1.7907    magn:    0.0001    constr:    0.0000
     atom:   22    charge:    1.7903    magn:   -0.0000    constr:    0.0000
     atom:   23    charge:    1.7899    magn:    0.0015    constr:    0.0000
     atom:   24    charge:    1.7901    magn:   -0.0001    constr:    0.0000
     atom:   25    charge:    1.7919    magn:    0.0011    constr:    0.0000
     atom:   26    charge:    1.7898    magn:   -0.0001    constr:    0.0000
     atom:   27    charge:    1.7885    magn:    0.0002    constr:    0.0000
     atom:   28    charge:    1.7941    magn:    0.0036    constr:    0.0000
     atom:   29    charge:    1.7915    magn:    0.0001    constr:    0.0000
     atom:   30    charge:    1.7910    magn:   -0.0000    constr:    0.0000
     atom:   31    charge:    1.7917    magn:    0.0012    constr:    0.0000
     atom:   32    charge:    1.7950    magn:    0.0012    constr:    0.0000
     atom:   33    charge:    1.7910    magn:    0.0004    constr:    0.0000
     atom:   34    charge:    1.7872    magn:   -0.0008    constr:    0.0000
     atom:   35    charge:    1.7889    magn:    0.0061    constr:    0.0000
     atom:   36    charge:    1.7911    magn:   -0.0010    constr:    0.0000
     atom:   37    charge:    1.7892    magn:    0.0001    constr:    0.0000
     atom:   38    charge:    1.7903    magn:   -0.0001    constr:    0.0000
     atom:   39    charge:    1.7891    magn:    0.0001    constr:    0.0000
     atom:   40    charge:    1.7904    magn:   -0.0001    constr:    0.0000
     atom:   41    charge:    1.7832    magn:    0.0176    constr:    0.0000
     atom:   42    charge:    1.7891    magn:   -0.0011    constr:    0.0000
     atom:   43    charge:    1.7916    magn:    0.0166    constr:    0.0000
     atom:   44    charge:    1.7952    magn:    0.0017    constr:    0.0000
     atom:   45    charge:    1.7905    magn:    0.0011    constr:    0.0000
     atom:   46    charge:    1.7891    magn:   -0.0001    constr:    0.0000
     atom:   47    charge:    1.7895    magn:    0.0015    constr:    0.0000
     atom:   48    charge:    1.7902    magn:   -0.0001    constr:    0.0000
     atom:   49    charge:    1.7907    magn:    0.0002    constr:    0.0000
     atom:   50    charge:    1.7918    magn:   -0.0001    constr:    0.0000
     atom:   51    charge:    1.7918    magn:    0.0010    constr:    0.0000
     atom:   52    charge:    1.7902    magn:   -0.0000    constr:    0.0000
     atom:   53    charge:    1.7918    magn:    0.0017    constr:    0.0000
     atom:   54    charge:    1.7904    magn:   -0.0001    constr:    0.0000
     atom:   55    charge:    1.7909    magn:    0.0001    constr:    0.0000
     atom:   56    charge:    1.7902    magn:   -0.0000    constr:    0.0000
     atom:   57    charge:    1.7878    magn:    0.0193    constr:    0.0000
     atom:   58    charge:    1.7891    magn:   -0.0011    constr:    0.0000
     atom:   59    charge:    1.7906    magn:    0.0177    constr:    0.0000
     atom:   60    charge:    1.7950    magn:    0.0022    constr:    0.0000
     atom:   61    charge:    1.7895    magn:    0.0015    constr:    0.0000
     atom:   62    charge:    1.7902    magn:   -0.0001    constr:    0.0000
     atom:   63    charge:    1.7910    magn:    0.0011    constr:    0.0000
     atom:   64    charge:    1.7888    magn:   -0.0001    constr:    0.0000
     atom:   65    charge:    1.7866    magn:    0.0071    constr:    0.0000
     atom:   66    charge:    1.7874    magn:   -0.0004    constr:    0.0000
     atom:   67    charge:    1.7901    magn:    0.0002    constr:    0.0000
     atom:   68    charge:    1.7908    magn:   -0.0001    constr:    0.0000
     atom:   69    charge:    1.7889    magn:    0.0002    constr:    0.0000
     atom:   70    charge:    1.7906    magn:   -0.0001    constr:    0.0000
     atom:   71    charge:    1.7887    magn:    0.0001    constr:    0.0000
     atom:   72    charge:    1.7904    magn:   -0.0001    constr:    0.0000
     atom:   73    charge:    1.7909    magn:    0.0004    constr:    0.0000
     atom:   74    charge:    1.7898    magn:    0.0000    constr:    0.0000
     atom:   75    charge:    1.7914    magn:    0.0001    constr:    0.0000
     atom:   76    charge:    1.7908    magn:    0.0000    constr:    0.0000
     atom:   77    charge:    1.7914    magn:    0.0001    constr:    0.0000
     atom:   78    charge:    1.7918    magn:   -0.0000    constr:    0.0000
     atom:   79    charge:    1.7913    magn:    0.0001    constr:    0.0000
     atom:   80    charge:    1.7922    magn:   -0.0000    constr:    0.0000
     atom:   81    charge:    1.7913    magn:    0.0001    constr:    0.0000
     atom:   82    charge:    1.7909    magn:   -0.0000    constr:    0.0000
     atom:   83    charge:    1.7923    magn:    0.0002    constr:    0.0000
     atom:   84    charge:    1.7946    magn:    0.0002    constr:    0.0000
     atom:   85    charge:    1.7900    magn:    0.0001    constr:    0.0000
     atom:   86    charge:    1.7910    magn:   -0.0001    constr:    0.0000
     atom:   87    charge:    1.7933    magn:    0.0000    constr:    0.0000
     atom:   88    charge:    1.7921    magn:   -0.0001    constr:    0.0000
     atom:   89    charge:    1.7895    magn:    0.0014    constr:    0.0000
     atom:   90    charge:    1.7903    magn:   -0.0001    constr:    0.0000
     atom:   91    charge:    1.7908    magn:    0.0002    constr:    0.0000
     atom:   92    charge:    1.7897    magn:    0.0001    constr:    0.0000
     atom:   93    charge:    1.7907    magn:    0.0011    constr:    0.0000
     atom:   94    charge:    1.7898    magn:   -0.0001    constr:    0.0000
     atom:   95    charge:    1.7898    magn:    0.0002    constr:    0.0000
     atom:   96    charge:    1.7853    magn:   -0.0002    constr:    0.0000
     atom:   97    charge:    1.7913    magn:    0.0001    constr:    0.0000
     atom:   98    charge:    1.7918    magn:   -0.0000    constr:    0.0000
     atom:   99    charge:    1.7930    magn:    0.0002    constr:    0.0000
     atom:  100    charge:    1.7957    magn:    0.0002    constr:    0.0000
     atom:  101    charge:    1.7937    magn:    0.0000    constr:    0.0000
     atom:  102    charge:    1.7929    magn:   -0.0001    constr:    0.0000
     atom:  103    charge:    1.7909    magn:    0.0001    constr:    0.0000
     atom:  104    charge:    1.7917    magn:   -0.0001    constr:    0.0000
     atom:  105    charge:    1.7929    magn:    0.0000    constr:    0.0000
     atom:  106    charge:    1.7914    magn:   -0.0001    constr:    0.0000
     atom:  107    charge:    1.7899    magn:    0.0008    constr:    0.0000
     atom:  108    charge:    1.7933    magn:   -0.0005    constr:    0.0000
     atom:  109    charge:    1.7977    magn:    0.0002    constr:    0.0000
     atom:  110    charge:    1.7661    magn:    0.0007    constr:    0.0000
     atom:  111    charge:    1.8000    magn:    0.0002    constr:    0.0000
     atom:  112    charge:    1.7697    magn:    0.0006    constr:    0.0000
     atom:  113    charge:    1.7892    magn:    0.0002    constr:    0.0000
     atom:  114    charge:    1.7845    magn:   -0.0002    constr:    0.0000
     atom:  115    charge:    1.7874    magn:    0.0002    constr:    0.0000
     atom:  116    charge:    1.7930    magn:    0.0025    constr:    0.0000
     atom:  117    charge:    1.7909    magn:    0.0003    constr:    0.0000
     atom:  118    charge:    1.7910    magn:   -0.0007    constr:    0.0000
     atom:  119    charge:    1.7858    magn:    0.0034    constr:    0.0000
     atom:  120    charge:    1.7910    magn:   -0.0028    constr:    0.0000
     atom:  121    charge:    1.7913    magn:    0.0015    constr:    0.0000
     atom:  122    charge:    1.7909    magn:   -0.0001    constr:    0.0000
     atom:  123    charge:    1.7912    magn:    0.0002    constr:    0.0000
     atom:  124    charge:    1.7897    magn:    0.0001    constr:    0.0000
     atom:  125    charge:    1.7905    magn:    0.0002    constr:    0.0000
     atom:  126    charge:    1.7863    magn:   -0.0002    constr:    0.0000
     atom:  127    charge:    1.7914    magn:    0.0011    constr:    0.0000
     atom:  128    charge:    1.7902    magn:   -0.0001    constr:    0.0000
     atom:  129    charge:    1.7893    magn:    0.0002    constr:    0.0000
     atom:  130    charge:    1.7846    magn:   -0.0002    constr:    0.0000
     atom:  131    charge:    1.7876    magn:    0.0002    constr:    0.0000
     atom:  132    charge:    1.7906    magn:    0.0027    constr:    0.0000
     atom:  133    charge:    1.7865    magn:    0.0032    constr:    0.0000
     atom:  134    charge:    1.7830    magn:   -0.0024    constr:    0.0000
     atom:  135    charge:    1.7909    magn:    0.0003    constr:    0.0000
     atom:  136    charge:    1.7890    magn:   -0.0007    constr:    0.0000
     atom:  137    charge:    1.7899    magn:    0.0008    constr:    0.0000
     atom:  138    charge:    1.7897    magn:   -0.0010    constr:    0.0000
     atom:  139    charge:    1.7901    magn:    0.0011    constr:    0.0000
     atom:  140    charge:    1.7904    magn:   -0.0001    constr:    0.0000
     atom:  141    charge:    1.7873    magn:    0.0159    constr:    0.0000
     atom:  142    charge:    1.7902    magn:   -0.0011    constr:    0.0000
     atom:  143    charge:    1.7832    magn:    0.0161    constr:    0.0000
     atom:  144    charge:    1.7897    magn:   -0.0011    constr:    0.0000
     atom:  145    charge:    1.7920    magn:    0.0011    constr:    0.0000
     atom:  146    charge:    1.7967    magn:    0.0013    constr:    0.0000
     atom:  147    charge:    1.7938    magn:    0.0002    constr:    0.0000
     atom:  148    charge:    1.7969    magn:    0.0002    constr:    0.0000
     atom:  149    charge:    1.7936    magn:    0.0017    constr:    0.0000
     atom:  150    charge:    1.7910    magn:   -0.0001    constr:    0.0000
     atom:  151    charge:    1.7932    magn:    0.0016    constr:    0.0000
     atom:  152    charge:    1.7912    magn:   -0.0001    constr:    0.0000
     atom:  153    charge:    1.7899    magn:    0.0001    constr:    0.0000
     atom:  154    charge:    1.7911    magn:   -0.0001    constr:    0.0000
     atom:  155    charge:    1.7906    magn:    0.0008    constr:    0.0000
     atom:  156    charge:    1.7938    magn:   -0.0006    constr:    0.0000
     atom:  157    charge:    1.7906    magn:    0.0016    constr:    0.0000
     atom:  158    charge:    1.7909    magn:   -0.0001    constr:    0.0000
     atom:  159    charge:    1.7900    magn:    0.0002    constr:    0.0000
     atom:  160    charge:    1.7854    magn:   -0.0003    constr:    0.0000
     atom:  161    charge:    1.7907    magn:    0.0015    constr:    0.0000
     atom:  162    charge:    1.7909    magn:   -0.0001    constr:    0.0000
     atom:  163    charge:    1.7878    magn:    0.0002    constr:    0.0000
     atom:  164    charge:    1.7961    magn:    0.0029    constr:    0.0000
     atom:  165    charge:    1.7899    magn:    0.0002    constr:    0.0000
     atom:  166    charge:    1.7914    magn:   -0.0001    constr:    0.0000
     atom:  167    charge:    1.7906    magn:    0.0009    constr:    0.0000
     atom:  168    charge:    1.7903    magn:   -0.0011    constr:    0.0000
     atom:  169    charge:    1.7908    magn:    0.0001    constr:    0.0000
     atom:  170    charge:    1.7917    magn:   -0.0001    constr:    0.0000
     atom:  171    charge:    1.7914    magn:    0.0009    constr:    0.0000
     atom:  172    charge:    1.7945    magn:   -0.0006    constr:    0.0000
     atom:  173    charge:    1.7906    magn:    0.0002    constr:    0.0000
     atom:  174    charge:    1.7863    magn:   -0.0003    constr:    0.0000
     atom:  175    charge:    1.7917    magn:    0.0016    constr:    0.0000
     atom:  176    charge:    1.7915    magn:   -0.0001    constr:    0.0000
     atom:  177    charge:    1.8022    magn:    0.0001    constr:    0.0000
     atom:  178    charge:    1.7733    magn:    0.0005    constr:    0.0000
     atom:  179    charge:    1.7875    magn:    0.0036    constr:    0.0000
     atom:  180    charge:    1.7848    magn:   -0.0040    constr:    0.0000
     atom:  181    charge:    1.7876    magn:    0.0042    constr:    0.0000
     atom:  182    charge:    1.7936    magn:   -0.0056    constr:    0.0000
     atom:  183    charge:    1.7857    magn:    0.0040    constr:    0.0000
     atom:  184    charge:    1.7999    magn:   -0.0043    constr:    0.0000
     atom:  185    charge:    1.7934    magn:    0.0058    constr:    0.0000
     atom:  186    charge:    1.7917    magn:   -0.0010    constr:    0.0000
     atom:  187    charge:    1.7927    magn:    0.0177    constr:    0.0000
     atom:  188    charge:    1.7903    magn:   -0.0011    constr:    0.0000
     atom:  189    charge:    1.7974    magn:    0.2481    constr:    0.0000
     atom:  190    charge:    1.7979    magn:   -0.0083    constr:    0.0000
     atom:  191    charge:    1.7917    magn:    0.0015    constr:    0.0000
     atom:  192    charge:    1.7916    magn:   -0.0001    constr:    0.0000
     atom:  193    charge:    1.7884    magn:    0.0002    constr:    0.0000
     atom:  194    charge:    1.7968    magn:    0.0035    constr:    0.0000
     atom:  195    charge:    1.7914    magn:    0.0009    constr:    0.0000
     atom:  196    charge:    1.7911    magn:   -0.0012    constr:    0.0000
     atom:  197    charge:    1.7909    magn:    0.0002    constr:    0.0000
     atom:  198    charge:    1.7919    magn:   -0.0001    constr:    0.0000
     atom:  199    charge:    1.7867    magn:    0.0044    constr:    0.0000
     atom:  200    charge:    1.8017    magn:   -0.0056    constr:    0.0000
     atom:  201    charge:    1.7907    magn:    0.0060    constr:    0.0000
     atom:  202    charge:    1.7913    magn:   -0.0010    constr:    0.0000
     atom:  203    charge:    1.8035    magn:    0.2658    constr:    0.0000
     atom:  204    charge:    1.7959    magn:   -0.0089    constr:    0.0000
     atom:  205    charge:    1.7931    magn:    0.0195    constr:    0.0000
     atom:  206    charge:    1.7898    magn:   -0.0011    constr:    0.0000
     atom:  207    charge:    1.7875    magn:    0.2317    constr:    0.0000
     atom:  208    charge:    1.7987    magn:   -0.0078    constr:    0.0000
     atom:  209    charge:    1.7924    magn:    0.0157    constr:    0.0000
     atom:  210    charge:    1.7954    magn:    0.0012    constr:    0.0000
     atom:  211    charge:    1.7935    magn:    0.0069    constr:    0.0000
     atom:  212    charge:    1.7917    magn:   -0.0004    constr:    0.0000
     atom:  213    charge:    1.7896    magn:    0.0070    constr:    0.0000
     atom:  214    charge:    1.7895    magn:   -0.0004    constr:    0.0000
     atom:  215    charge:    2.8790    magn:   -0.0006    constr:    0.0000

     total cpu time spent up to now is      519.5 secs

     End of self-consistent calculation

 ------ SPIN UP ------------


          k = 0.0000 0.0000 0.0000 ( 54564 PWs)   bands (ev):

    -8.2694  -7.4428  -7.2617  -7.2601  -7.2251  -7.2117  -7.1330  -6.6028
    -6.2603  -6.2583  -6.2533  -6.2484  -6.2389  -6.2177  -6.2112  -6.1997
    -6.1708  -6.1439  -5.9863  -5.4890  -5.2394  -5.2310  -5.2209  -5.2153
    -5.2030  -5.1921  -5.0420  -4.4317  -4.2447  -4.2371  -4.2241  -4.2178
    -4.1627  -3.8398  -3.3528  -3.3517  -3.3448  -3.3421  -3.3405  -3.3294
    -3.3275  -3.3262  -3.3153  -3.3110  -3.3083  -3.3052  -3.3016  -3.2990
    -3.2815  -3.2697  -3.2652  -3.2632  -3.2564  -3.2355  -3.1851  -3.1651
    -2.9989  -2.7994  -2.5806  -2.5739  -2.5506  -2.5461  -2.5416  -2.5334
    -2.5327  -2.5264  -2.5238  -2.5169  -2.5108  -2.4948  -2.4908  -2.4894
    -2.4755  -2.4680  -2.4563  -2.4367  -2.4168  -2.3984  -2.3086  -2.2845
    -1.6229  -1.0334  -0.8701  -0.8678  -0.8405  -0.8297  -0.8229  -0.8193
    -0.8183  -0.8126  -0.7735  -0.7629  -0.4206   0.3793   0.4305   0.4332
     0.4492   0.4577   0.4935   0.7109   0.8845   0.8925   0.9303   0.9377
     0.9390   0.9431   0.9490   0.9495   0.9530   0.9643   0.9717   0.9771
     0.9774   0.9977   1.0283   1.0421   1.0478   1.0680   1.0699   1.0744
     1.0812   1.0878   1.1191   1.1377   1.1412   1.1464   1.1575   1.1604
     1.1624   1.1641   1.1661   1.1716   1.1817   1.1915   1.1946   1.2110
     1.2128   1.2157   1.2186   1.2260   1.2292   1.2298   1.2532   1.4585
     1.5602   1.5858   1.9706   2.2288   2.2298   2.2317   2.2711   2.2732
     2.2792   2.2860   2.3050   2.3067   2.4252   2.4359   3.3904   3.7385
     3.7405   3.7554   3.8094   3.8144   3.8171   3.8180   3.8232   3.8249
     3.8273   3.8287   3.8421   3.8476   3.8479   3.8595   3.8720   3.9813
     3.9889   3.9953   4.0247   4.3872   4.3899   4.4113   4.4852   4.4884
     4.4918   4.4938   4.4946   4.4966   4.5061   4.5065   4.5089   4.5143
     4.5179   4.5211   4.5258   4.5341   4.5441   4.5456   4.5545   4.5597
     4.7452   4.7506   5.2678   5.2717   5.2791   5.3293   5.3319   5.3345
     5.3359   5.3407   5.3450   5.3517   5.3552   5.3611   5.3723   5.3737
     5.4185   5.4262   5.4316   5.4407   5.4486   5.4778   5.4830   5.5453
     5.5609   5.5631   5.6319   5.7628   5.7656   5.8518   5.8594   5.8618
     5.8679   5.8716   5.8774   5.8815   5.8836   5.8883   5.8936   5.9010
     5.9081   5.9106   5.9230   5.9308   5.9366   5.9391   5.9593   5.9595
     5.9743   5.9955   5.9996   6.0408   6.0526   6.3229   6.3522   6.3707
     6.8629   6.8677   6.9209   6.9413   6.9547   6.9599   7.0665   7.4014
     7.4065   7.4809   7.4873   7.4893   7.5013   7.5040   7.5051   7.5293
     7.5794   7.5841   7.7411   7.7440   7.8562   7.8745   7.8815   7.8831
     7.8869   7.8905   7.8962   7.9179   7.9448   7.9484   7.9519   8.0855
     8.1003   8.1196   8.1445   8.1478   8.1497   8.1617   8.1632   8.1647
     8.1674   8.1742   8.1752   8.1778   8.1844   8.1891   8.2118   8.2131
     8.2208   8.2261   8.2298   8.2338   8.2357   8.2401   8.2879   8.2945
     8.3158   8.3409   8.3497   8.3518   8.3547   8.3552   8.3583   8.3600
     8.3613   8.3621   8.3665   8.3679   8.3735   8.3770   8.3795   8.3804
     8.3839   8.3856   8.3878   8.3916   8.3951   8.3992   8.4011   8.4083
     8.4134   8.4157   8.4307   8.4322   8.4433   8.4518   8.4533   8.4653
     8.4714   8.4917   8.4987   8.5094   8.5339   8.5529   8.5574   8.5607
     8.5722   8.6356   8.6855   8.9296   8.9387   8.9414   9.1082   9.1151
     9.1725   9.1759   9.1786   9.1841   9.2048   9.2103   9.2107   9.2178
     9.2289   9.2353   9.2375   9.2419   9.2515   9.2586   9.2617   9.2736
     9.3136   9.3182   9.3852  10.0447  10.1481  10.1630  10.4875  10.5427
    10.5458  10.5933  10.5962  10.5999  10.6128  10.6184  10.6219  10.6252
    10.6861  10.6965  10.7056  10.7871  10.7955  10.8464  10.8507  10.8525
    10.8567  10.8627  10.8652  10.8674  10.8775  10.8913  10.8962  10.9149
    10.9270  10.9321  10.9420  10.9547  10.9692  11.5194  11.5392  11.5397
    11.7613  11.7681  11.7773  11.8006  11.8029  11.8051  11.8282  11.8363
    11.8635  11.8935  12.9409  13.0296  13.0314  13.8893  14.8399  15.1422
    17.3507  17.3639  17.3739  17.4097  17.4135  17.4340  17.9328  18.0017
    18.0050  18.0170  18.0231  18.0756  18.1182  18.1339  18.1827  18.2269
    18.2299  18.2482  18.8381  18.8466  18.8652  19.4534  19.5334  19.5354
    19.5486  19.5802  19.5826  19.5864  19.5960  19.6079  19.6108  19.6148
    19.6514  20.0722  20.2409  20.2417  20.2724  20.2727  20.2753  20.2792
    20.2814  20.2826  20.2869  20.2895  20.3000  20.3084  20.3154  20.3186
    20.3333  20.3402  20.3451  20.3738  20.3852  20.4035  20.4195  20.4247
    20.4355  20.6960  20.7002  20.7199  20.7441  20.7489  20.7635  20.7648
    20.7685  20.7711  20.7767  20.7858  20.7870  20.8108  20.8264  20.8339
    20.8561  20.8603  20.8635  20.8742  20.8758  20.8789  20.8812  20.8896
    20.9004  20.9067  20.9129  20.9149  20.9255  20.9365  20.9451  20.9514
    20.9659  20.9731  20.9772  20.9832  21.0156  21.0648  21.0711  21.0868
    21.1135  21.1233  21.1430  21.2576  21.3386  21.3477  21.3659  21.3857
    21.3901  21.3927  21.3974  21.3997  21.4016  21.4031  21.4078  21.4149
    21.4207  21.4271  21.4386  21.4402  21.4442  21.4481  21.4492  21.4508
    21.4697  21.4743  21.4760  21.4778  21.4880  21.4899  21.4984  21.5054
    21.5147  21.5244  21.5303  21.5396  21.5634  21.5854  21.6738  21.6829
    21.6920  21.7132  21.7235  21.7274  21.7329  21.7358  21.7411  21.7476
    21.7510  21.7526  21.7856  21.7956  21.8043  21.8150  21.8463  21.8619
    21.8811  21.9788  22.0116  22.0266  22.0309  22.0519  22.1462  22.1486
    22.1545  22.1955  22.2183  22.2212  22.2248  22.2380  22.2441  22.3751
    22.3826  22.3876  22.4522  22.5042  22.5068  22.5215  22.5316  22.5323
    22.6949  22.7130  22.7282  22.8501  22.9859  23.0128  23.0232  23.1471
    23.1511  23.1612  23.1688  23.1689  23.1723  23.1790  23.1855  23.1887
    23.1946  23.1985  23.2077  23.2333  23.2420  23.2557  23.2618  23.3081
    23.3359  23.3505  23.3957  23.3963  23.4702  23.4885  23.4923  23.8206
    23.8265  23.8283  23.8324  23.8455  23.8500  23.8550  23.8662  23.8713
    23.8810  23.8860  23.8953  23.8977  23.8997  23.9140  23.9302  23.9481
    23.9948  24.0044  24.0097  24.1523  24.1541  24.2360  24.2525  24.2999
    24.3030  24.3112  24.3229  24.3493  24.3516  24.3546  24.3567  24.3613
    24.3743  24.4099  24.4120  24.4147  24.4476  24.4518  24.4572  24.4630
    24.4670  24.4758  24.4790  24.5010  24.5189  24.5365  24.5484  24.5548
    24.5570  24.5622  24.5650  24.5796  24.5893  24.5916  24.5983  24.6155
    24.6167  24.6292  24.6384  24.6565  24.6633  24.7063  24.7485  24.7982
    24.8350  24.8974  24.9616  25.5109  25.5368  25.5770  25.6869  25.8545
    25.8684  25.8740  25.8863  25.8875  26.0274  26.0362  26.0399  26.0434
    26.0905  26.1017  26.1508  26.1694  26.1760  26.1787  26.2671  26.2967
    26.3296  26.5344  26.6353  26.6359  26.6491  26.6759  26.6904  26.6965
    26.6992  26.7227  26.7316  26.7430  26.7478  26.7566  26.8181  26.8244
    26.8312  26.8382  26.8558  26.8623  26.8980  26.9046  26.9123  26.9871
    26.9948  27.1011  27.1073  27.1292  27.1331  27.1389  27.1447  27.1464
    27.1612  27.1618  27.1628  27.1651  27.1659  27.1927  27.1960  27.2227
    27.2290  27.2510  27.2632  27.2801  27.2851  27.2869  27.2951  27.2982
    27.3060  27.3119  27.3185  27.3226  27.3305  27.3413  27.3464  27.3533
    27.3561  27.3584  27.3605  27.3758  27.3816  27.4022  27.4042  27.4119
    27.4165  27.4223  27.4240  27.4267  27.4333  27.4382  27.4622  27.4682

     occupation numbers 
     1.0000   1.0000   1.0000   1.0000   1.0000   1.0000   1.0000   1.0000
     1.0000   1.0000   1.0000   1.0000   1.0000   1.0000   1.0000   1.0000
     1.0000   1.0000   1.0000   1.0000   1.0000   1.0000   1.0000   1.0000
     1.0000   1.0000   1.0000   1.0000   1.0000   1.0000   1.0000   1.0000
     1.0000   1.0000   1.0000   1.0000   1.0000   1.0000   1.0000   1.0000
     1.0000   1.0000   1.0000   1.0000   1.0000   1.0000   1.0000   1.0000
     1.0000   1.0000   1.0000   1.0000   1.0000   1.0000   1.0000   1.0000
     1.0000   1.0000   1.0000   1.0000   1.0000   1.0000   1.0000   1.0000
     1.0000   1.0000   1.0000   1.0000   1.0000   1.0000   1.0000   1.0000
     1.0000   1.0000   1.0000   1.0000   1.0000   1.0000   1.0000   1.0000
     1.0000   1.0000   1.0000   1.0000   1.0000   1.0000   1.0000   1.0000
     1.0000   1.0000   1.0000   1.0000   1.0000   1.0000   1.0000   1.0000
     1.0000   1.0000   1.0000   1.0000   1.0000   1.0000   1.0000   1.0000
     1.0000   1.0000   1.0000   1.0000   1.0000   1.0000   1.0000   1.0000
     1.0000   1.0000   1.0000   1.0000   1.0000   1.0000   1.0000   1.0000
     1.0000   1.0000   1.0000   1.0000   1.0000   1.0000   1.0000   1.0000
     1.0000   1.0000   1.0000   1.0000   1.0000   1.0000   1.0000   1.0000
     1.0000   1.0000   1.0000   1.0000   1.0000   1.0000   1.0000   1.0000
     1.0000   1.0000   1.0000   1.0000   1.0000   1.0000   1.0000   1.0000
     1.0000   1.0000   1.0000   1.0000   1.0000   1.0000   1.0000   1.0000
     1.0000   1.0000   1.0000   1.0000   1.0000   1.0000   1.0000   1.0000
     1.0000   1.0000   1.0000   1.0000   1.0000   1.0000   1.0000   1.0000
     1.0000   1.0000   1.0000   1.0000   1.0000   1.0000   1.0000   1.0000
     1.0000   1.0000   1.0000   1.0000   1.0000   1.0000   1.0000   1.0000
     1.0000   1.0000   1.0000   1.0000   1.0000   1.0000   1.0000   1.0000
     1.0000   1.0000   1.0000   1.0000   1.0000   1.0000   1.0000   1.0000
     1.0000   1.0000   1.0000   1.0000   1.0000   1.0000   1.0000   1.0000
     1.0000   1.0000   1.0000   1.0000   1.0000   1.0000   1.0000   1.0000
     1.0000   1.0000   1.0000   1.0000   1.0000   1.0000   1.0000   1.0000
     1.0000   1.0000   1.0000   1.0000   1.0000   1.0000   1.0000   1.0000
     1.0000   1.0000   1.0000   1.0000   1.0000   1.0000   1.0000   1.0000
     1.0000   1.0000   1.0000   1.0000   1.0000   1.0000   1.0000   1.0000
     1.0000   1.0000   1.0000   1.0000   1.0000   1.0000   1.0000   1.0000
     1.0000   1.0000   1.0000   1.0000   1.0000   1.0000   1.0000   1.0000
     1.0000   1.0000   1.0000   1.0000   1.0000   1.0000   1.0000   1.0000
     1.0000   1.0000   1.0000   1.0000   1.0000   1.0000   1.0000   1.0000
     1.0000   1.0000   1.0000   1.0000   1.0000   1.0000   1.0000   1.0000
     1.0000   1.0000   1.0000   1.0000   1.0000   1.0000   1.0000   1.0000
     1.0000   1.0000   1.0000   1.0000   1.0000   1.0000   1.0000   1.0000
     1.0000   1.0000   1.0000   1.0000   1.0000   1.0000   1.0000   1.0000
     1.0000   1.0000   1.0000   1.0000   1.0000   1.0000   1.0000   1.0000
     1.0000   1.0000   1.0000   1.0000   1.0000   1.0000   1.0000   1.0000
     1.0000   1.0000   1.0000   1.0000   1.0000   1.0000   1.0000   1.0000
     1.0000   1.0000   1.0000   1.0000   1.0000   1.0000   1.0000   1.0000
     1.0000   1.0000   1.0000   1.0000   1.0000   1.0000   1.0000   1.0000
     1.0000   1.0000   1.0000   1.0000   1.0000   1.0000   1.0000   1.0000
     1.0000   1.0000   1.0000   1.0000   1.0000   1.0000   1.0000   1.0000
     1.0000   1.0000   1.0000   1.0000   1.0000   1.0000   1.0000   1.0000
     1.0000   1.0000   1.0000   1.0000   1.0000   1.0000   1.0000   1.0000
     1.0000   1.0000   1.0000   1.0000   1.0000   1.0000   1.0000   1.0000
     1.0000   1.0000   1.0000   1.0000   1.0000   1.0000   1.0000   1.0000
     1.0000   1.0000   1.0000   1.0000   1.0000   1.0000   1.0000   1.0000
     1.0000   1.0000   1.0000   1.0000   1.0000   1.0000   1.0000   1.0000
     1.0000   1.0000   1.0000   1.0000   1.0000   1.0000   1.0000   1.0000
     0.0000   0.0000   0.0000   0.0000   0.0000   0.0000   0.0000   0.0000
     0.0000   0.0000   0.0000   0.0000   0.0000   0.0000   0.0000   0.0000
     0.0000   0.0000   0.0000   0.0000   0.0000   0.0000   0.0000   0.0000
     0.0000   0.0000   0.0000   0.0000   0.0000   0.0000   0.0000   0.0000
     0.0000   0.0000   0.0000   0.0000   0.0000   0.0000   0.0000   0.0000
     0.0000   0.0000   0.0000   0.0000   0.0000   0.0000   0.0000   0.0000
     0.0000   0.0000   0.0000   0.0000   0.0000   0.0000   0.0000   0.0000
     0.0000   0.0000   0.0000   0.0000   0.0000   0.0000   0.0000   0.0000
     0.0000   0.0000   0.0000   0.0000   0.0000   0.0000   0.0000   0.0000
     0.0000   0.0000   0.0000   0.0000   0.0000   0.0000   0.0000   0.0000
     0.0000   0.0000   0.0000   0.0000   0.0000   0.0000   0.0000   0.0000
     0.0000   0.0000   0.0000   0.0000   0.0000   0.0000   0.0000   0.0000
     0.0000   0.0000   0.0000   0.0000   0.0000   0.0000   0.0000   0.0000
     0.0000   0.0000   0.0000   0.0000   0.0000   0.0000   0.0000   0.0000
     0.0000   0.0000   0.0000   0.0000   0.0000   0.0000   0.0000   0.0000
     0.0000   0.0000   0.0000   0.0000   0.0000   0.0000   0.0000   0.0000
     0.0000   0.0000   0.0000   0.0000   0.0000   0.0000   0.0000   0.0000
     0.0000   0.0000   0.0000   0.0000   0.0000   0.0000   0.0000   0.0000
     0.0000   0.0000   0.0000   0.0000   0.0000   0.0000   0.0000   0.0000
     0.0000   0.0000   0.0000   0.0000   0.0000   0.0000   0.0000   0.0000
     0.0000   0.0000   0.0000   0.0000   0.0000   0.0000   0.0000   0.0000
     0.0000   0.0000   0.0000   0.0000   0.0000   0.0000   0.0000   0.0000
     0.0000   0.0000   0.0000   0.0000   0.0000   0.0000   0.0000   0.0000
     0.0000   0.0000   0.0000   0.0000   0.0000   0.0000   0.0000   0.0000
     0.0000   0.0000   0.0000   0.0000   0.0000   0.0000   0.0000   0.0000
     0.0000   0.0000   0.0000   0.0000   0.0000   0.0000   0.0000   0.0000
     0.0000   0.0000   0.0000   0.0000   0.0000   0.0000   0.0000   0.0000
     0.0000   0.0000   0.0000   0.0000   0.0000   0.0000   0.0000   0.0000
     0.0000   0.0000   0.0000   0.0000   0.0000   0.0000   0.0000   0.0000
     0.0000   0.0000   0.0000   0.0000   0.0000   0.0000   0.0000   0.0000
     0.0000   0.0000   0.0000   0.0000   0.0000   0.0000   0.0000   0.0000
     0.0000   0.0000   0.0000   0.0000   0.0000   0.0000   0.0000   0.0000
     0.0000   0.0000   0.0000   0.0000   0.0000   0.0000   0.0000   0.0000
     0.0000   0.0000   0.0000   0.0000   0.0000   0.0000   0.0000   0.0000
     0.0000   0.0000   0.0000   0.0000   0.0000   0.0000   0.0000   0.0000
     0.0000   0.0000   0.0000   0.0000   0.0000   0.0000   0.0000   0.0000
     0.0000   0.0000   0.0000   0.0000   0.0000   0.0000   0.0000   0.0000
     0.0000   0.0000   0.0000   0.0000   0.0000   0.0000   0.0000   0.0000
     0.0000   0.0000   0.0000   0.0000   0.0000   0.0000   0.0000   0.0000
     0.0000   0.0000   0.0000   0.0000   0.0000   0.0000   0.0000   0.0000
     0.0000   0.0000   0.0000   0.0000   0.0000   0.0000   0.0000   0.0000
     0.0000   0.0000   0.0000   0.0000   0.0000   0.0000   0.0000   0.0000
     0.0000   0.0000   0.0000   0.0000   0.0000   0.0000   0.0000   0.0000
     0.0000   0.0000   0.0000   0.0000   0.0000   0.0000   0.0000   0.0000
     0.0000   0.0000   0.0000   0.0000   0.0000   0.0000   0.0000   0.0000
     0.0000   0.0000   0.0000   0.0000   0.0000   0.0000   0.0000   0.0000

 ------ SPIN DOWN ----------


          k = 0.0000 0.0000 0.0000 ( 54564 PWs)   bands (ev):

    -8.2642  -7.4397  -7.2592  -7.2574  -7.2171  -7.2054  -7.1216  -6.5993
    -6.2580  -6.2563  -6.2509  -6.2463  -6.2344  -6.2093  -6.2054  -6.1966
    -6.1542  -6.1288  -5.9639  -5.4842  -5.2324  -5.2254  -5.2157  -5.2027
    -5.1913  -5.1795  -5.0182  -4.4196  -4.2392  -4.2319  -4.2128  -4.2091
    -4.1549  -3.8270  -3.3487  -3.3481  -3.3421  -3.3399  -3.3385  -3.3264
    -3.3239  -3.3226  -3.3138  -3.3076  -3.3062  -3.3018  -3.2986  -3.2954
    -3.2675  -3.2578  -3.2534  -3.2521  -3.2483  -3.2326  -3.1589  -3.1411
    -2.9864  -2.7958  -2.5788  -2.5716  -2.5471  -2.5421  -2.5377  -2.5307
    -2.5242  -2.5220  -2.5193  -2.5104  -2.5046  -2.4868  -2.4859  -2.4841
    -2.4709  -2.4642  -2.4451  -2.4241  -2.4047  -2.3892  -2.2418  -2.2216
    -1.5618  -1.0254  -0.8655  -0.8638  -0.8312  -0.8226  -0.8177  -0.8133
    -0.8104  -0.8059  -0.7410  -0.7322  -0.3599   0.3919   0.4337   0.4370
     0.4564   0.4651   0.5000   0.7309   0.8874   0.8956   0.9306   0.9398
     0.9405   0.9457   0.9512   0.9523   0.9555   0.9689   0.9761   0.9800
     0.9804   1.0046   1.0393   1.0513   1.0565   1.0754   1.0766   1.0841
     1.1010   1.1063   1.1229   1.1412   1.1448   1.1528   1.1608   1.1641
     1.1661   1.1680   1.1715   1.1780   1.1905   1.1972   1.1999   1.2186
     1.2220   1.2250   1.2283   1.2349   1.2409   1.2495   1.2850   1.4738
     1.6163   1.6347   1.9927   2.2354   2.2358   2.2476   2.2756   2.2774
     2.2827   2.2945   2.3108   2.3122   2.4888   2.4946   3.4598   3.7444
     3.7458   3.7660   3.8113   3.8200   3.8213   3.8224   3.8265   3.8316
     3.8327   3.8338   3.8480   3.8530   3.8563   3.8693   3.8823   3.9979
     4.0030   4.0064   4.0459   4.3934   4.3967   4.4324   4.4867   4.4915
     4.4946   4.4968   4.5015   4.5021   4.5097   4.5113   4.5126   4.5206
     4.5260   4.5262   4.5342   4.5434   4.5546   4.5569   4.5658   4.5711
     4.8073   4.8087   5.2722   5.2762   5.2938   5.3315   5.3339   5.3368
     5.3375   5.3435   5.3476   5.3555   5.3593   5.3636   5.3757   5.3768
     5.4266   5.4345   5.4391   5.4487   5.4553   5.4917   5.4958   5.5485
     5.5723   5.5725   5.6707   5.7681   5.7715   5.8615   5.8632   5.8644
     5.8737   5.8765   5.8815   5.8870   5.8894   5.8943   5.8999   5.9089
     5.9134   5.9149   5.9348   5.9415   5.9451   5.9500   5.9722   5.9735
     5.9961   6.0112   6.0172   6.0514   6.0639   6.3457   6.4025   6.4122
     6.8696   6.8743   6.9309   6.9504   6.9719   6.9763   7.1462   7.4155
     7.4187   7.4875   7.4908   7.4933   7.5067   7.5114   7.5123   7.5446
     7.5941   7.6006   7.7455   7.7488   7.8673   7.8821   7.8868   7.8913
     7.9000   7.9060   7.9110   7.9279   7.9555   7.9590   7.9669   8.0956
     8.1090   8.1224   8.1472   8.1503   8.1516   8.1641   8.1658   8.1673
     8.1694   8.1772   8.1781   8.1818   8.1870   8.1917   8.2166   8.2199
     8.2271   8.2341   8.2392   8.2439   8.2444   8.2455   8.2941   8.3001
     8.3230   8.3507   8.3539   8.3548   8.3572   8.3586   8.3611   8.3629
     8.3646   8.3654   8.3713   8.3723   8.3782   8.3808   8.3832   8.3847
     8.3874   8.3915   8.3931   8.3990   8.4016   8.4045   8.4149   8.4167
     8.4220   8.4259   8.4382   8.4439   8.4515   8.4607   8.4620   8.4714
     8.4784   8.5026   8.5173   8.5282   8.5502   8.5660   8.5738   8.5801
     8.5886   8.6753   8.7238   8.9432   8.9573   8.9610   9.1140   9.1208
     9.1753   9.1784   9.1812   9.1860   9.2105   9.2166   9.2181   9.2251
     9.2358   9.2422   9.2496   9.2561   9.2612   9.2765   9.2795   9.2798
     9.3399   9.3469   9.4210  10.0620  10.2299  10.2315  10.5566  10.5609
    10.5957  10.6006  10.6037  10.6160  10.6180  10.6336  10.6374  10.6604
    10.6920  10.7029  10.7129  10.7917  10.8000  10.8534  10.8558  10.8577
    10.8637  10.8718  10.8750  10.8775  10.8838  10.9067  10.9130  10.9287
    10.9374  10.9453  10.9578  10.9630  10.9764  11.5323  11.5691  11.5732
    11.7691  11.7750  11.7793  11.8055  11.8077  11.8113  11.8419  11.8640
    11.9033  12.2168  13.0623  13.0703  13.0770  14.4887  16.3200  16.5075
    17.3547  17.3679  17.3843  17.4230  17.4281  17.4444  17.9380  18.0104
    18.0141  18.0239  18.0285  18.0836  18.1232  18.1387  18.2091  18.2473
    18.2526  18.2591  18.8578  18.8690  18.8779  19.4619  19.5365  19.5388
    19.5513  19.5872  19.5926  19.5957  19.6015  19.6132  19.6160  19.6196
    19.6586  20.0768  20.2442  20.2443  20.2744  20.2759  20.2786  20.2833
    20.2847  20.2866  20.2956  20.2970  20.3062  20.3130  20.3201  20.3235
    20.3421  20.3498  20.3538  20.3810  20.3923  20.4107  20.4271  20.4338
    20.4439  20.7011  20.7065  20.7257  20.7463  20.7510  20.7660  20.7672
    20.7706  20.7742  20.7789  20.7889  20.7899  20.8128  20.8304  20.8379
    20.8603  20.8640  20.8671  20.8786  20.8803  20.8830  20.8918  20.9042
    20.9083  20.9141  20.9263  20.9323  20.9396  20.9448  20.9518  20.9583
    20.9696  20.9823  20.9881  20.9913  21.0251  21.0727  21.0805  21.0928
    21.1217  21.1311  21.1496  21.2623  21.3437  21.3532  21.3701  21.3900
    21.3949  21.3997  21.4015  21.4029  21.4041  21.4074  21.4129  21.4192
    21.4253  21.4310  21.4440  21.4458  21.4508  21.4534  21.4554  21.4580
    21.4763  21.4803  21.4851  21.4875  21.4967  21.5079  21.5165  21.5194
    21.5261  21.5389  21.5470  21.5658  21.5940  21.6174  21.6853  21.6904
    21.7017  21.7164  21.7269  21.7332  21.7381  21.7439  21.7493  21.7550
    21.7591  21.7597  21.7955  21.8000  21.8090  21.8210  21.8677  21.8817
    21.9065  21.9939  22.0261  22.0456  22.0500  22.0757  22.1492  22.1513
    22.1578  22.2112  22.2321  22.2329  22.2333  22.2492  22.2525  22.3868
    22.3936  22.3975  22.4696  22.5126  22.5150  22.5303  22.5353  22.5360
    22.7221  22.7615  22.7702  22.9213  23.0059  23.0339  23.0440  23.1522
    23.1572  23.1635  23.1715  23.1717  23.1782  23.1832  23.1885  23.1944
    23.1989  23.2023  23.2140  23.2454  23.2644  23.2710  23.2823  23.3401
    23.3936  23.4028  23.4157  23.4165  23.4873  23.5245  23.5329  23.8239
    23.8315  23.8340  23.8394  23.8482  23.8541  23.8597  23.8696  23.8744
    23.8897  23.9013  23.9043  23.9071  23.9145  23.9378  23.9384  23.9712
    24.0120  24.0272  24.0347  24.1689  24.1705  24.2597  24.2712  24.3064
    24.3077  24.3164  24.3269  24.3541  24.3569  24.3589  24.3614  24.3671
    24.3806  24.4149  24.4200  24.4202  24.4615  24.4626  24.4719  24.4783
    24.4832  24.4866  24.4918  24.5099  24.5300  24.5498  24.5581  24.5634
    24.5646  24.5801  24.5840  24.5890  24.5940  24.5996  24.6066  24.6314
    24.6343  24.6526  24.6553  24.6769  24.6865  24.7346  24.7920  24.9363
    24.9567  24.9611  25.0273  25.5587  25.5841  25.6244  25.7167  25.8613
    25.8802  25.8895  25.8973  25.9036  26.0325  26.0403  26.0465  26.0492
    26.0996  26.1105  26.1631  26.1879  26.1949  26.1989  26.2856  26.3261
    26.3615  26.5522  26.6424  26.6429  26.6630  26.6848  26.6961  26.7026
    26.7048  26.7298  26.7388  26.7525  26.7564  26.7676  26.8300  26.8377
    26.8396  26.8450  26.8613  26.8679  26.9104  26.9157  26.9192  27.0149
    27.0268  27.1069  27.1135  27.1326  27.1390  27.1439  27.1489  27.1522
    27.1647  27.1659  27.1672  27.1700  27.1702  27.1992  27.2015  27.2337
    27.2352  27.2557  27.2682  27.2879  27.2924  27.2936  27.2995  27.3019
    27.3115  27.3210  27.3267  27.3295  27.3386  27.3481  27.3564  27.3601
    27.3618  27.3655  27.3765  27.3990  27.4010  27.4087  27.4102  27.4181
    27.4222  27.4295  27.4304  27.4348  27.4421  27.4468  27.4757  27.4882

     occupation numbers 
     1.0000   1.0000   1.0000   1.0000   1.0000   1.0000   1.0000   1.0000
     1.0000   1.0000   1.0000   1.0000   1.0000   1.0000   1.0000   1.0000
     1.0000   1.0000   1.0000   1.0000   1.0000   1.0000   1.0000   1.0000
     1.0000   1.0000   1.0000   1.0000   1.0000   1.0000   1.0000   1.0000
     1.0000   1.0000   1.0000   1.0000   1.0000   1.0000   1.0000   1.0000
     1.0000   1.0000   1.0000   1.0000   1.0000   1.0000   1.0000   1.0000
     1.0000   1.0000   1.0000   1.0000   1.0000   1.0000   1.0000   1.0000
     1.0000   1.0000   1.0000   1.0000   1.0000   1.0000   1.0000   1.0000
     1.0000   1.0000   1.0000   1.0000   1.0000   1.0000   1.0000   1.0000
     1.0000   1.0000   1.0000   1.0000   1.0000   1.0000   1.0000   1.0000
     1.0000   1.0000   1.0000   1.0000   1.0000   1.0000   1.0000   1.0000
     1.0000   1.0000   1.0000   1.0000   1.0000   1.0000   1.0000   1.0000
     1.0000   1.0000   1.0000   1.0000   1.0000   1.0000   1.0000   1.0000
     1.0000   1.0000   1.0000   1.0000   1.0000   1.0000   1.0000   1.0000
     1.0000   1.0000   1.0000   1.0000   1.0000   1.0000   1.0000   1.0000
     1.0000   1.0000   1.0000   1.0000   1.0000   1.0000   1.0000   1.0000
     1.0000   1.0000   1.0000   1.0000   1.0000   1.0000   1.0000   1.0000
     1.0000   1.0000   1.0000   1.0000   1.0000   1.0000   1.0000   1.0000
     1.0000   1.0000   1.0000   1.0000   1.0000   1.0000   1.0000   1.0000
     1.0000   1.0000   1.0000   1.0000   1.0000   1.0000   1.0000   1.0000
     1.0000   1.0000   1.0000   1.0000   1.0000   1.0000   1.0000   1.0000
     1.0000   1.0000   1.0000   1.0000   1.0000   1.0000   1.0000   1.0000
     1.0000   1.0000   1.0000   1.0000   1.0000   1.0000   1.0000   1.0000
     1.0000   1.0000   1.0000   1.0000   1.0000   1.0000   1.0000   1.0000
     1.0000   1.0000   1.0000   1.0000   1.0000   1.0000   1.0000   1.0000
     1.0000   1.0000   1.0000   1.0000   1.0000   1.0000   1.0000   1.0000
     1.0000   1.0000   1.0000   1.0000   1.0000   1.0000   1.0000   1.0000
     1.0000   1.0000   1.0000   1.0000   1.0000   1.0000   1.0000   1.0000
     1.0000   1.0000   1.0000   1.0000   1.0000   1.0000   1.0000   1.0000
     1.0000   1.0000   1.0000   1.0000   1.0000   1.0000   1.0000   1.0000
     1.0000   1.0000   1.0000   1.0000   1.0000   1.0000   1.0000   1.0000
     1.0000   1.0000   1.0000   1.0000   1.0000   1.0000   1.0000   1.0000
     1.0000   1.0000   1.0000   1.0000   1.0000   1.0000   1.0000   1.0000
     1.0000   1.0000   1.0000   1.0000   1.0000   1.0000   1.0000   1.0000
     1.0000   1.0000   1.0000   1.0000   1.0000   1.0000   1.0000   1.0000
     1.0000   1.0000   1.0000   1.0000   1.0000   1.0000   1.0000   1.0000
     1.0000   1.0000   1.0000   1.0000   1.0000   1.0000   1.0000   1.0000
     1.0000   1.0000   1.0000   1.0000   1.0000   1.0000   1.0000   1.0000
     1.0000   1.0000   1.0000   1.0000   1.0000   1.0000   1.0000   1.0000
     1.0000   1.0000   1.0000   1.0000   1.0000   1.0000   1.0000   1.0000
     1.0000   1.0000   1.0000   1.0000   1.0000   1.0000   1.0000   1.0000
     1.0000   1.0000   1.0000   1.0000   1.0000   1.0000   1.0000   1.0000
     1.0000   1.0000   1.0000   1.0000   1.0000   1.0000   1.0000   1.0000
     1.0000   1.0000   1.0000   1.0000   1.0000   1.0000   1.0000   1.0000
     1.0000   1.0000   1.0000   1.0000   1.0000   1.0000   1.0000   1.0000
     1.0000   1.0000   1.0000   1.0000   1.0000   1.0000   1.0000   1.0000
     1.0000   1.0000   1.0000   1.0000   1.0000   1.0000   1.0000   1.0000
     1.0000   1.0000   1.0000   1.0000   1.0000   1.0000   1.0000   1.0000
     1.0000   1.0000   1.0000   1.0000   1.0000   1.0000   1.0000   1.0000
     1.0000   1.0000   1.0000   1.0000   1.0000   1.0000   1.0000   1.0000
     1.0000   1.0000   1.0000   1.0000   1.0000   1.0000   1.0000   1.0000
     1.0000   1.0000   1.0000   1.0000   1.0000   1.0000   1.0000   1.0000
     1.0000   1.0000   1.0000   1.0000   1.0000   1.0000   1.0000   1.0000
     1.0000   1.0000   1.0000   1.0000   1.0000   1.0000   0.0000   0.0000
     0.0000   0.0000   0.0000   0.0000   0.0000   0.0000   0.0000   0.0000
     0.0000   0.0000   0.0000   0.0000   0.0000   0.0000   0.0000   0.0000
     0.0000   0.0000   0.0000   0.0000   0.0000   0.0000   0.0000   0.0000
     0.0000   0.0000   0.0000   0.0000   0.0000   0.0000   0.0000   0.0000
     0.0000   0.0000   0.0000   0.0000   0.0000   0.0000   0.0000   0.0000
     0.0000   0.0000   0.0000   0.0000   0.0000   0.0000   0.0000   0.0000
     0.0000   0.0000   0.0000   0.0000   0.0000   0.0000   0.0000   0.0000
     0.0000   0.0000   0.0000   0.0000   0.0000   0.0000   0.0000   0.0000
     0.0000   0.0000   0.0000   0.0000   0.0000   0.0000   0.0000   0.0000
     0.0000   0.0000   0.0000   0.0000   0.0000   0.0000   0.0000   0.0000
     0.0000   0.0000   0.0000   0.0000   0.0000   0.0000   0.0000   0.0000
     0.0000   0.0000   0.0000   0.0000   0.0000   0.0000   0.0000   0.0000
     0.0000   0.0000   0.0000   0.0000   0.0000   0.0000   0.0000   0.0000
     0.0000   0.0000   0.0000   0.0000   0.0000   0.0000   0.0000   0.0000
     0.0000   0.0000   0.0000   0.0000   0.0000   0.0000   0.0000   0.0000
     0.0000   0.0000   0.0000   0.0000   0.0000   0.0000   0.0000   0.0000
     0.0000   0.0000   0.0000   0.0000   0.0000   0.0000   0.0000   0.0000
     0.0000   0.0000   0.0000   0.0000   0.0000   0.0000   0.0000   0.0000
     0.0000   0.0000   0.0000   0.0000   0.0000   0.0000   0.0000   0.0000
     0.0000   0.0000   0.0000   0.0000   0.0000   0.0000   0.0000   0.0000
     0.0000   0.0000   0.0000   0.0000   0.0000   0.0000   0.0000   0.0000
     0.0000   0.0000   0.0000   0.0000   0.0000   0.0000   0.0000   0.0000
     0.0000   0.0000   0.0000   0.0000   0.0000   0.0000   0.0000   0.0000
     0.0000   0.0000   0.0000   0.0000   0.0000   0.0000   0.0000   0.0000
     0.0000   0.0000   0.0000   0.0000   0.0000   0.0000   0.0000   0.0000
     0.0000   0.0000   0.0000   0.0000   0.0000   0.0000   0.0000   0.0000
     0.0000   0.0000   0.0000   0.0000   0.0000   0.0000   0.0000   0.0000
     0.0000   0.0000   0.0000   0.0000   0.0000   0.0000   0.0000   0.0000
     0.0000   0.0000   0.0000   0.0000   0.0000   0.0000   0.0000   0.0000
     0.0000   0.0000   0.0000   0.0000   0.0000   0.0000   0.0000   0.0000
     0.0000   0.0000   0.0000   0.0000   0.0000   0.0000   0.0000   0.0000
     0.0000   0.0000   0.0000   0.0000   0.0000   0.0000   0.0000   0.0000
     0.0000   0.0000   0.0000   0.0000   0.0000   0.0000   0.0000   0.0000
     0.0000   0.0000   0.0000   0.0000   0.0000   0.0000   0.0000   0.0000
     0.0000   0.0000   0.0000   0.0000   0.0000   0.0000   0.0000   0.0000
     0.0000   0.0000   0.0000   0.0000   0.0000   0.0000   0.0000   0.0000
     0.0000   0.0000   0.0000   0.0000   0.0000   0.0000   0.0000   0.0000
     0.0000   0.0000   0.0000   0.0000   0.0000   0.0000   0.0000   0.0000
     0.0000   0.0000   0.0000   0.0000   0.0000   0.0000   0.0000   0.0000
     0.0000   0.0000   0.0000   0.0000   0.0000   0.0000   0.0000   0.0000
     0.0000   0.0000   0.0000   0.0000   0.0000   0.0000   0.0000   0.0000
     0.0000   0.0000   0.0000   0.0000   0.0000   0.0000   0.0000   0.0000
     0.0000   0.0000   0.0000   0.0000   0.0000   0.0000   0.0000   0.0000
     0.0000   0.0000   0.0000   0.0000   0.0000   0.0000   0.0000   0.0000
     0.0000   0.0000   0.0000   0.0000   0.0000   0.0000   0.0000   0.0000
     0.0000   0.0000   0.0000   0.0000   0.0000   0.0000   0.0000   0.0000

     highest occupied, lowest unoccupied level (ev):    15.1422   16.3200

!    total energy              =   -2456.50460768 Ry
     Harris-Foulkes estimate   =   -2456.50460768 Ry
     estimated scf accuracy    <          4.6E-11 Ry

     The total energy is the sum of the following terms:

     one-electron contribution =     835.98480241 Ry
     hartree contribution      =     217.59853309 Ry
     xc contribution           =    -767.29529474 Ry
     ewald contribution        =   -2742.79264844 Ry

     total magnetization       =     2.00 Bohr mag/cell
     absolute magnetization    =     2.28 Bohr mag/cell

     convergence has been achieved in  20 iterations

     Forces acting on atoms (cartesian axes, Ry/au):

     atom    1 type  1   force =     0.00000599    0.00006008    0.00002433
     atom    2 type  1   force =    -0.00004671    0.00003611    0.00004394
     atom    3 type  1   force =    -0.00001564   -0.00001957   -0.00004690
     atom    4 type  1   force =    -0.00006048    0.00001367   -0.00002748
     atom    5 type  1   force =     0.00003397   -0.00001795    0.00000148
     atom    6 type  1   force =    -0.00002641    0.00001199   -0.00002617
     atom    7 type  1   force =     0.00002524    0.00001826   -0.00008255
     atom    8 type  1   force =    -0.00004181   -0.00000914    0.00003487
     atom    9 type  1   force =    -0.00002260    0.00005712    0.00003453
     atom   10 type  1   force =    -0.00012663    0.00011985   -0.00001395
     atom   11 type  1   force =    -0.00002134    0.00008157   -0.00015727
     atom   12 type  1   force =     0.00044730   -0.00039310    0.00131249
     atom   13 type  1   force =     0.00009644    0.00010243    0.00029249
     atom   14 type  1   force =     0.00017644   -0.00002455    0.00012773
     atom   15 type  1   force =     0.00004160   -0.00000218    0.00001347
     atom   16 type  1   force =    -0.00007898    0.00008539    0.00006571
     atom   17 type  1   force =    -0.00009197   -0.00010741    0.00011979
     atom   18 type  1   force =    -0.00010715   -0.00002321    0.00002970
     atom   19 type  1   force =    -0.00012176    0.00003204    0.00001238
     atom   20 type  1   force =    -0.00001413   -0.00002750    0.00013550
     atom   21 type  1   force =     0.00004608   -0.00000391   -0.00003610
     atom   22 type  1   force =     0.00000479    0.00000493    0.00009143
     atom   23 type  1   force =     0.00022796   -0.00016859   -0.00060079
     atom   24 type  1   force =    -0.00009602   -0.00005816    0.00010373
     atom   25 type  1   force =    -0.00005288   -0.00004849   -0.00017855
     atom   26 type  1   force =    -0.00015735    0.00003027    0.00011853
     atom   27 type  1   force =    -0.00002576   -0.00008494    0.00002731
     atom   28 type  1   force =     0.00018062    0.00074775   -0.00006212
     atom   29 type  1   force =     0.00004383    0.00001650   -0.00004471
     atom   30 type  1   force =    -0.00013266    0.00006657    0.00012596
     atom   31 type  1   force =    -0.00006970    0.00009392   -0.00006363
     atom   32 type  1   force =     0.00019823   -0.00001939   -0.00021859
     atom   33 type  1   force =     0.00005941   -0.00007716   -0.00008972
     atom   34 type  1   force =    -0.00024100    0.00026152    0.00045687
     atom   35 type  1   force =    -0.00118379   -0.00081368   -0.00182029
     atom   36 type  1   force =     0.00032016   -0.00004781   -0.00009515
     atom   37 type  1   force =    -0.00011715   -0.00011088   -0.00019225
     atom   38 type  1   force =     0.00005454   -0.00010585   -0.00005567
     atom   39 type  1   force =    -0.00000658   -0.00008499   -0.00018079
     atom   40 type  1   force =    -0.00001073   -0.00001778    0.00002031
     atom   41 type  1   force =     0.00056163    0.00012246   -0.00387059
     atom   42 type  1   force =    -0.00014657   -0.00006622    0.00009037
     atom   43 type  1   force =    -0.00016176    0.00106196   -0.00114453
     atom   44 type  1   force =     0.00007105   -0.00015358   -0.00014162
     atom   45 type  1   force =     0.00007643    0.00019461   -0.00010724
     atom   46 type  1   force =    -0.00012579   -0.00006471    0.00016294
     atom   47 type  1   force =    -0.00045550    0.00034048   -0.00004922
     atom   48 type  1   force =    -0.00000472    0.00004507   -0.00003156
     atom   49 type  1   force =    -0.00013533    0.00007216   -0.00002822
     atom   50 type  1   force =    -0.00005492    0.00014018   -0.00001715
     atom   51 type  1   force =    -0.00005446    0.00002274    0.00001179
     atom   52 type  1   force =    -0.00006789    0.00001911    0.00000678
     atom   53 type  1   force =     0.00009595   -0.00035389   -0.00013884
     atom   54 type  1   force =     0.00001919    0.00009126    0.00003557
     atom   55 type  1   force =     0.00008878   -0.00001406   -0.00000879
     atom   56 type  1   force =     0.00001583    0.00003259    0.00002326
     atom   57 type  1   force =     0.00114826   -0.00192038   -0.00015969
     atom   58 type  1   force =    -0.00030913   -0.00004403   -0.00001237
     atom   59 type  1   force =     0.00058836    0.00006831    0.00252447
     atom   60 type  1   force =     0.00049073    0.00038711   -0.00067553
     atom   61 type  1   force =    -0.00016935   -0.00019012    0.00016897
     atom   62 type  1   force =    -0.00006892    0.00013842   -0.00000297
     atom   63 type  1   force =     0.00008281   -0.00006581    0.00015484
     atom   64 type  1   force =    -0.00002333    0.00005018   -0.00006018
     atom   65 type  1   force =    -0.00062437    0.00146926    0.00154932
     atom   66 type  1   force =     0.00019661   -0.00020426   -0.00035038
     atom   67 type  1   force =     0.00005539    0.00003155    0.00001708
     atom   68 type  1   force =    -0.00001799    0.00005285    0.00009522
     atom   69 type  1   force =     0.00003080    0.00005934    0.00022493
     atom   70 type  1   force =    -0.00005792   -0.00003681    0.00000003
     atom   71 type  1   force =    -0.00004456    0.00015214    0.00013543
     atom   72 type  1   force =    -0.00003704   -0.00004452   -0.00004629
     atom   73 type  1   force =     0.00003092   -0.00004340   -0.00009155
     atom   74 type  1   force =    -0.00000434   -0.00000896    0.00002552
     atom   75 type  1   force =    -0.00000704   -0.00000212    0.00000003
     atom   76 type  1   force =     0.00000917   -0.00001388   -0.00004323
     atom   77 type  1   force =     0.00000397    0.00000818   -0.00006425
     atom   78 type  1   force =    -0.00002034   -0.00005020    0.00004052
     atom   79 type  1   force =    -0.00000386   -0.00003014   -0.00004901
     atom   80 type  1   force =    -0.00009986   -0.00009910    0.00003514
     atom   81 type  1   force =     0.00000631    0.00002384   -0.00001416
     atom   82 type  1   force =    -0.00006515    0.00007979   -0.00000708
     atom   83 type  1   force =    -0.00000688   -0.00011697    0.00003135
     atom   84 type  1   force =    -0.00020916   -0.00016599   -0.00031234
     atom   85 type  1   force =    -0.00000009   -0.00003904   -0.00020535
     atom   86 type  1   force =    -0.00019385    0.00012661   -0.00006508
     atom   87 type  1   force =    -0.00002552    0.00001350    0.00006181
     atom   88 type  1   force =    -0.00004559    0.00002309   -0.00002214
     atom   89 type  1   force =     0.00012441    0.00005292   -0.00023527
     atom   90 type  1   force =    -0.00006928   -0.00005718    0.00004603
     atom   91 type  1   force =     0.00004659    0.00003750   -0.00004785
     atom   92 type  1   force =     0.00005336    0.00001888    0.00005452
     atom   93 type  1   force =     0.00009485   -0.00007558   -0.00012318
     atom   94 type  1   force =    -0.00000285   -0.00004704    0.00012397
     atom   95 type  1   force =    -0.00004665   -0.00006250    0.00005437
     atom   96 type  1   force =    -0.00005004   -0.00030292   -0.00008247
     atom   97 type  1   force =     0.00000774   -0.00001208   -0.00003127
     atom   98 type  1   force =    -0.00014681   -0.00007848    0.00010040
     atom   99 type  1   force =     0.00002209    0.00005758   -0.00015932
     atom  100 type  1   force =    -0.00012955   -0.00017065   -0.00003908
     atom  101 type  1   force =     0.00001499    0.00005826    0.00001790
     atom  102 type  1   force =    -0.00011352   -0.00009317   -0.00001595
     atom  103 type  1   force =     0.00020192   -0.00001784    0.00000611
     atom  104 type  1   force =    -0.00005702   -0.00000654    0.00004057
     atom  105 type  1   force =     0.00001403    0.00000346    0.00003921
     atom  106 type  1   force =     0.00006376    0.00004292    0.00004139
     atom  107 type  1   force =    -0.00000187   -0.00005963   -0.00006813
     atom  108 type  1   force =    -0.00010685   -0.00003212   -0.00009037
     atom  109 type  1   force =    -0.00037254   -0.00026529    0.00084656
     atom  110 type  1   force =    -0.00166637   -0.00137713   -0.00192083
     atom  111 type  1   force =    -0.00024141    0.00032913   -0.00001114
     atom  112 type  1   force =    -0.00038003   -0.00086010    0.00025693
     atom  113 type  1   force =     0.00002166    0.00001575   -0.00002322
     atom  114 type  1   force =    -0.00015293   -0.00003640    0.00013787
     atom  115 type  1   force =     0.00008337    0.00001447   -0.00010141
     atom  116 type  1   force =     0.00068498   -0.00048696   -0.00086595
     atom  117 type  1   force =     0.00003923    0.00002047   -0.00005074
     atom  118 type  1   force =    -0.00066824   -0.00035281    0.00059690
     atom  119 type  1   force =    -0.00055034   -0.00007497    0.00002294
     atom  120 type  1   force =    -0.00220478   -0.00638438    0.00048693
     atom  121 type  1   force =     0.00044308    0.00032180   -0.00033977
     atom  122 type  1   force =     0.00002616   -0.00000366    0.00002699
     atom  123 type  1   force =    -0.00000077   -0.00003272   -0.00003008
     atom  124 type  1   force =     0.00004219   -0.00000314   -0.00002348
     atom  125 type  1   force =    -0.00004253    0.00005129   -0.00007470
     atom  126 type  1   force =    -0.00002883   -0.00013304   -0.00015948
     atom  127 type  1   force =    -0.00003748   -0.00008845   -0.00026071
     atom  128 type  1   force =     0.00004885   -0.00002888    0.00006191
     atom  129 type  1   force =     0.00010366   -0.00007880    0.00006431
     atom  130 type  1   force =     0.00021248    0.00027010    0.00002083
     atom  131 type  1   force =     0.00005979   -0.00001580   -0.00012631
     atom  132 type  1   force =     0.00003169   -0.00006463    0.00060017
     atom  133 type  1   force =     0.00078609   -0.00046077   -0.00028053
     atom  134 type  1   force =    -0.00565609    0.00564567    0.00235318
     atom  135 type  1   force =     0.00000260   -0.00003077   -0.00002166
     atom  136 type  1   force =    -0.00015735   -0.00009268    0.00034658
     atom  137 type  1   force =     0.00015337    0.00001280    0.00033841
     atom  138 type  1   force =    -0.00033061    0.00022768    0.00013193
     atom  139 type  1   force =     0.00013387   -0.00008167   -0.00000117
     atom  140 type  1   force =    -0.00002746    0.00010056    0.00016801
     atom  141 type  1   force =     0.00134423    0.00076968   -0.00197928
     atom  142 type  1   force =    -0.00029994    0.00044920    0.00053613
     atom  143 type  1   force =     0.00080283   -0.00092580   -0.00239165
     atom  144 type  1   force =    -0.00019738    0.00036541    0.00031337
     atom  145 type  1   force =    -0.00019544   -0.00024963   -0.00025017
     atom  146 type  1   force =    -0.00013113    0.00000535   -0.00019706
     atom  147 type  1   force =     0.00007602   -0.00000665   -0.00009878
     atom  148 type  1   force =     0.00004306    0.00005445    0.00009777
     atom  149 type  1   force =     0.00018378   -0.00003620    0.00002916
     atom  150 type  1   force =     0.00002113    0.00014168    0.00010212
     atom  151 type  1   force =     0.00045766    0.00034034   -0.00033360
     atom  152 type  1   force =    -0.00002107    0.00010091    0.00009955
     atom  153 type  1   force =     0.00005003    0.00016477   -0.00009123
     atom  154 type  1   force =     0.00003625   -0.00006775    0.00010538
     atom  155 type  1   force =    -0.00002309    0.00009041    0.00003435
     atom  156 type  1   force =    -0.00002222    0.00009709   -0.00010465
     atom  157 type  1   force =    -0.00021679    0.00008176   -0.00012537
     atom  158 type  1   force =     0.00022998    0.00000127    0.00000006
     atom  159 type  1   force =    -0.00004738    0.00007608    0.00003284
     atom  160 type  1   force =     0.00018675    0.00040772    0.00009869
     atom  161 type  1   force =     0.00014152   -0.00037433    0.00006249
     atom  162 type  1   force =     0.00009928    0.00014851   -0.00012594
     atom  163 type  1   force =     0.00007118   -0.00004043   -0.00003223
     atom  164 type  1   force =    -0.00084220    0.00087503   -0.00093386
     atom  165 type  1   force =    -0.00002100   -0.00000189    0.00002071
     atom  166 type  1   force =     0.00004004   -0.00005596   -0.00000087
     atom  167 type  1   force =    -0.00021794   -0.00006761    0.00039524
     atom  168 type  1   force =     0.00032376   -0.00015581    0.00003646
     atom  169 type  1   force =     0.00012156    0.00020391   -0.00001151
     atom  170 type  1   force =     0.00003167    0.00009251   -0.00007359
     atom  171 type  1   force =    -0.00000480    0.00004657    0.00011378
     atom  172 type  1   force =     0.00006326   -0.00004498    0.00006596
     atom  173 type  1   force =     0.00001090   -0.00001553   -0.00001873
     atom  174 type  1   force =     0.00000805    0.00007885    0.00020783
     atom  175 type  1   force =    -0.00009717   -0.00024179    0.00014942
     atom  176 type  1   force =     0.00014659    0.00005874    0.00009885
     atom  177 type  1   force =    -0.00031695    0.00000718    0.00011048
     atom  178 type  1   force =     0.00045011    0.00122052    0.00157560
     atom  179 type  1   force =    -0.00043750    0.00172650   -0.00011148
     atom  180 type  1   force =     0.00675214   -0.00507555    0.00855023
     atom  181 type  1   force =    -0.00010445    0.00031834    0.00132594
     atom  182 type  1   force =     0.00283878    0.00434066   -0.00077831
     atom  183 type  1   force =     0.00031856   -0.00092270    0.00044855
     atom  184 type  1   force =    -0.01071375    0.00163969   -0.00253331
     atom  185 type  1   force =     0.00096386    0.00012628    0.00057838
     atom  186 type  1   force =     0.00010034    0.00007446    0.00045229
     atom  187 type  1   force =     0.00295419    0.00128381   -0.00190900
     atom  188 type  1   force =     0.00037431   -0.00009068    0.00037846
     atom  189 type  1   force =     0.02363417    0.00268391   -0.02705758
     atom  190 type  1   force =     0.00470465   -0.00019876    0.00117205
     atom  191 type  1   force =    -0.00012122    0.00003560   -0.00015949
     atom  192 type  1   force =     0.00010205   -0.00005071    0.00018937
     atom  193 type  1   force =     0.00000482    0.00003525   -0.00011880
     atom  194 type  1   force =    -0.00028214   -0.00040728    0.00046929
     atom  195 type  1   force =    -0.00020376    0.00006089   -0.00014056
     atom  196 type  1   force =     0.00029810    0.00015595   -0.00007641
     atom  197 type  1   force =     0.00001033   -0.00009225    0.00001465
     atom  198 type  1   force =     0.00013345    0.00002127   -0.00003999
     atom  199 type  1   force =     0.00055051    0.00027859    0.00001514
     atom  200 type  1   force =    -0.00612729   -0.00128087    0.00206055
     atom  201 type  1   force =     0.00081037   -0.00064452   -0.00112798
     atom  202 type  1   force =     0.00006856    0.00043524   -0.00002555
     atom  203 type  1   force =     0.00348230   -0.02371767    0.03015107
     atom  204 type  1   force =     0.00400061    0.00257507   -0.00622921
     atom  205 type  1   force =     0.00163817   -0.00030404    0.00072313
     atom  206 type  1   force =     0.00020274    0.00004264   -0.00000094
     atom  207 type  1   force =    -0.02609139    0.01950897   -0.00360247
     atom  208 type  1   force =     0.00627721    0.00246392    0.00084424
     atom  209 type  1   force =    -0.00080850   -0.00142506   -0.00187375
     atom  210 type  1   force =     0.00052356   -0.00050787   -0.00060501
     atom  211 type  1   force =    -0.00074709   -0.00055347   -0.00162815
     atom  212 type  1   force =     0.00039946    0.00027918   -0.00032677
     atom  213 type  1   force =     0.00028733   -0.00100719    0.00048871
     atom  214 type  1   force =     0.00022014    0.00002955   -0.00006622
     atom  215 type  2   force =    -0.00799768   -0.00141546    0.00435446
     The non-local contrib.  to forces
     atom    1 type  1   force =     0.00525302    0.00350494    0.00397910
     atom    2 type  1   force =     0.00310184    0.00190230    0.00259295
     atom    3 type  1   force =     0.00548689   -0.00242675   -0.00204287
     atom    4 type  1   force =     0.00370030   -0.00277270   -0.00276968
     atom    5 type  1   force =     0.00275414    0.00279224   -0.00264994
     atom    6 type  1   force =     0.00107282    0.00156064   -0.00058017
     atom    7 type  1   force =     0.00301061   -0.00287852    0.00313553
     atom    8 type  1   force =     0.00113978   -0.00085878    0.00220312
     atom    9 type  1   force =     0.01013127    0.00865657   -0.01173757
     atom   10 type  1   force =     0.00414736    0.00192994   -0.00023703
     atom   11 type  1   force =     0.00240072   -0.00367139   -0.01186923
     atom   12 type  1   force =     0.01716696   -0.01857268   -0.01645842
     atom   13 type  1   force =     0.00551467    0.00596882   -0.01581151
     atom   14 type  1   force =     0.00289222    0.00285791    0.00076950
     atom   15 type  1   force =     0.00359965   -0.00206870   -0.00767835
     atom   16 type  1   force =     0.00270104   -0.00421378   -0.00287795
     atom   17 type  1   force =     0.00581124    0.01080338   -0.00212241
     atom   18 type  1   force =     0.00714851    0.00136004    0.00498997
     atom   19 type  1   force =     0.00952891   -0.00685349    0.01041705
     atom   20 type  1   force =     0.00517948   -0.00375275    0.00593232
     atom   21 type  1   force =     0.00319386    0.00351965    0.00486085
     atom   22 type  1   force =     0.00145533    0.00204850    0.00445741
     atom   23 type  1   force =     0.00608890   -0.00360113    0.00647604
     atom   24 type  1   force =     0.00351011   -0.00375262    0.00165698
     atom   25 type  1   force =     0.01095202   -0.01240558    0.01012191
     atom   26 type  1   force =     0.00463886    0.00005714    0.00285598
     atom   27 type  1   force =     0.00231883   -0.01027788   -0.00179582
     atom   28 type  1   force =     0.01477569   -0.01817194   -0.01627533
     atom   29 type  1   force =     0.00367747   -0.00726450   -0.00186048
     atom   30 type  1   force =     0.00246080   -0.00258587   -0.00421293
     atom   31 type  1   force =     0.00556751   -0.01521016    0.00656108
     atom   32 type  1   force =     0.00297632   -0.00058754    0.00312387
     atom   33 type  1   force =     0.00448982   -0.01071712   -0.01151676
     atom   34 type  1   force =     0.02079604   -0.01802902   -0.01966689
     atom   35 type  1   force =     0.05841759   -0.00635288   -0.01486758
     atom   36 type  1   force =     0.03431141   -0.00389369   -0.00489696
     atom   37 type  1   force =     0.01072003   -0.00599309   -0.00488427
     atom   38 type  1   force =     0.00515215   -0.00804483   -0.00221406
     atom   39 type  1   force =     0.00999043   -0.00345355   -0.00649201
     atom   40 type  1   force =     0.00456928   -0.00198187   -0.00840502
     atom   41 type  1   force =     0.03566355   -0.03526264    0.04446446
     atom   42 type  1   force =     0.02681037   -0.00917239    0.00449515
     atom   43 type  1   force =     0.03608499   -0.05648266    0.03672275
     atom   44 type  1   force =     0.01880838    0.01998935    0.01851387
     atom   45 type  1   force =     0.00946263   -0.01141910    0.01088743
     atom   46 type  1   force =     0.00200448   -0.00040832    0.00599344
     atom   47 type  1   force =     0.01605549   -0.00639217    0.00298406
     atom   48 type  1   force =     0.00239405   -0.00037020    0.00707096
     atom   49 type  1   force =     0.00550778   -0.00225268    0.01224770
     atom   50 type  1   force =     0.00713220    0.00520903    0.00274278
     atom   51 type  1   force =     0.00895559    0.00942189   -0.00540756
     atom   52 type  1   force =     0.00450646    0.00486856   -0.00304950
     atom   53 type  1   force =     0.00514153    0.00837762   -0.00239793
     atom   54 type  1   force =     0.00290301    0.00095222   -0.00329360
     atom   55 type  1   force =     0.00318099    0.00504332    0.00396789
     atom   56 type  1   force =     0.00137740    0.00376832    0.00265847
     atom   57 type  1   force =     0.02965808    0.04681510   -0.02857486
     atom   58 type  1   force =     0.02354577    0.00336931   -0.00976998
     atom   59 type  1   force =     0.03354775    0.03384555   -0.05454609
     atom   60 type  1   force =     0.01814594    0.01798511    0.01896445
     atom   61 type  1   force =     0.01545874    0.00411612   -0.00805916
     atom   62 type  1   force =     0.00180582    0.00689684   -0.00065468
     atom   63 type  1   force =     0.00821751    0.01008024   -0.01124273
     atom   64 type  1   force =     0.00154796    0.00478497   -0.00044173
     atom   65 type  1   force =     0.06191919    0.00933617    0.00204519
     atom   66 type  1   force =     0.02638897    0.01906178    0.01873771
     atom   67 type  1   force =     0.01051833    0.01021492    0.00990038
     atom   68 type  1   force =     0.00812083    0.00883564    0.00956388
     atom   69 type  1   force =     0.01039686   -0.00042410    0.00631112
     atom   70 type  1   force =     0.00069334    0.00409629    0.00824101
     atom   71 type  1   force =     0.00999007    0.00629935   -0.00119123
     atom   72 type  1   force =     0.00043258    0.00771840    0.00446908
     atom   73 type  1   force =    -0.00299447    0.00323814    0.00333962
     atom   74 type  1   force =    -0.00110529    0.00170801    0.00227983
     atom   75 type  1   force =    -0.00202849   -0.00212582   -0.00216696
     atom   76 type  1   force =    -0.00200374   -0.00189650   -0.00174910
     atom   77 type  1   force =    -0.00676311    0.00372808   -0.00173439
     atom   78 type  1   force =    -0.00307538    0.00301504   -0.00480068
     atom   79 type  1   force =    -0.00670910   -0.00178157    0.00377677
     atom   80 type  1   force =    -0.00389301   -0.00543508    0.00384066
     atom   81 type  1   force =    -0.00208571    0.00363042   -0.00763658
     atom   82 type  1   force =    -0.00475906    0.00350356   -0.00363645
     atom   83 type  1   force =    -0.00128084   -0.00112402   -0.00989785
     atom   84 type  1   force =    -0.00580842   -0.00593338    0.00600686
     atom   85 type  1   force =    -0.00561203    0.01184249   -0.00404698
     atom   86 type  1   force =    -0.00782392    0.00602236   -0.00261361
     atom   87 type  1   force =    -0.00727132   -0.00218357   -0.00806183
     atom   88 type  1   force =    -0.00144625   -0.00680788   -0.00267654
     atom   89 type  1   force =    -0.00357112    0.00639668    0.00672439
     atom   90 type  1   force =    -0.00411355    0.00412369    0.00172361
     atom   91 type  1   force =    -0.00212513   -0.00184098    0.00487905
     atom   92 type  1   force =    -0.00323516   -0.00327520    0.00569770
     atom   93 type  1   force =    -0.01188280    0.01074487    0.01151828
     atom   94 type  1   force =    -0.00017817    0.00282202    0.00651824
     atom   95 type  1   force =    -0.00595794   -0.00154103    0.00150323
     atom   96 type  1   force =    -0.00131862   -0.01247341    0.00525151
     atom   97 type  1   force =    -0.00190372   -0.00716271    0.00375661
     atom   98 type  1   force =    -0.00536789   -0.00414895    0.00407173
     atom   99 type  1   force =    -0.00142910   -0.00917521   -0.00098181
     atom  100 type  1   force =    -0.00564179    0.00684571   -0.00585292
     atom  101 type  1   force =    -0.00728892   -0.00768898   -0.00208445
     atom  102 type  1   force =    -0.00116829   -0.00175451   -0.00709588
     atom  103 type  1   force =    -0.00539362   -0.00168654    0.01227247
     atom  104 type  1   force =    -0.00779196   -0.00278235    0.00638976
     atom  105 type  1   force =    -0.00217337   -0.00760301   -0.00800716
     atom  106 type  1   force =    -0.00649878   -0.00229299   -0.00294200
     atom  107 type  1   force =    -0.00412383   -0.00648597   -0.00706368
     atom  108 type  1   force =    -0.01933516   -0.00368178   -0.00442211
     atom  109 type  1   force =    -0.03034105   -0.03002398   -0.04773169
     atom  110 type  1   force =     0.12195320    0.11752913   -0.13170559
     atom  111 type  1   force =    -0.03018019   -0.04917868   -0.02951936
     atom  112 type  1   force =     0.12651444   -0.12682287    0.11750210
     atom  113 type  1   force =    -0.00232213   -0.00625403    0.00161332
     atom  114 type  1   force =    -0.01259035   -0.00237037    0.00482071
     atom  115 type  1   force =    -0.00389357   -0.01093264    0.00264035
     atom  116 type  1   force =    -0.01708240   -0.01898770    0.01531041
     atom  117 type  1   force =    -0.01064591   -0.01134074    0.00416782
     atom  118 type  1   force =    -0.02384912   -0.02533638    0.02440021
     atom  119 type  1   force =    -0.04535613   -0.04564206   -0.01981441
     atom  120 type  1   force =    -0.10305125   -0.08344367    0.06699214
     atom  121 type  1   force =    -0.00258495    0.00901237    0.00587548
     atom  122 type  1   force =    -0.00402556    0.00106473    0.00420278
     atom  123 type  1   force =    -0.00246031    0.00515821   -0.00177396
     atom  124 type  1   force =    -0.00297492    0.00465062   -0.00300215
     atom  125 type  1   force =    -0.00556034    0.00203625   -0.00061885
     atom  126 type  1   force =    -0.00064516    0.00463594   -0.01135218
     atom  127 type  1   force =    -0.01239409    0.01156934    0.01103778
     atom  128 type  1   force =     0.00009563    0.00578857    0.00330370
     atom  129 type  1   force =    -0.00232689    0.00221666   -0.00621600
     atom  130 type  1   force =    -0.01160071    0.00387151   -0.00292692
     atom  131 type  1   force =    -0.00468585    0.00265008   -0.01218159
     atom  132 type  1   force =    -0.01867546    0.01721427   -0.01676789
     atom  133 type  1   force =    -0.04450795   -0.01867899   -0.04559808
     atom  134 type  1   force =    -0.10758382    0.07957134   -0.07542678
     atom  135 type  1   force =    -0.01023763    0.00426353   -0.01172341
     atom  136 type  1   force =    -0.01980158    0.02208978   -0.02293802
     atom  137 type  1   force =    -0.00796516   -0.00167085   -0.00163912
     atom  138 type  1   force =    -0.02947626    0.00500710    0.00531913
     atom  139 type  1   force =    -0.00786182    0.01037017    0.01083110
     atom  140 type  1   force =    -0.00430844    0.00613804    0.00653348
     atom  141 type  1   force =    -0.03484008    0.05024930    0.03506675
     atom  142 type  1   force =    -0.00870416    0.00464357    0.02817182
     atom  143 type  1   force =    -0.03785354    0.03783563    0.04580257
     atom  144 type  1   force =    -0.00864972    0.02897322    0.00507692
     atom  145 type  1   force =    -0.01456523    0.00589387    0.00643709
     atom  146 type  1   force =    -0.00217358    0.00297899    0.00318347
     atom  147 type  1   force =    -0.00851951   -0.00131770   -0.00105490
     atom  148 type  1   force =     0.00767568   -0.00551406   -0.00560193
     atom  149 type  1   force =     0.01059062    0.00491423   -0.00162024
     atom  150 type  1   force =     0.00027315    0.00294624   -0.00327893
     atom  151 type  1   force =     0.01092835   -0.00180561    0.00528351
     atom  152 type  1   force =     0.00031177   -0.00365745    0.00362004
     atom  153 type  1   force =    -0.00134658    0.01046001   -0.00642010
     atom  154 type  1   force =    -0.00221504    0.00483173   -0.00848117
     atom  155 type  1   force =    -0.00555336   -0.00270417   -0.00650837
     atom  156 type  1   force =    -0.00308348   -0.01732415   -0.00437424
     atom  157 type  1   force =     0.00545757    0.01694726   -0.00946902
     atom  158 type  1   force =     0.00683936    0.00265008   -0.00022325
     atom  159 type  1   force =     0.00265499   -0.00156992   -0.00594387
     atom  160 type  1   force =     0.00334053   -0.01060922   -0.00242159
     atom  161 type  1   force =    -0.00651815    0.01822058    0.00346336
     atom  162 type  1   force =     0.00025674    0.00378600    0.00717629
     atom  163 type  1   force =    -0.00950020   -0.00235700    0.00262742
     atom  164 type  1   force =    -0.02093667   -0.01530892    0.01354102
     atom  165 type  1   force =    -0.00076393    0.01143275    0.00591573
     atom  166 type  1   force =     0.00416841    0.00184640    0.00812273
     atom  167 type  1   force =    -0.00130887   -0.00609615   -0.00119469
     atom  168 type  1   force =     0.00417602   -0.02698980    0.00481473
     atom  169 type  1   force =    -0.00043843   -0.00566837    0.01144857
     atom  170 type  1   force =    -0.00264860   -0.00813256    0.00580970
     atom  171 type  1   force =    -0.00498887   -0.00538091   -0.00115587
     atom  172 type  1   force =    -0.00282350   -0.00351142   -0.01548315
     atom  173 type  1   force =     0.00259712   -0.00558473   -0.00064919
     atom  174 type  1   force =     0.00367777   -0.00117543   -0.01044274
     atom  175 type  1   force =     0.00584042   -0.00924014    0.01940031
     atom  176 type  1   force =     0.00693992    0.00056465    0.00426256
     atom  177 type  1   force =    -0.05082444   -0.02971802   -0.02940204
     atom  178 type  1   force =    -0.12210718    0.12658194    0.12199418
     atom  179 type  1   force =    -0.01557415   -0.04029306   -0.04012983
     atom  180 type  1   force =     0.07563871   -0.09907199   -0.05983361
     atom  181 type  1   force =    -0.01320383   -0.03415568   -0.03659030
     atom  182 type  1   force =     0.05893527   -0.05197160   -0.08577659
     atom  183 type  1   force =    -0.04005018   -0.04164562   -0.01763169
     atom  184 type  1   force =    -0.07802347   -0.08992502    0.05184799
     atom  185 type  1   force =     0.00213707   -0.00549786    0.06793963
     atom  186 type  1   force =    -0.00297449   -0.00372984    0.03637304
     atom  187 type  1   force =     0.05394442   -0.02874215    0.02924446
     atom  188 type  1   force =     0.00355283   -0.00906870    0.02547956
     atom  189 type  1   force =     0.25555214   -0.23911657    0.17685970
     atom  190 type  1   force =     0.08749226    0.06247169    0.07091117
     atom  191 type  1   force =    -0.00792349    0.00497479    0.01987151
     atom  192 type  1   force =     0.00075341    0.00707876    0.00481873
     atom  193 type  1   force =    -0.00915868    0.00253702   -0.00126435
     atom  194 type  1   force =    -0.02036805    0.01303763   -0.01472943
     atom  195 type  1   force =    -0.00086873   -0.00081597   -0.00368225
     atom  196 type  1   force =     0.00365693    0.00408349   -0.02408010
     atom  197 type  1   force =    -0.00166604    0.00560158    0.01249381
     atom  198 type  1   force =     0.00475269    0.00760200    0.00295672
     atom  199 type  1   force =    -0.03402578   -0.01414018   -0.03709867
     atom  200 type  1   force =    -0.06197705    0.04779017   -0.08184676
     atom  201 type  1   force =     0.00223242    0.06243991   -0.01410141
     atom  202 type  1   force =    -0.00300451    0.03535870   -0.00478768
     atom  203 type  1   force =     0.19466124    0.15427870   -0.16748554
     atom  204 type  1   force =     0.07675898    0.06901744    0.04199390
     atom  205 type  1   force =     0.05165153    0.02593080   -0.02464089
     atom  206 type  1   force =     0.00300531    0.02299738   -0.00971825
     atom  207 type  1   force =    -0.31502366    0.27972023    0.24217636
     atom  208 type  1   force =     0.08085149    0.08825806    0.08017812
     atom  209 type  1   force =    -0.05780205    0.03791381    0.03827010
     atom  210 type  1   force =     0.02059910    0.01881180    0.01869787
     atom  211 type  1   force =     0.00106346   -0.00513087    0.06730280
     atom  212 type  1   force =     0.02342500    0.02325175    0.02680680
     atom  213 type  1   force =     0.00856056    0.06463697   -0.00502428
     atom  214 type  1   force =     0.02142670    0.02669891    0.02090700
     atom  215 type  2   force =    -0.78098581   -0.77189130   -0.76396066
     The ionic contribution  to forces
     atom    1 type  1   force =    -0.00170652   -0.04359722   -0.06793707
     atom    2 type  1   force =    -0.01085082    0.00230753   -0.00087652
     atom    3 type  1   force =     0.01494729    0.02689989    0.03349711
     atom    4 type  1   force =    -0.07165085    0.08714923    0.10795529
     atom    5 type  1   force =    -0.01187735   -0.02868140    0.00815309
     atom    6 type  1   force =    -0.01759415   -0.01628116    0.06203445
     atom    7 type  1   force =    -0.01603290    0.00545843   -0.04972241
     atom    8 type  1   force =    -0.01965380    0.03906647   -0.01688908
     atom    9 type  1   force =    -0.01649939   -0.03841962    0.07887912
     atom   10 type  1   force =    -0.06906364    0.01101229    0.10557467
     atom   11 type  1   force =    -0.08839818    0.13031301    0.01216581
     atom   12 type  1   force =    -0.14341240    0.15342475    0.00601554
     atom   13 type  1   force =    -0.03235803   -0.05141563   -0.01866050
     atom   14 type  1   force =    -0.01691890   -0.02344864    0.05528807
     atom   15 type  1   force =    -0.05060836    0.01716699    0.03469342
     atom   16 type  1   force =    -0.08766621    0.05562983    0.09683832
     atom   17 type  1   force =    -0.10604823   -0.11752975   -0.03021152
     atom   18 type  1   force =    -0.04790245   -0.00714066   -0.04870940
     atom   19 type  1   force =    -0.03639148    0.04253428   -0.10471150
     atom   20 type  1   force =    -0.02867652    0.06292021   -0.08075181
     atom   21 type  1   force =    -0.02765269   -0.05186182   -0.07197644
     atom   22 type  1   force =     0.00127130   -0.00183957   -0.05029353
     atom   23 type  1   force =    -0.06024847    0.05220929   -0.02981398
     atom   24 type  1   force =    -0.00963532    0.08014000   -0.04286024
     atom   25 type  1   force =    -0.01757290    0.05338295   -0.06265915
     atom   26 type  1   force =    -0.05992200    0.06648470   -0.00219049
     atom   27 type  1   force =    -0.08702590   -0.01414859    0.13362942
     atom   28 type  1   force =    -0.10943729   -0.04424311    0.14391058
     atom   29 type  1   force =    -0.05123979    0.01116404    0.02373055
     atom   30 type  1   force =    -0.08461628    0.06208684    0.07438783
     atom   31 type  1   force =    -0.03392974   -0.03621057   -0.07227318
     atom   32 type  1   force =    -0.01787636    0.03070679   -0.03114388
     atom   33 type  1   force =    -0.06546468    0.14542103    0.18104861
     atom   34 type  1   force =    -0.26877192    0.17445906    0.21492926
     atom   35 type  1   force =    -0.74018074    0.18235237    0.25878753
     atom   36 type  1   force =    -0.43409487   -0.00824020    0.01332923
     atom   37 type  1   force =    -0.16030181    0.12688281    0.03983965
     atom   38 type  1   force =    -0.08790210    0.10252323    0.05153239
     atom   39 type  1   force =    -0.15368941    0.01253303    0.16223085
     atom   40 type  1   force =    -0.07897941    0.04397609    0.12984807
     atom   41 type  1   force =    -0.25088561    0.31716962   -0.25859630
     atom   42 type  1   force =    -0.18742074    0.13002553   -0.18112110
     atom   43 type  1   force =    -0.19778764    0.14398606   -0.30085776
     atom   44 type  1   force =    -0.08768003    0.06720469   -0.16258913
     atom   45 type  1   force =    -0.04953293    0.07050823   -0.10382131
     atom   46 type  1   force =     0.00171438    0.07277650   -0.12028685
     atom   47 type  1   force =    -0.18663116    0.08517267   -0.08196851
     atom   48 type  1   force =    -0.02503301    0.01657190   -0.10030127
     atom   49 type  1   force =    -0.09030923   -0.02791602   -0.13142370
     atom   50 type  1   force =    -0.03776595   -0.02463277   -0.01312152
     atom   51 type  1   force =    -0.02205514   -0.05635012    0.03676333
     atom   52 type  1   force =    -0.02650311   -0.05263672    0.08552259
     atom   53 type  1   force =    -0.04112963    0.00516674    0.04936951
     atom   54 type  1   force =     0.00058727   -0.02236005    0.10152843
     atom   55 type  1   force =    -0.02348270   -0.03684791   -0.07197889
     atom   56 type  1   force =     0.00341564   -0.03058870   -0.00293483
     atom   57 type  1   force =    -0.19241881   -0.18335849    0.29708772
     atom   58 type  1   force =    -0.17535571   -0.15050607    0.16750187
     atom   59 type  1   force =    -0.19786461   -0.24953539    0.18224003
     atom   60 type  1   force =    -0.09477886   -0.13204077    0.08109140
     atom   61 type  1   force =    -0.17401897   -0.07524027    0.11538329
     atom   62 type  1   force =    -0.01573777   -0.07713526    0.02394921
     atom   63 type  1   force =    -0.03199727   -0.05967877    0.08736247
     atom   64 type  1   force =     0.01298517   -0.09916375    0.10864582
     atom   65 type  1   force =    -0.81654063   -0.23637292   -0.22705113
     atom   66 type  1   force =    -0.22107950   -0.15634108   -0.18005425
     atom   67 type  1   force =    -0.12682533   -0.15864423   -0.19072120
     atom   68 type  1   force =    -0.04459635   -0.06958770   -0.09482156
     atom   69 type  1   force =    -0.10643431   -0.01816938   -0.17186399
     atom   70 type  1   force =    -0.00627696   -0.02967010   -0.10879569
     atom   71 type  1   force =    -0.10511657   -0.14659578   -0.02537485
     atom   72 type  1   force =    -0.00395590   -0.08310653   -0.05113349
     atom   73 type  1   force =     0.00268845   -0.03703478   -0.05388158
     atom   74 type  1   force =     0.01606341   -0.02028856   -0.01889219
     atom   75 type  1   force =    -0.03054158   -0.02418805   -0.01783276
     atom   76 type  1   force =    -0.02082844    0.00421692    0.02932722
     atom   77 type  1   force =    -0.01178521   -0.06891311    0.01633368
     atom   78 type  1   force =     0.02338964   -0.07669920    0.06151402
     atom   79 type  1   force =    -0.01103031    0.00238155   -0.08597295
     atom   80 type  1   force =     0.01952152    0.02960568   -0.07166339
     atom   81 type  1   force =     0.00319813   -0.06758344    0.03537163
     atom   82 type  1   force =     0.02400230   -0.08274367    0.09310452
     atom   83 type  1   force =    -0.02452922   -0.00901237    0.01292852
     atom   84 type  1   force =     0.02378702    0.04805118    0.13710420
     atom   85 type  1   force =     0.08389729   -0.16650447    0.05248248
     atom   86 type  1   force =     0.06920741   -0.08908751    0.05678433
     atom   87 type  1   force =    -0.02030548   -0.07084413    0.03256739
     atom   88 type  1   force =     0.06965348   -0.08354792    0.12329569
     atom   89 type  1   force =     0.04169456   -0.08483068   -0.02843617
     atom   90 type  1   force =     0.05368840   -0.02009120   -0.03790553
     atom   91 type  1   force =     0.01292542    0.01950606   -0.05792604
     atom   92 type  1   force =     0.05310940    0.07394936   -0.10719077
     atom   93 type  1   force =     0.04525200   -0.07349852   -0.10491772
     atom   94 type  1   force =     0.03370731   -0.01144467   -0.11125006
     atom   95 type  1   force =     0.09253469    0.04505961    0.04656104
     atom   96 type  1   force =     0.15982442    0.20206217   -0.11330940
     atom   97 type  1   force =    -0.00413816    0.01254072   -0.08525336
     atom   98 type  1   force =     0.01088166    0.05447234   -0.07471428
     atom   99 type  1   force =    -0.03025236   -0.00505180    0.00096842
     atom  100 type  1   force =     0.01470810    0.14429815    0.06336693
     atom  101 type  1   force =    -0.02494773    0.00154601   -0.06037214
     atom  102 type  1   force =     0.06727645    0.09418727   -0.06407430
     atom  103 type  1   force =     0.07589042    0.03778306   -0.16585691
     atom  104 type  1   force =     0.06293632    0.05448572   -0.08113768
     atom  105 type  1   force =    -0.08126187    0.01079451    0.03713056
     atom  106 type  1   force =    -0.10287154    0.09887266    0.12548886
     atom  107 type  1   force =    -0.00373005    0.13223029    0.14891127
     atom  108 type  1   force =     0.19209638    0.13853261    0.13101209
     atom  109 type  1   force =    -0.08078032   -0.04360653    0.24987671
     atom  110 type  1   force =     0.28488037    0.31685181    1.25062710
     atom  111 type  1   force =    -0.09774283    0.21501106   -0.02320154
     atom  112 type  1   force =     0.25826109    1.29285813    0.32201495
     atom  113 type  1   force =     0.03531017    0.12935654    0.04792984
     atom  114 type  1   force =     0.19783132    0.21356226   -0.12667965
     atom  115 type  1   force =     0.10008771    0.00146266   -0.15406412
     atom  116 type  1   force =     0.09347732   -0.00770040   -0.18236976
     atom  117 type  1   force =     0.10256895    0.13839639   -0.12392219
     atom  118 type  1   force =     0.08571833    0.12693742   -0.26289564
     atom  119 type  1   force =     0.66838315    0.24222727    0.11808431
     atom  120 type  1   force =     0.67119892   -0.15449769   -0.76707617
     atom  121 type  1   force =     0.02845109    0.00788936   -0.09076816
     atom  122 type  1   force =     0.04863945   -0.01247297   -0.02065157
     atom  123 type  1   force =     0.01654087   -0.02152155    0.02981000
     atom  124 type  1   force =     0.05980638   -0.08944354    0.10142962
     atom  125 type  1   force =     0.08552226    0.06297118    0.06331317
     atom  126 type  1   force =     0.14337518   -0.07296819    0.22409461
     atom  127 type  1   force =     0.03661950   -0.06191678   -0.08011199
     atom  128 type  1   force =     0.03053001   -0.08108182   -0.01344975
     atom  129 type  1   force =     0.04362848    0.06541880    0.15936164
     atom  130 type  1   force =     0.21551010   -0.09992425    0.25074380
     atom  131 type  1   force =     0.11354563   -0.12176774    0.01972160
     atom  132 type  1   force =     0.12834222   -0.17950933    0.02384951
     atom  133 type  1   force =     0.66977458    0.16861161    0.26622986
     atom  134 type  1   force =     0.78455301   -0.75378577   -0.11746450
     atom  135 type  1   force =     0.10623913   -0.09490280    0.17778449
     atom  136 type  1   force =     0.11013301   -0.26628778    0.19180728
     atom  137 type  1   force =     0.13549150   -0.03629384   -0.05707257
     atom  138 type  1   force =     0.17907455   -0.10461327   -0.15098220
     atom  139 type  1   force =     0.04802788   -0.08444846   -0.11843345
     atom  140 type  1   force =     0.04023774   -0.05658342   -0.08258618
     atom  141 type  1   force =     0.24888072   -0.16900228   -0.32196304
     atom  142 type  1   force =     0.08940308   -0.11340960   -0.24673017
     atom  143 type  1   force =     0.29291906   -0.31440378   -0.25183983
     atom  144 type  1   force =     0.09145068   -0.22244101   -0.16274095
     atom  145 type  1   force =    -0.05373730   -0.05487195   -0.07415167
     atom  146 type  1   force =     0.00618063   -0.02549753   -0.03220915
     atom  147 type  1   force =    -0.02314424   -0.02036000   -0.00479091
     atom  148 type  1   force =     0.15151190    0.02972322    0.05413376
     atom  149 type  1   force =     0.04177050   -0.04677826    0.03585637
     atom  150 type  1   force =     0.00327999    0.00020058    0.09646746
     atom  151 type  1   force =     0.04316769    0.02548496   -0.07185399
     atom  152 type  1   force =     0.00822834    0.06992183   -0.01048512
     atom  153 type  1   force =    -0.00259254   -0.15282288    0.15459996
     atom  154 type  1   force =     0.04162080   -0.07115305    0.12412124
     atom  155 type  1   force =     0.10978525    0.00903491    0.14348584
     atom  156 type  1   force =     0.13283920    0.20772990    0.11820165
     atom  157 type  1   force =    -0.05084027   -0.16213590    0.11240333
     atom  158 type  1   force =    -0.04747877   -0.01651569    0.01821189
     atom  159 type  1   force =     0.08180005    0.06175590    0.15251962
     atom  160 type  1   force =    -0.05942899    0.23672940    0.23461364
     atom  161 type  1   force =     0.05182279   -0.18828577   -0.06437272
     atom  162 type  1   force =     0.00327008   -0.03542561   -0.09396883
     atom  163 type  1   force =    -0.02460036    0.10298607   -0.15307969
     atom  164 type  1   force =    -0.05785801    0.08331877   -0.14855937
     atom  165 type  1   force =    -0.01576178   -0.12048106   -0.15675198
     atom  166 type  1   force =    -0.00555934   -0.01213536   -0.09912262
     atom  167 type  1   force =    -0.02359607    0.13773779   -0.06547862
     atom  168 type  1   force =    -0.06996691    0.18761283   -0.16308752
     atom  169 type  1   force =     0.01009805    0.11120677   -0.15881485
     atom  170 type  1   force =     0.04681826    0.09043114   -0.07203760
     atom  171 type  1   force =     0.10408723    0.12112147    0.02220117
     atom  172 type  1   force =     0.11943226    0.11225096    0.22433159
     atom  173 type  1   force =     0.08063478    0.11549520    0.07161822
     atom  174 type  1   force =    -0.04573708    0.18090607    0.24116704
     atom  175 type  1   force =    -0.03271663    0.07840966   -0.16309993
     atom  176 type  1   force =    -0.04077145    0.00472517   -0.02678870
     atom  177 type  1   force =     0.17943520   -0.07758099   -0.04029755
     atom  178 type  1   force =     1.33321436    0.26186343    0.29368256
     atom  179 type  1   force =     0.18039161    0.71661977    0.25188572
     atom  180 type  1   force =    -0.71618212    0.88983840   -0.21796758
     atom  181 type  1   force =     0.14148937    0.21364643    0.76557842
     atom  182 type  1   force =    -0.69369046   -0.36459941    0.89113750
     atom  183 type  1   force =     0.20316352    0.71613137    0.07982696
     atom  184 type  1   force =    -0.30722238    0.66156358   -0.73802566
     atom  185 type  1   force =     0.14762548    0.22851137   -0.71110968
     atom  186 type  1   force =    -0.00225635    0.02108798   -0.45720256
     atom  187 type  1   force =    -0.09105257    0.22768067   -0.26494505
     atom  188 type  1   force =    -0.08207314    0.12606667   -0.23512471
     atom  189 type  1   force =    -1.97758833    2.25664999   -2.36275073
     atom  190 type  1   force =    -0.65062791    0.36333188   -0.89685446
     atom  191 type  1   force =     0.04804050   -0.03959102   -0.17654142
     atom  192 type  1   force =    -0.00283946   -0.06410566   -0.03643240
     atom  193 type  1   force =    -0.03275424   -0.11945758    0.11969780
     atom  194 type  1   force =    -0.07642479   -0.11174727    0.10866878
     atom  195 type  1   force =    -0.03220704   -0.05325277    0.13968101
     atom  196 type  1   force =    -0.08129132   -0.12814439    0.19431234
     atom  197 type  1   force =    -0.02068594   -0.11571891   -0.13313138
     atom  198 type  1   force =    -0.00294540   -0.06332416   -0.01575755
     atom  199 type  1   force =     0.18891813    0.09148031    0.76655448
     atom  200 type  1   force =    -0.41711420   -0.70239181    0.77644788
     atom  201 type  1   force =     0.12654205   -0.72856405    0.28382894
     atom  202 type  1   force =    -0.01647528   -0.44698369    0.02842685
     atom  203 type  1   force =    -2.00200948   -2.19679805    2.32186847
     atom  204 type  1   force =    -0.75653083   -0.87831533    0.42717952
     atom  205 type  1   force =    -0.09872442   -0.19876030    0.25158691
     atom  206 type  1   force =    -0.10074521   -0.19875227    0.16554638
     atom  207 type  1   force =     2.19794538   -2.14157727   -2.33280990
     atom  208 type  1   force =     0.29166371   -0.67671881   -0.80099761
     atom  209 type  1   force =     0.10762404   -0.24933854   -0.30072799
     atom  210 type  1   force =     0.05345647   -0.11831687   -0.15590089
     atom  211 type  1   force =    -0.17874236   -0.16684919   -0.78288893
     atom  212 type  1   force =    -0.07877072   -0.10213829   -0.25487423
     atom  213 type  1   force =    -0.21383527   -0.80073561   -0.19263074
     atom  214 type  1   force =    -0.10614373   -0.23794477   -0.15323712
     atom  215 type  2   force =     3.03140779    3.08748176    3.13943093
     The local contribution  to forces
     atom    1 type  1   force =    -0.00355529    0.04014681    0.06399292
     atom    2 type  1   force =     0.00768737   -0.00417946   -0.00166231
     atom    3 type  1   force =    -0.02046563   -0.02449806   -0.03149033
     atom    4 type  1   force =     0.06787574   -0.08436742   -0.10520138
     atom    5 type  1   force =     0.00914332    0.02586458   -0.00549090
     atom    6 type  1   force =     0.01648232    0.01472709   -0.06146827
     atom    7 type  1   force =     0.01303381   -0.00256690    0.04651378
     atom    8 type  1   force =     0.01845968   -0.03822094    0.01473130
     atom    9 type  1   force =     0.00633010    0.02981418   -0.06709534
     atom   10 type  1   force =     0.06477553   -0.01282764   -0.10533860
     atom   11 type  1   force =     0.08596180   -0.12656535   -0.00044113
     atom   12 type  1   force =     0.12667925   -0.13525045    0.01176775
     atom   13 type  1   force =     0.02692691    0.04554378    0.03477739
     atom   14 type  1   force =     0.01419061    0.02056111   -0.05591752
     atom   15 type  1   force =     0.04703713   -0.01510524   -0.02698878
     atom   16 type  1   force =     0.08487406   -0.05133517   -0.09388172
     atom   17 type  1   force =     0.10013095    0.10661401    0.03246506
     atom   18 type  1   force =     0.04063348    0.00575247    0.04375966
     atom   19 type  1   force =     0.02672626   -0.03565355    0.09431700
     atom   20 type  1   force =     0.02346873   -0.05920008    0.07496460
     atom   21 type  1   force =     0.02449210    0.04833282    0.06708956
     atom   22 type  1   force =    -0.00273473   -0.00020967    0.04593666
     atom   23 type  1   force =     0.05437466   -0.04878174    0.02274853
     atom   24 type  1   force =     0.00601612   -0.07645105    0.04131723
     atom   25 type  1   force =     0.00655284   -0.04103105    0.05236891
     atom   26 type  1   force =     0.05511194   -0.06651589   -0.00053595
     atom   27 type  1   force =     0.08466717    0.02433663   -0.13179518
     atom   28 type  1   force =     0.09482890    0.06315718   -0.12768621
     atom   29 type  1   force =     0.04759309   -0.00388693   -0.02190345
     atom   30 type  1   force =     0.08201070   -0.05943859   -0.07003717
     atom   31 type  1   force =     0.02827978    0.05150965    0.06565940
     atom   32 type  1   force =     0.01508578   -0.03014450    0.02781266
     atom   33 type  1   force =     0.06101992   -0.13478592   -0.16960976
     atom   34 type  1   force =     0.24772180   -0.15617339   -0.19479327
     atom   35 type  1   force =     0.68056554   -0.17681893   -0.24572802
     atom   36 type  1   force =     0.40009008    0.01207972   -0.00851582
     atom   37 type  1   force =     0.14945193   -0.12100555   -0.03513513
     atom   38 type  1   force =     0.08279140   -0.09458993   -0.04936240
     atom   39 type  1   force =     0.14367973   -0.00916949   -0.15590793
     atom   40 type  1   force =     0.07438634   -0.04201817   -0.12141132
     atom   41 type  1   force =     0.21576918   -0.28178981    0.21027304
     atom   42 type  1   force =     0.16044974   -0.12092526    0.17672681
     atom   43 type  1   force =     0.16152604   -0.08644772    0.26300074
     atom   44 type  1   force =     0.06892944   -0.08735369    0.14394460
     atom   45 type  1   force =     0.04013350   -0.05889993    0.09283644
     atom   46 type  1   force =    -0.00385717   -0.07243751    0.11446662
     atom   47 type  1   force =     0.17010720   -0.07844606    0.07894632
     atom   48 type  1   force =     0.02262198   -0.01616252    0.09320975
     atom   49 type  1   force =     0.08465196    0.03023440    0.11915914
     atom   50 type  1   force =     0.03056533    0.01955695    0.01037290
     atom   51 type  1   force =     0.01303032    0.04694412   -0.03133251
     atom   52 type  1   force =     0.02191424    0.04778026   -0.08245488
     atom   53 type  1   force =     0.03607109   -0.01390492   -0.04709898
     atom   54 type  1   force =    -0.00348422    0.02149156   -0.09818808
     atom   55 type  1   force =     0.02037764    0.03178371    0.06801286
     atom   56 type  1   force =    -0.00479015    0.02684565    0.00030984
     atom   57 type  1   force =     0.16389498    0.13461698   -0.26866148
     atom   58 type  1   force =     0.15148715    0.14708578   -0.15773301
     atom   59 type  1   force =     0.16489089    0.21575187   -0.12515815
     atom   60 type  1   force =     0.07711053    0.11443733   -0.10071946
     atom   61 type  1   force =     0.15837809    0.07092737   -0.10714365
     atom   62 type  1   force =     0.01385080    0.07037043   -0.02328560
     atom   63 type  1   force =     0.02384921    0.04952530   -0.07595331
     atom   64 type  1   force =    -0.01456911    0.09442248   -0.10825137
     atom   65 type  1   force =     0.75398297    0.22849919    0.22656661
     atom   66 type  1   force =     0.19487389    0.13706857    0.16097708
     atom   67 type  1   force =     0.11634834    0.14845474    0.18084862
     atom   68 type  1   force =     0.03644399    0.06079894    0.08536331
     atom   69 type  1   force =     0.09605579    0.01864648    0.16578856
     atom   70 type  1   force =     0.00551329    0.02553025    0.10056545
     atom   71 type  1   force =     0.09506950    0.14044247    0.02671288
     atom   72 type  1   force =     0.00347392    0.07533797    0.04662873
     atom   73 type  1   force =     0.00032435    0.03374684    0.05045995
     atom   74 type  1   force =    -0.01497417    0.01856626    0.01664837
     atom   75 type  1   force =     0.03255144    0.02630742    0.02001129
     atom   76 type  1   force =     0.02282977   -0.00233834   -0.02760922
     atom   77 type  1   force =     0.01854029    0.06518759   -0.01465228
     atom   78 type  1   force =    -0.02034726    0.07362921   -0.05666117
     atom   79 type  1   force =     0.01772333   -0.00063501    0.08215771
     atom   80 type  1   force =    -0.01574126   -0.02427452    0.06786928
     atom   81 type  1   force =    -0.00111830    0.06397107   -0.02773654
     atom   82 type  1   force =    -0.01932064    0.07931513   -0.08946238
     atom   83 type  1   force =     0.02579054    0.01001432   -0.00298670
     atom   84 type  1   force =    -0.01820142   -0.04228964   -0.14341175
     atom   85 type  1   force =    -0.07829839    0.15461770   -0.04862847
     atom   86 type  1   force =    -0.06159137    0.08318612   -0.05422425
     atom   87 type  1   force =     0.02753888    0.07303670   -0.02443171
     atom   88 type  1   force =    -0.06826668    0.09037319   -0.12062996
     atom   89 type  1   force =    -0.03801161    0.07848153    0.02148793
     atom   90 type  1   force =    -0.04965744    0.01590470    0.03623832
     atom   91 type  1   force =    -0.01076660   -0.01763308    0.05300862
     atom   92 type  1   force =    -0.04983341   -0.07066023    0.10155768
     atom   93 type  1   force =    -0.03328786    0.06267227    0.09328624
     atom   94 type  1   force =    -0.03354506    0.00857055    0.10486624
     atom   95 type  1   force =    -0.08663706   -0.04358701   -0.04799867
     atom   96 type  1   force =    -0.15856931   -0.18989718    0.10798652
     atom   97 type  1   force =     0.00603736   -0.00539434    0.08147596
     atom   98 type  1   force =    -0.00567300   -0.05040648    0.07075436
     atom   99 type  1   force =     0.03169089    0.01427941   -0.00013477
     atom  100 type  1   force =    -0.00920950   -0.15132085   -0.05754238
     atom  101 type  1   force =     0.03223905    0.00619651    0.06248611
     atom  102 type  1   force =    -0.06623570   -0.09253175    0.07116499
     atom  103 type  1   force =    -0.07030814   -0.03611971    0.15360166
     atom  104 type  1   force =    -0.05521553   -0.05171622    0.07479917
     atom  105 type  1   force =     0.08343734   -0.00319244   -0.02907202
     atom  106 type  1   force =     0.10942063   -0.09654230   -0.12249404
     atom  107 type  1   force =     0.00783898   -0.12580983   -0.14190420
     atom  108 type  1   force =    -0.17288070   -0.13488862   -0.12666831
     atom  109 type  1   force =     0.11073583    0.07336025   -0.20128699
     atom  110 type  1   force =    -0.40851280   -0.43576249   -1.12083079
     atom  111 type  1   force =     0.12766851   -0.16550933    0.05272146
     atom  112 type  1   force =    -0.38516873   -1.16690179   -0.43924754
     atom  113 type  1   force =    -0.03297995   -0.12309237   -0.04955522
     atom  114 type  1   force =    -0.18540716   -0.21123341    0.12200784
     atom  115 type  1   force =    -0.09612365    0.00947931    0.15133324
     atom  116 type  1   force =    -0.07572293    0.02619551    0.16620407
     atom  117 type  1   force =    -0.09189699   -0.12704043    0.11971453
     atom  118 type  1   force =    -0.06255081   -0.10195894    0.23910336
     atom  119 type  1   force =    -0.62358961   -0.19666508   -0.09823604
     atom  120 type  1   force =    -0.57036513    0.23155245    0.70058123
     atom  121 type  1   force =    -0.02543562   -0.01658646    0.08456375
     atom  122 type  1   force =    -0.04460092    0.01139735    0.01648637
     atom  123 type  1   force =    -0.01409418    0.01632295   -0.02805538
     atom  124 type  1   force =    -0.05680156    0.08478320   -0.09843940
     atom  125 type  1   force =    -0.08001801   -0.06496281   -0.06275852
     atom  126 type  1   force =    -0.14277226    0.06819277   -0.21289094
     atom  127 type  1   force =    -0.02427624    0.05025203    0.06882380
     atom  128 type  1   force =    -0.03058966    0.07525834    0.01021905
     atom  129 type  1   force =    -0.04121152   -0.06772108   -0.15307002
     atom  130 type  1   force =    -0.20371019    0.09631623   -0.24778388
     atom  131 type  1   force =    -0.10881288    0.11909558   -0.00765367
     atom  132 type  1   force =    -0.10964806    0.16222454   -0.00646906
     atom  133 type  1   force =    -0.62449309   -0.15040027   -0.22089967
     atom  134 type  1   force =    -0.68263841    0.67985300    0.19525788
     atom  135 type  1   force =    -0.09601186    0.09060230   -0.16607111
     atom  136 type  1   force =    -0.09050202    0.24409992   -0.16851053
     atom  137 type  1   force =    -0.12738537    0.03797144    0.05906167
     atom  138 type  1   force =    -0.14994115    0.09982727    0.14580574
     atom  139 type  1   force =    -0.04004451    0.07399013    0.10761149
     atom  140 type  1   force =    -0.03596966    0.05053947    0.07623054
     atom  141 type  1   force =    -0.21270912    0.11951661    0.28492702
     atom  142 type  1   force =    -0.08101289    0.10920830    0.21910413
     atom  143 type  1   force =    -0.25427558    0.27563549    0.20365735
     atom  144 type  1   force =    -0.08301248    0.19382646    0.15798789
     atom  145 type  1   force =     0.06809326    0.04872321    0.06747543
     atom  146 type  1   force =    -0.00415308    0.02251888    0.02883989
     atom  147 type  1   force =     0.03172583    0.02166592    0.00575818
     atom  148 type  1   force =    -0.15915975   -0.02416055   -0.04842337
     atom  149 type  1   force =    -0.05219286    0.04182229   -0.03419548
     atom  150 type  1   force =    -0.00354806   -0.00301082   -0.09307514
     atom  151 type  1   force =    -0.05365383   -0.02334391    0.06624765
     atom  152 type  1   force =    -0.00857706   -0.06616877    0.00697520
     atom  153 type  1   force =     0.00397540    0.14252249   -0.14825955
     atom  154 type  1   force =    -0.03938449    0.06624797   -0.11552336
     atom  155 type  1   force =    -0.10426948   -0.00624575   -0.13693169
     atom  156 type  1   force =    -0.12979241   -0.19031364   -0.11392011
     atom  157 type  1   force =     0.04515055    0.14526495   -0.10304814
     atom  158 type  1   force =     0.04085464    0.01386211   -0.01797666
     atom  159 type  1   force =    -0.08451803   -0.06011586   -0.14653156
     atom  160 type  1   force =     0.05626010   -0.22571795   -0.23208111
     atom  161 type  1   force =    -0.04517773    0.16968512    0.06098296
     atom  162 type  1   force =    -0.00344217    0.03178330    0.08667767
     atom  163 type  1   force =     0.03415793   -0.10067473    0.15043103
     atom  164 type  1   force =     0.07793793   -0.06714007    0.13409527
     atom  165 type  1   force =     0.01648962    0.10904142    0.15086770
     atom  166 type  1   force =     0.00141575    0.01022800    0.09100961
     atom  167 type  1   force =     0.02467230   -0.13171413    0.06708014
     atom  168 type  1   force =     0.06609975   -0.16078360    0.15832004
     atom  169 type  1   force =    -0.00955198   -0.10533982    0.14736592
     atom  170 type  1   force =    -0.04415305   -0.08221196    0.06616500
     atom  171 type  1   force =    -0.09911783   -0.11570014   -0.02092054
     atom  172 type  1   force =    -0.11656012   -0.10879041   -0.20877115
     atom  173 type  1   force =    -0.08323656   -0.10993148   -0.07097728
     atom  174 type  1   force =     0.04205235   -0.17965677   -0.23050547
     atom  175 type  1   force =     0.02676372   -0.06941726    0.14385953
     atom  176 type  1   force =     0.03396344   -0.00523686    0.02263646
     atom  177 type  1   force =    -0.12894240    0.10730103    0.06982169
     atom  178 type  1   force =    -1.21067234   -0.38722979   -0.41408875
     atom  179 type  1   force =    -0.16527058   -0.67460510   -0.21185508
     atom  180 type  1   force =     0.64728056   -0.79584742    0.28636413
     atom  181 type  1   force =    -0.12840561   -0.17917814   -0.72765052
     atom  182 type  1   force =     0.63757958    0.42090568   -0.80612787
     atom  183 type  1   force =    -0.16280864   -0.67541293   -0.06173583
     atom  184 type  1   force =     0.37451805   -0.57000361    0.68365515
     atom  185 type  1   force =    -0.14881251   -0.22289207    0.64375859
     atom  186 type  1   force =     0.00531612   -0.01728987    0.42129158
     atom  187 type  1   force =     0.04004761   -0.19765976    0.23380197
     atom  188 type  1   force =     0.07887923   -0.11709437    0.21003354
     atom  189 type  1   force =     1.74565491   -2.01485563    2.15884541
     atom  190 type  1   force =     0.56782467   -0.42600918    0.82712616
     atom  191 type  1   force =    -0.04025278    0.03464522    0.15652080
     atom  192 type  1   force =     0.00217354    0.05696992    0.03181450
     atom  193 type  1   force =     0.04190407    0.11694984   -0.11854111
     atom  194 type  1   force =     0.09649616    0.09829675   -0.09345890
     atom  195 type  1   force =     0.03285733    0.05412358   -0.13612800
     atom  196 type  1   force =     0.07791762    0.12421033   -0.17029733
     atom  197 type  1   force =     0.02234717    0.11001890    0.12066356
     atom  198 type  1   force =    -0.00168919    0.05573746    0.01277210
     atom  199 type  1   force =    -0.15435618   -0.07706847   -0.72942888
     atom  200 type  1   force =     0.47294915    0.65331477   -0.69252896
     atom  201 type  1   force =    -0.12797844    0.66547345   -0.27084286
     atom  202 type  1   force =     0.01953317    0.41205400   -0.02365307
     atom  203 type  1   force =     1.81081539    2.01879556   -2.12422024
     atom  204 type  1   force =     0.68375753    0.81186667   -0.47539072
     atom  205 type  1   force =     0.04869633    0.17251945   -0.22621174
     atom  206 type  1   force =     0.09792726    0.17579148   -0.15581777
     atom  207 type  1   force =    -1.90902804    1.88135941    2.08704286
     atom  208 type  1   force =    -0.36625439    0.59091712    0.72167395
     atom  209 type  1   force =    -0.05064539    0.20999254    0.26059403
     atom  210 type  1   force =    -0.07354698    0.09899153    0.13660888
     atom  211 type  1   force =     0.17691578    0.17141959    0.71396828
     atom  212 type  1   force =     0.05573017    0.07915910    0.22775148
     atom  213 type  1   force =     0.20554612    0.73508512    0.19815503
     atom  214 type  1   force =     0.08492223    0.21126977    0.13227475
     atom  215 type  2   force =    -2.25843428   -2.31701146   -2.37110320
     The core correction contribution to forces
     atom    1 type  1   force =     0.00000000    0.00000000    0.00000000
     atom    2 type  1   force =     0.00000000    0.00000000    0.00000000
     atom    3 type  1   force =     0.00000000    0.00000000    0.00000000
     atom    4 type  1   force =     0.00000000    0.00000000    0.00000000
     atom    5 type  1   force =     0.00000000    0.00000000    0.00000000
     atom    6 type  1   force =     0.00000000    0.00000000    0.00000000
     atom    7 type  1   force =     0.00000000    0.00000000    0.00000000
     atom    8 type  1   force =     0.00000000    0.00000000    0.00000000
     atom    9 type  1   force =     0.00000000    0.00000000    0.00000000
     atom   10 type  1   force =     0.00000000    0.00000000    0.00000000
     atom   11 type  1   force =     0.00000000    0.00000000    0.00000000
     atom   12 type  1   force =     0.00000000    0.00000000    0.00000000
     atom   13 type  1   force =     0.00000000    0.00000000    0.00000000
     atom   14 type  1   force =     0.00000000    0.00000000    0.00000000
     atom   15 type  1   force =     0.00000000    0.00000000    0.00000000
     atom   16 type  1   force =     0.00000000    0.00000000    0.00000000
     atom   17 type  1   force =     0.00000000    0.00000000    0.00000000
     atom   18 type  1   force =     0.00000000    0.00000000    0.00000000
     atom   19 type  1   force =     0.00000000    0.00000000    0.00000000
     atom   20 type  1   force =     0.00000000    0.00000000    0.00000000
     atom   21 type  1   force =     0.00000000    0.00000000    0.00000000
     atom   22 type  1   force =     0.00000000    0.00000000    0.00000000
     atom   23 type  1   force =     0.00000000    0.00000000    0.00000000
     atom   24 type  1   force =     0.00000000    0.00000000    0.00000000
     atom   25 type  1   force =     0.00000000    0.00000000    0.00000000
     atom   26 type  1   force =     0.00000000    0.00000000    0.00000000
     atom   27 type  1   force =     0.00000000    0.00000000    0.00000000
     atom   28 type  1   force =     0.00000000    0.00000000    0.00000000
     atom   29 type  1   force =     0.00000000    0.00000000    0.00000000
     atom   30 type  1   force =     0.00000000    0.00000000    0.00000000
     atom   31 type  1   force =     0.00000000    0.00000000    0.00000000
     atom   32 type  1   force =     0.00000000    0.00000000    0.00000000
     atom   33 type  1   force =     0.00000000    0.00000000    0.00000000
     atom   34 type  1   force =     0.00000000    0.00000000    0.00000000
     atom   35 type  1   force =     0.00000000    0.00000000    0.00000000
     atom   36 type  1   force =     0.00000000    0.00000000    0.00000000
     atom   37 type  1   force =     0.00000000    0.00000000    0.00000000
     atom   38 type  1   force =     0.00000000    0.00000000    0.00000000
     atom   39 type  1   force =     0.00000000    0.00000000    0.00000000
     atom   40 type  1   force =     0.00000000    0.00000000    0.00000000
     atom   41 type  1   force =     0.00000000    0.00000000    0.00000000
     atom   42 type  1   force =     0.00000000    0.00000000    0.00000000
     atom   43 type  1   force =     0.00000000    0.00000000    0.00000000
     atom   44 type  1   force =     0.00000000    0.00000000    0.00000000
     atom   45 type  1   force =     0.00000000    0.00000000    0.00000000
     atom   46 type  1   force =     0.00000000    0.00000000    0.00000000
     atom   47 type  1   force =     0.00000000    0.00000000    0.00000000
     atom   48 type  1   force =     0.00000000    0.00000000    0.00000000
     atom   49 type  1   force =     0.00000000    0.00000000    0.00000000
     atom   50 type  1   force =     0.00000000    0.00000000    0.00000000
     atom   51 type  1   force =     0.00000000    0.00000000    0.00000000
     atom   52 type  1   force =     0.00000000    0.00000000    0.00000000
     atom   53 type  1   force =     0.00000000    0.00000000    0.00000000
     atom   54 type  1   force =     0.00000000    0.00000000    0.00000000
     atom   55 type  1   force =     0.00000000    0.00000000    0.00000000
     atom   56 type  1   force =     0.00000000    0.00000000    0.00000000
     atom   57 type  1   force =     0.00000000    0.00000000    0.00000000
     atom   58 type  1   force =     0.00000000    0.00000000    0.00000000
     atom   59 type  1   force =     0.00000000    0.00000000    0.00000000
     atom   60 type  1   force =     0.00000000    0.00000000    0.00000000
     atom   61 type  1   force =     0.00000000    0.00000000    0.00000000
     atom   62 type  1   force =     0.00000000    0.00000000    0.00000000
     atom   63 type  1   force =     0.00000000    0.00000000    0.00000000
     atom   64 type  1   force =     0.00000000    0.00000000    0.00000000
     atom   65 type  1   force =     0.00000000    0.00000000    0.00000000
     atom   66 type  1   force =     0.00000000    0.00000000    0.00000000
     atom   67 type  1   force =     0.00000000    0.00000000    0.00000000
     atom   68 type  1   force =     0.00000000    0.00000000    0.00000000
     atom   69 type  1   force =     0.00000000    0.00000000    0.00000000
     atom   70 type  1   force =     0.00000000    0.00000000    0.00000000
     atom   71 type  1   force =     0.00000000    0.00000000    0.00000000
     atom   72 type  1   force =     0.00000000    0.00000000    0.00000000
     atom   73 type  1   force =     0.00000000    0.00000000    0.00000000
     atom   74 type  1   force =     0.00000000    0.00000000    0.00000000
     atom   75 type  1   force =     0.00000000    0.00000000    0.00000000
     atom   76 type  1   force =     0.00000000    0.00000000    0.00000000
     atom   77 type  1   force =     0.00000000    0.00000000    0.00000000
     atom   78 type  1   force =     0.00000000    0.00000000    0.00000000
     atom   79 type  1   force =     0.00000000    0.00000000    0.00000000
     atom   80 type  1   force =     0.00000000    0.00000000    0.00000000
     atom   81 type  1   force =     0.00000000    0.00000000    0.00000000
     atom   82 type  1   force =     0.00000000    0.00000000    0.00000000
     atom   83 type  1   force =     0.00000000    0.00000000    0.00000000
     atom   84 type  1   force =     0.00000000    0.00000000    0.00000000
     atom   85 type  1   force =     0.00000000    0.00000000    0.00000000
     atom   86 type  1   force =     0.00000000    0.00000000    0.00000000
     atom   87 type  1   force =     0.00000000    0.00000000    0.00000000
     atom   88 type  1   force =     0.00000000    0.00000000    0.00000000
     atom   89 type  1   force =     0.00000000    0.00000000    0.00000000
     atom   90 type  1   force =     0.00000000    0.00000000    0.00000000
     atom   91 type  1   force =     0.00000000    0.00000000    0.00000000
     atom   92 type  1   force =     0.00000000    0.00000000    0.00000000
     atom   93 type  1   force =     0.00000000    0.00000000    0.00000000
     atom   94 type  1   force =     0.00000000    0.00000000    0.00000000
     atom   95 type  1   force =     0.00000000    0.00000000    0.00000000
     atom   96 type  1   force =     0.00000000    0.00000000    0.00000000
     atom   97 type  1   force =     0.00000000    0.00000000    0.00000000
     atom   98 type  1   force =     0.00000000    0.00000000    0.00000000
     atom   99 type  1   force =     0.00000000    0.00000000    0.00000000
     atom  100 type  1   force =     0.00000000    0.00000000    0.00000000
     atom  101 type  1   force =     0.00000000    0.00000000    0.00000000
     atom  102 type  1   force =     0.00000000    0.00000000    0.00000000
     atom  103 type  1   force =     0.00000000    0.00000000    0.00000000
     atom  104 type  1   force =     0.00000000    0.00000000    0.00000000
     atom  105 type  1   force =     0.00000000    0.00000000    0.00000000
     atom  106 type  1   force =     0.00000000    0.00000000    0.00000000
     atom  107 type  1   force =     0.00000000    0.00000000    0.00000000
     atom  108 type  1   force =     0.00000000    0.00000000    0.00000000
     atom  109 type  1   force =     0.00000000    0.00000000    0.00000000
     atom  110 type  1   force =     0.00000000    0.00000000    0.00000000
     atom  111 type  1   force =     0.00000000    0.00000000    0.00000000
     atom  112 type  1   force =     0.00000000    0.00000000    0.00000000
     atom  113 type  1   force =     0.00000000    0.00000000    0.00000000
     atom  114 type  1   force =     0.00000000    0.00000000    0.00000000
     atom  115 type  1   force =     0.00000000    0.00000000    0.00000000
     atom  116 type  1   force =     0.00000000    0.00000000    0.00000000
     atom  117 type  1   force =     0.00000000    0.00000000    0.00000000
     atom  118 type  1   force =     0.00000000    0.00000000    0.00000000
     atom  119 type  1   force =     0.00000000    0.00000000    0.00000000
     atom  120 type  1   force =     0.00000000    0.00000000    0.00000000
     atom  121 type  1   force =     0.00000000    0.00000000    0.00000000
     atom  122 type  1   force =     0.00000000    0.00000000    0.00000000
     atom  123 type  1   force =     0.00000000    0.00000000    0.00000000
     atom  124 type  1   force =     0.00000000    0.00000000    0.00000000
     atom  125 type  1   force =     0.00000000    0.00000000    0.00000000
     atom  126 type  1   force =     0.00000000    0.00000000    0.00000000
     atom  127 type  1   force =     0.00000000    0.00000000    0.00000000
     atom  128 type  1   force =     0.00000000    0.00000000    0.00000000
     atom  129 type  1   force =     0.00000000    0.00000000    0.00000000
     atom  130 type  1   force =     0.00000000    0.00000000    0.00000000
     atom  131 type  1   force =     0.00000000    0.00000000    0.00000000
     atom  132 type  1   force =     0.00000000    0.00000000    0.00000000
     atom  133 type  1   force =     0.00000000    0.00000000    0.00000000
     atom  134 type  1   force =     0.00000000    0.00000000    0.00000000
     atom  135 type  1   force =     0.00000000    0.00000000    0.00000000
     atom  136 type  1   force =     0.00000000    0.00000000    0.00000000
     atom  137 type  1   force =     0.00000000    0.00000000    0.00000000
     atom  138 type  1   force =     0.00000000    0.00000000    0.00000000
     atom  139 type  1   force =     0.00000000    0.00000000    0.00000000
     atom  140 type  1   force =     0.00000000    0.00000000    0.00000000
     atom  141 type  1   force =     0.00000000    0.00000000    0.00000000
     atom  142 type  1   force =     0.00000000    0.00000000    0.00000000
     atom  143 type  1   force =     0.00000000    0.00000000    0.00000000
     atom  144 type  1   force =     0.00000000    0.00000000    0.00000000
     atom  145 type  1   force =     0.00000000    0.00000000    0.00000000
     atom  146 type  1   force =     0.00000000    0.00000000    0.00000000
     atom  147 type  1   force =     0.00000000    0.00000000    0.00000000
     atom  148 type  1   force =     0.00000000    0.00000000    0.00000000
     atom  149 type  1   force =     0.00000000    0.00000000    0.00000000
     atom  150 type  1   force =     0.00000000    0.00000000    0.00000000
     atom  151 type  1   force =     0.00000000    0.00000000    0.00000000
     atom  152 type  1   force =     0.00000000    0.00000000    0.00000000
     atom  153 type  1   force =     0.00000000    0.00000000    0.00000000
     atom  154 type  1   force =     0.00000000    0.00000000    0.00000000
     atom  155 type  1   force =     0.00000000    0.00000000    0.00000000
     atom  156 type  1   force =     0.00000000    0.00000000    0.00000000
     atom  157 type  1   force =     0.00000000    0.00000000    0.00000000
     atom  158 type  1   force =     0.00000000    0.00000000    0.00000000
     atom  159 type  1   force =     0.00000000    0.00000000    0.00000000
     atom  160 type  1   force =     0.00000000    0.00000000    0.00000000
     atom  161 type  1   force =     0.00000000    0.00000000    0.00000000
     atom  162 type  1   force =     0.00000000    0.00000000    0.00000000
     atom  163 type  1   force =     0.00000000    0.00000000    0.00000000
     atom  164 type  1   force =     0.00000000    0.00000000    0.00000000
     atom  165 type  1   force =     0.00000000    0.00000000    0.00000000
     atom  166 type  1   force =     0.00000000    0.00000000    0.00000000
     atom  167 type  1   force =     0.00000000    0.00000000    0.00000000
     atom  168 type  1   force =     0.00000000    0.00000000    0.00000000
     atom  169 type  1   force =     0.00000000    0.00000000    0.00000000
     atom  170 type  1   force =     0.00000000    0.00000000    0.00000000
     atom  171 type  1   force =     0.00000000    0.00000000    0.00000000
     atom  172 type  1   force =     0.00000000    0.00000000    0.00000000
     atom  173 type  1   force =     0.00000000    0.00000000    0.00000000
     atom  174 type  1   force =     0.00000000    0.00000000    0.00000000
     atom  175 type  1   force =     0.00000000    0.00000000    0.00000000
     atom  176 type  1   force =     0.00000000    0.00000000    0.00000000
     atom  177 type  1   force =     0.00000000    0.00000000    0.00000000
     atom  178 type  1   force =     0.00000000    0.00000000    0.00000000
     atom  179 type  1   force =     0.00000000    0.00000000    0.00000000
     atom  180 type  1   force =     0.00000000    0.00000000    0.00000000
     atom  181 type  1   force =     0.00000000    0.00000000    0.00000000
     atom  182 type  1   force =     0.00000000    0.00000000    0.00000000
     atom  183 type  1   force =     0.00000000    0.00000000    0.00000000
     atom  184 type  1   force =     0.00000000    0.00000000    0.00000000
     atom  185 type  1   force =     0.00000000    0.00000000    0.00000000
     atom  186 type  1   force =     0.00000000    0.00000000    0.00000000
     atom  187 type  1   force =     0.00000000    0.00000000    0.00000000
     atom  188 type  1   force =     0.00000000    0.00000000    0.00000000
     atom  189 type  1   force =     0.00000000    0.00000000    0.00000000
     atom  190 type  1   force =     0.00000000    0.00000000    0.00000000
     atom  191 type  1   force =     0.00000000    0.00000000    0.00000000
     atom  192 type  1   force =     0.00000000    0.00000000    0.00000000
     atom  193 type  1   force =     0.00000000    0.00000000    0.00000000
     atom  194 type  1   force =     0.00000000    0.00000000    0.00000000
     atom  195 type  1   force =     0.00000000    0.00000000    0.00000000
     atom  196 type  1   force =     0.00000000    0.00000000    0.00000000
     atom  197 type  1   force =     0.00000000    0.00000000    0.00000000
     atom  198 type  1   force =     0.00000000    0.00000000    0.00000000
     atom  199 type  1   force =     0.00000000    0.00000000    0.00000000
     atom  200 type  1   force =     0.00000000    0.00000000    0.00000000
     atom  201 type  1   force =     0.00000000    0.00000000    0.00000000
     atom  202 type  1   force =     0.00000000    0.00000000    0.00000000
     atom  203 type  1   force =     0.00000000    0.00000000    0.00000000
     atom  204 type  1   force =     0.00000000    0.00000000    0.00000000
     atom  205 type  1   force =     0.00000000    0.00000000    0.00000000
     atom  206 type  1   force =     0.00000000    0.00000000    0.00000000
     atom  207 type  1   force =     0.00000000    0.00000000    0.00000000
     atom  208 type  1   force =     0.00000000    0.00000000    0.00000000
     atom  209 type  1   force =     0.00000000    0.00000000    0.00000000
     atom  210 type  1   force =     0.00000000    0.00000000    0.00000000
     atom  211 type  1   force =     0.00000000    0.00000000    0.00000000
     atom  212 type  1   force =     0.00000000    0.00000000    0.00000000
     atom  213 type  1   force =     0.00000000    0.00000000    0.00000000
     atom  214 type  1   force =     0.00000000    0.00000000    0.00000000
     atom  215 type  2   force =     0.00000000    0.00000000    0.00000000
     The Hubbard contrib.    to forces
     atom    1 type  1   force =     0.00000000    0.00000000    0.00000000
     atom    2 type  1   force =     0.00000000    0.00000000    0.00000000
     atom    3 type  1   force =     0.00000000    0.00000000    0.00000000
     atom    4 type  1   force =     0.00000000    0.00000000    0.00000000
     atom    5 type  1   force =     0.00000000    0.00000000    0.00000000
     atom    6 type  1   force =     0.00000000    0.00000000    0.00000000
     atom    7 type  1   force =     0.00000000    0.00000000    0.00000000
     atom    8 type  1   force =     0.00000000    0.00000000    0.00000000
     atom    9 type  1   force =     0.00000000    0.00000000    0.00000000
     atom   10 type  1   force =     0.00000000    0.00000000    0.00000000
     atom   11 type  1   force =     0.00000000    0.00000000    0.00000000
     atom   12 type  1   force =     0.00000000    0.00000000    0.00000000
     atom   13 type  1   force =     0.00000000    0.00000000    0.00000000
     atom   14 type  1   force =     0.00000000    0.00000000    0.00000000
     atom   15 type  1   force =     0.00000000    0.00000000    0.00000000
     atom   16 type  1   force =     0.00000000    0.00000000    0.00000000
     atom   17 type  1   force =     0.00000000    0.00000000    0.00000000
     atom   18 type  1   force =     0.00000000    0.00000000    0.00000000
     atom   19 type  1   force =     0.00000000    0.00000000    0.00000000
     atom   20 type  1   force =     0.00000000    0.00000000    0.00000000
     atom   21 type  1   force =     0.00000000    0.00000000    0.00000000
     atom   22 type  1   force =     0.00000000    0.00000000    0.00000000
     atom   23 type  1   force =     0.00000000    0.00000000    0.00000000
     atom   24 type  1   force =     0.00000000    0.00000000    0.00000000
     atom   25 type  1   force =     0.00000000    0.00000000    0.00000000
     atom   26 type  1   force =     0.00000000    0.00000000    0.00000000
     atom   27 type  1   force =     0.00000000    0.00000000    0.00000000
     atom   28 type  1   force =     0.00000000    0.00000000    0.00000000
     atom   29 type  1   force =     0.00000000    0.00000000    0.00000000
     atom   30 type  1   force =     0.00000000    0.00000000    0.00000000
     atom   31 type  1   force =     0.00000000    0.00000000    0.00000000
     atom   32 type  1   force =     0.00000000    0.00000000    0.00000000
     atom   33 type  1   force =     0.00000000    0.00000000    0.00000000
     atom   34 type  1   force =     0.00000000    0.00000000    0.00000000
     atom   35 type  1   force =     0.00000000    0.00000000    0.00000000
     atom   36 type  1   force =     0.00000000    0.00000000    0.00000000
     atom   37 type  1   force =     0.00000000    0.00000000    0.00000000
     atom   38 type  1   force =     0.00000000    0.00000000    0.00000000
     atom   39 type  1   force =     0.00000000    0.00000000    0.00000000
     atom   40 type  1   force =     0.00000000    0.00000000    0.00000000
     atom   41 type  1   force =     0.00000000    0.00000000    0.00000000
     atom   42 type  1   force =     0.00000000    0.00000000    0.00000000
     atom   43 type  1   force =     0.00000000    0.00000000    0.00000000
     atom   44 type  1   force =     0.00000000    0.00000000    0.00000000
     atom   45 type  1   force =     0.00000000    0.00000000    0.00000000
     atom   46 type  1   force =     0.00000000    0.00000000    0.00000000
     atom   47 type  1   force =     0.00000000    0.00000000    0.00000000
     atom   48 type  1   force =     0.00000000    0.00000000    0.00000000
     atom   49 type  1   force =     0.00000000    0.00000000    0.00000000
     atom   50 type  1   force =     0.00000000    0.00000000    0.00000000
     atom   51 type  1   force =     0.00000000    0.00000000    0.00000000
     atom   52 type  1   force =     0.00000000    0.00000000    0.00000000
     atom   53 type  1   force =     0.00000000    0.00000000    0.00000000
     atom   54 type  1   force =     0.00000000    0.00000000    0.00000000
     atom   55 type  1   force =     0.00000000    0.00000000    0.00000000
     atom   56 type  1   force =     0.00000000    0.00000000    0.00000000
     atom   57 type  1   force =     0.00000000    0.00000000    0.00000000
     atom   58 type  1   force =     0.00000000    0.00000000    0.00000000
     atom   59 type  1   force =     0.00000000    0.00000000    0.00000000
     atom   60 type  1   force =     0.00000000    0.00000000    0.00000000
     atom   61 type  1   force =     0.00000000    0.00000000    0.00000000
     atom   62 type  1   force =     0.00000000    0.00000000    0.00000000
     atom   63 type  1   force =     0.00000000    0.00000000    0.00000000
     atom   64 type  1   force =     0.00000000    0.00000000    0.00000000
     atom   65 type  1   force =     0.00000000    0.00000000    0.00000000
     atom   66 type  1   force =     0.00000000    0.00000000    0.00000000
     atom   67 type  1   force =     0.00000000    0.00000000    0.00000000
     atom   68 type  1   force =     0.00000000    0.00000000    0.00000000
     atom   69 type  1   force =     0.00000000    0.00000000    0.00000000
     atom   70 type  1   force =     0.00000000    0.00000000    0.00000000
     atom   71 type  1   force =     0.00000000    0.00000000    0.00000000
     atom   72 type  1   force =     0.00000000    0.00000000    0.00000000
     atom   73 type  1   force =     0.00000000    0.00000000    0.00000000
     atom   74 type  1   force =     0.00000000    0.00000000    0.00000000
     atom   75 type  1   force =     0.00000000    0.00000000    0.00000000
     atom   76 type  1   force =     0.00000000    0.00000000    0.00000000
     atom   77 type  1   force =     0.00000000    0.00000000    0.00000000
     atom   78 type  1   force =     0.00000000    0.00000000    0.00000000
     atom   79 type  1   force =     0.00000000    0.00000000    0.00000000
     atom   80 type  1   force =     0.00000000    0.00000000    0.00000000
     atom   81 type  1   force =     0.00000000    0.00000000    0.00000000
     atom   82 type  1   force =     0.00000000    0.00000000    0.00000000
     atom   83 type  1   force =     0.00000000    0.00000000    0.00000000
     atom   84 type  1   force =     0.00000000    0.00000000    0.00000000
     atom   85 type  1   force =     0.00000000    0.00000000    0.00000000
     atom   86 type  1   force =     0.00000000    0.00000000    0.00000000
     atom   87 type  1   force =     0.00000000    0.00000000    0.00000000
     atom   88 type  1   force =     0.00000000    0.00000000    0.00000000
     atom   89 type  1   force =     0.00000000    0.00000000    0.00000000
     atom   90 type  1   force =     0.00000000    0.00000000    0.00000000
     atom   91 type  1   force =     0.00000000    0.00000000    0.00000000
     atom   92 type  1   force =     0.00000000    0.00000000    0.00000000
     atom   93 type  1   force =     0.00000000    0.00000000    0.00000000
     atom   94 type  1   force =     0.00000000    0.00000000    0.00000000
     atom   95 type  1   force =     0.00000000    0.00000000    0.00000000
     atom   96 type  1   force =     0.00000000    0.00000000    0.00000000
     atom   97 type  1   force =     0.00000000    0.00000000    0.00000000
     atom   98 type  1   force =     0.00000000    0.00000000    0.00000000
     atom   99 type  1   force =     0.00000000    0.00000000    0.00000000
     atom  100 type  1   force =     0.00000000    0.00000000    0.00000000
     atom  101 type  1   force =     0.00000000    0.00000000    0.00000000
     atom  102 type  1   force =     0.00000000    0.00000000    0.00000000
     atom  103 type  1   force =     0.00000000    0.00000000    0.00000000
     atom  104 type  1   force =     0.00000000    0.00000000    0.00000000
     atom  105 type  1   force =     0.00000000    0.00000000    0.00000000
     atom  106 type  1   force =     0.00000000    0.00000000    0.00000000
     atom  107 type  1   force =     0.00000000    0.00000000    0.00000000
     atom  108 type  1   force =     0.00000000    0.00000000    0.00000000
     atom  109 type  1   force =     0.00000000    0.00000000    0.00000000
     atom  110 type  1   force =     0.00000000    0.00000000    0.00000000
     atom  111 type  1   force =     0.00000000    0.00000000    0.00000000
     atom  112 type  1   force =     0.00000000    0.00000000    0.00000000
     atom  113 type  1   force =     0.00000000    0.00000000    0.00000000
     atom  114 type  1   force =     0.00000000    0.00000000    0.00000000
     atom  115 type  1   force =     0.00000000    0.00000000    0.00000000
     atom  116 type  1   force =     0.00000000    0.00000000    0.00000000
     atom  117 type  1   force =     0.00000000    0.00000000    0.00000000
     atom  118 type  1   force =     0.00000000    0.00000000    0.00000000
     atom  119 type  1   force =     0.00000000    0.00000000    0.00000000
     atom  120 type  1   force =     0.00000000    0.00000000    0.00000000
     atom  121 type  1   force =     0.00000000    0.00000000    0.00000000
     atom  122 type  1   force =     0.00000000    0.00000000    0.00000000
     atom  123 type  1   force =     0.00000000    0.00000000    0.00000000
     atom  124 type  1   force =     0.00000000    0.00000000    0.00000000
     atom  125 type  1   force =     0.00000000    0.00000000    0.00000000
     atom  126 type  1   force =     0.00000000    0.00000000    0.00000000
     atom  127 type  1   force =     0.00000000    0.00000000    0.00000000
     atom  128 type  1   force =     0.00000000    0.00000000    0.00000000
     atom  129 type  1   force =     0.00000000    0.00000000    0.00000000
     atom  130 type  1   force =     0.00000000    0.00000000    0.00000000
     atom  131 type  1   force =     0.00000000    0.00000000    0.00000000
     atom  132 type  1   force =     0.00000000    0.00000000    0.00000000
     atom  133 type  1   force =     0.00000000    0.00000000    0.00000000
     atom  134 type  1   force =     0.00000000    0.00000000    0.00000000
     atom  135 type  1   force =     0.00000000    0.00000000    0.00000000
     atom  136 type  1   force =     0.00000000    0.00000000    0.00000000
     atom  137 type  1   force =     0.00000000    0.00000000    0.00000000
     atom  138 type  1   force =     0.00000000    0.00000000    0.00000000
     atom  139 type  1   force =     0.00000000    0.00000000    0.00000000
     atom  140 type  1   force =     0.00000000    0.00000000    0.00000000
     atom  141 type  1   force =     0.00000000    0.00000000    0.00000000
     atom  142 type  1   force =     0.00000000    0.00000000    0.00000000
     atom  143 type  1   force =     0.00000000    0.00000000    0.00000000
     atom  144 type  1   force =     0.00000000    0.00000000    0.00000000
     atom  145 type  1   force =     0.00000000    0.00000000    0.00000000
     atom  146 type  1   force =     0.00000000    0.00000000    0.00000000
     atom  147 type  1   force =     0.00000000    0.00000000    0.00000000
     atom  148 type  1   force =     0.00000000    0.00000000    0.00000000
     atom  149 type  1   force =     0.00000000    0.00000000    0.00000000
     atom  150 type  1   force =     0.00000000    0.00000000    0.00000000
     atom  151 type  1   force =     0.00000000    0.00000000    0.00000000
     atom  152 type  1   force =     0.00000000    0.00000000    0.00000000
     atom  153 type  1   force =     0.00000000    0.00000000    0.00000000
     atom  154 type  1   force =     0.00000000    0.00000000    0.00000000
     atom  155 type  1   force =     0.00000000    0.00000000    0.00000000
     atom  156 type  1   force =     0.00000000    0.00000000    0.00000000
     atom  157 type  1   force =     0.00000000    0.00000000    0.00000000
     atom  158 type  1   force =     0.00000000    0.00000000    0.00000000
     atom  159 type  1   force =     0.00000000    0.00000000    0.00000000
     atom  160 type  1   force =     0.00000000    0.00000000    0.00000000
     atom  161 type  1   force =     0.00000000    0.00000000    0.00000000
     atom  162 type  1   force =     0.00000000    0.00000000    0.00000000
     atom  163 type  1   force =     0.00000000    0.00000000    0.00000000
     atom  164 type  1   force =     0.00000000    0.00000000    0.00000000
     atom  165 type  1   force =     0.00000000    0.00000000    0.00000000
     atom  166 type  1   force =     0.00000000    0.00000000    0.00000000
     atom  167 type  1   force =     0.00000000    0.00000000    0.00000000
     atom  168 type  1   force =     0.00000000    0.00000000    0.00000000
     atom  169 type  1   force =     0.00000000    0.00000000    0.00000000
     atom  170 type  1   force =     0.00000000    0.00000000    0.00000000
     atom  171 type  1   force =     0.00000000    0.00000000    0.00000000
     atom  172 type  1   force =     0.00000000    0.00000000    0.00000000
     atom  173 type  1   force =     0.00000000    0.00000000    0.00000000
     atom  174 type  1   force =     0.00000000    0.00000000    0.00000000
     atom  175 type  1   force =     0.00000000    0.00000000    0.00000000
     atom  176 type  1   force =     0.00000000    0.00000000    0.00000000
     atom  177 type  1   force =     0.00000000    0.00000000    0.00000000
     atom  178 type  1   force =     0.00000000    0.00000000    0.00000000
     atom  179 type  1   force =     0.00000000    0.00000000    0.00000000
     atom  180 type  1   force =     0.00000000    0.00000000    0.00000000
     atom  181 type  1   force =     0.00000000    0.00000000    0.00000000
     atom  182 type  1   force =     0.00000000    0.00000000    0.00000000
     atom  183 type  1   force =     0.00000000    0.00000000    0.00000000
     atom  184 type  1   force =     0.00000000    0.00000000    0.00000000
     atom  185 type  1   force =     0.00000000    0.00000000    0.00000000
     atom  186 type  1   force =     0.00000000    0.00000000    0.00000000
     atom  187 type  1   force =     0.00000000    0.00000000    0.00000000
     atom  188 type  1   force =     0.00000000    0.00000000    0.00000000
     atom  189 type  1   force =     0.00000000    0.00000000    0.00000000
     atom  190 type  1   force =     0.00000000    0.00000000    0.00000000
     atom  191 type  1   force =     0.00000000    0.00000000    0.00000000
     atom  192 type  1   force =     0.00000000    0.00000000    0.00000000
     atom  193 type  1   force =     0.00000000    0.00000000    0.00000000
     atom  194 type  1   force =     0.00000000    0.00000000    0.00000000
     atom  195 type  1   force =     0.00000000    0.00000000    0.00000000
     atom  196 type  1   force =     0.00000000    0.00000000    0.00000000
     atom  197 type  1   force =     0.00000000    0.00000000    0.00000000
     atom  198 type  1   force =     0.00000000    0.00000000    0.00000000
     atom  199 type  1   force =     0.00000000    0.00000000    0.00000000
     atom  200 type  1   force =     0.00000000    0.00000000    0.00000000
     atom  201 type  1   force =     0.00000000    0.00000000    0.00000000
     atom  202 type  1   force =     0.00000000    0.00000000    0.00000000
     atom  203 type  1   force =     0.00000000    0.00000000    0.00000000
     atom  204 type  1   force =     0.00000000    0.00000000    0.00000000
     atom  205 type  1   force =     0.00000000    0.00000000    0.00000000
     atom  206 type  1   force =     0.00000000    0.00000000    0.00000000
     atom  207 type  1   force =     0.00000000    0.00000000    0.00000000
     atom  208 type  1   force =     0.00000000    0.00000000    0.00000000
     atom  209 type  1   force =     0.00000000    0.00000000    0.00000000
     atom  210 type  1   force =     0.00000000    0.00000000    0.00000000
     atom  211 type  1   force =     0.00000000    0.00000000    0.00000000
     atom  212 type  1   force =     0.00000000    0.00000000    0.00000000
     atom  213 type  1   force =     0.00000000    0.00000000    0.00000000
     atom  214 type  1   force =     0.00000000    0.00000000    0.00000000
     atom  215 type  2   force =     0.00000000    0.00000000    0.00000000
     The SCF correction term to forces
     atom    1 type  1   force =     0.00000102   -0.00000016    0.00000062
     atom    2 type  1   force =     0.00000113    0.00000003    0.00000104
     atom    3 type  1   force =     0.00000203   -0.00000037    0.00000041
     atom    4 type  1   force =     0.00000056   -0.00000115   -0.00000048
     atom    5 type  1   force =     0.00000008    0.00000091    0.00000046
     atom    6 type  1   force =    -0.00000118   -0.00000029   -0.00000095
     atom    7 type  1   force =    -0.00000005   -0.00000047    0.00000177
     atom    8 type  1   force =    -0.00000124   -0.00000161    0.00000076
     atom    9 type  1   force =     0.00000166    0.00000028   -0.00000046
     atom   10 type  1   force =     0.00000035   -0.00000045   -0.00000177
     atom   11 type  1   force =     0.00000055   -0.00000041   -0.00000150
     atom   12 type  1   force =    -0.00000029   -0.00000044   -0.00000116
     atom   13 type  1   force =    -0.00000088   -0.00000025   -0.00000168
     atom   14 type  1   force =    -0.00000127   -0.00000065   -0.00000110
     atom   15 type  1   force =    -0.00000059   -0.00000095   -0.00000159
     atom   16 type  1   force =    -0.00000164   -0.00000119   -0.00000171
     atom   17 type  1   force =     0.00000031   -0.00000076   -0.00000011
     atom   18 type  1   force =    -0.00000045   -0.00000079    0.00000070
     atom   19 type  1   force =     0.00000078   -0.00000092    0.00000106
     atom   20 type  1   force =     0.00000042   -0.00000060    0.00000162
     atom   21 type  1   force =    -0.00000097   -0.00000027    0.00000116
     atom   22 type  1   force =    -0.00000088   -0.00000005    0.00000211
     atom   23 type  1   force =    -0.00000091   -0.00000071   -0.00000014
     atom   24 type  1   force =    -0.00000070   -0.00000021    0.00000099
     atom   25 type  1   force =     0.00000139   -0.00000053    0.00000101
     atom   26 type  1   force =     0.00000007   -0.00000139    0.00000021
     atom   27 type  1   force =     0.00000036   -0.00000082    0.00000011
     atom   28 type  1   force =    -0.00000045   -0.00000010    0.00000007
     atom   29 type  1   force =    -0.00000071   -0.00000183   -0.00000009
     atom   30 type  1   force =    -0.00000165   -0.00000152   -0.00000054
     atom   31 type  1   force =    -0.00000102   -0.00000072    0.00000030
     atom   32 type  1   force =    -0.00000129    0.00000014   -0.00000002
     atom   33 type  1   force =     0.00000058   -0.00000086   -0.00000058
     atom   34 type  1   force =    -0.00000070   -0.00000085   -0.00000100
     atom   35 type  1   force =     0.00000005    0.00000005   -0.00000100
     atom   36 type  1   force =    -0.00000023    0.00000065   -0.00000036
     atom   37 type  1   force =    -0.00000107   -0.00000077   -0.00000128
     atom   38 type  1   force =    -0.00000068   -0.00000003   -0.00000038
     atom   39 type  1   force =    -0.00000111   -0.00000069   -0.00000047
     atom   40 type  1   force =    -0.00000071    0.00000047   -0.00000019
     atom   41 type  1   force =     0.00000073   -0.00000042   -0.00000056
     atom   42 type  1   force =     0.00000029    0.00000019    0.00000074
     atom   43 type  1   force =     0.00000108    0.00000058    0.00000097
     atom   44 type  1   force =    -0.00000051    0.00000035    0.00000027
     atom   45 type  1   force =    -0.00000053   -0.00000030    0.00000143
     atom   46 type  1   force =    -0.00000125   -0.00000108    0.00000096
     atom   47 type  1   force =    -0.00000080    0.00000033    0.00000013
     atom   48 type  1   force =    -0.00000151    0.00000018    0.00000023
     atom   49 type  1   force =     0.00000038    0.00000075   -0.00000014
     atom   50 type  1   force =    -0.00000027    0.00000125   -0.00000008
     atom   51 type  1   force =     0.00000100    0.00000113   -0.00000024
     atom   52 type  1   force =     0.00000075    0.00000130   -0.00000020
     atom   53 type  1   force =    -0.00000080    0.00000096   -0.00000022
     atom   54 type  1   force =    -0.00000064    0.00000181    0.00000005
     atom   55 type  1   force =    -0.00000091    0.00000110    0.00000058
     atom   56 type  1   force =    -0.00000082    0.00000160    0.00000101
     atom   57 type  1   force =     0.00000024    0.00000032    0.00000016
     atom   58 type  1   force =    -0.00000012    0.00000124   -0.00000001
     atom   59 type  1   force =     0.00000056    0.00000056   -0.00000010
     atom   60 type  1   force =    -0.00000066   -0.00000027   -0.00000069
     atom   61 type  1   force =    -0.00000098    0.00000095   -0.00000029
     atom   62 type  1   force =    -0.00000154    0.00000070   -0.00000068
     atom   63 type  1   force =    -0.00000042    0.00000170   -0.00000036
     atom   64 type  1   force =    -0.00000112    0.00000077   -0.00000167
     atom   65 type  1   force =     0.00000033    0.00000111   -0.00000012
     atom   66 type  1   force =    -0.00000053    0.00000076    0.00000031
     atom   67 type  1   force =     0.00000027    0.00000040    0.00000051
     atom   68 type  1   force =    -0.00000023    0.00000026    0.00000081
     atom   69 type  1   force =    -0.00000131    0.00000063    0.00000047
     atom   70 type  1   force =    -0.00000136    0.00000104    0.00000050
     atom   71 type  1   force =    -0.00000133    0.00000038   -0.00000015
     atom   72 type  1   force =    -0.00000141   -0.00000008    0.00000061
     atom   73 type  1   force =    -0.00000118    0.00000069    0.00000168
     atom   74 type  1   force =    -0.00000207   -0.00000039    0.00000073
     atom   75 type  1   force =    -0.00000218   -0.00000138   -0.00000031
     atom   76 type  1   force =    -0.00000219   -0.00000167   -0.00000092
     atom   77 type  1   force =    -0.00000178   -0.00000009   -0.00000003
     atom   78 type  1   force =    -0.00000112   -0.00000096   -0.00000042
     atom   79 type  1   force =    -0.00000155   -0.00000083    0.00000068
     atom   80 type  1   force =    -0.00000088   -0.00000090   -0.00000018
     atom   81 type  1   force =    -0.00000158    0.00000007   -0.00000145
     atom   82 type  1   force =    -0.00000152   -0.00000095   -0.00000154
     atom   83 type  1   force =    -0.00000113   -0.00000061   -0.00000140
     atom   84 type  1   force =    -0.00000011    0.00000014   -0.00000042
     atom   85 type  1   force =    -0.00000074   -0.00000047   -0.00000116
     atom   86 type  1   force =     0.00000026   -0.00000007   -0.00000033
     atom   87 type  1   force =    -0.00000137   -0.00000121   -0.00000081
     atom   88 type  1   force =     0.00000009   -0.00000001   -0.00000010
     atom   89 type  1   force =    -0.00000119   -0.00000033   -0.00000019
     atom   90 type  1   force =    -0.00000047   -0.00000007    0.00000086
     atom   91 type  1   force =    -0.00000086   -0.00000022    0.00000176
     atom   92 type  1   force =    -0.00000124   -0.00000076    0.00000114
     atom   93 type  1   force =    -0.00000028    0.00000010    0.00000125
     atom   94 type  1   force =    -0.00000070   -0.00000065    0.00000077
     atom   95 type  1   force =    -0.00000012    0.00000023   -0.00000001
     atom   96 type  1   force =    -0.00000030   -0.00000021    0.00000013
     atom   97 type  1   force =    -0.00000151   -0.00000146    0.00000075
     atom   98 type  1   force =    -0.00000135   -0.00000111   -0.00000018
     atom   99 type  1   force =    -0.00000111   -0.00000053    0.00000006
     atom  100 type  1   force =    -0.00000014    0.00000063    0.00000052
     atom  101 type  1   force =    -0.00000119   -0.00000099   -0.00000040
     atom  102 type  1   force =     0.00000024    0.00000010    0.00000046
     atom  103 type  1   force =    -0.00000052   -0.00000036    0.00000012
     atom  104 type  1   force =     0.00000038    0.00000060    0.00000054
     atom  105 type  1   force =    -0.00000184   -0.00000132   -0.00000095
     atom  106 type  1   force =    -0.00000033   -0.00000015   -0.00000021
     atom  107 type  1   force =    -0.00000076    0.00000018   -0.00000030
     atom  108 type  1   force =    -0.00000114   -0.00000005   -0.00000082
     atom  109 type  1   force =    -0.00000077   -0.00000074   -0.00000025
     atom  110 type  1   force =    -0.00000091   -0.00000129   -0.00000033
     atom  111 type  1   force =    -0.00000067    0.00000037   -0.00000048
     atom  112 type  1   force =    -0.00000060    0.00000071   -0.00000136
     atom  113 type  1   force =    -0.00000020   -0.00000010    0.00000006
     atom  114 type  1   force =    -0.00000051   -0.00000059    0.00000020
     atom  115 type  1   force =    -0.00000090   -0.00000057    0.00000036
     atom  116 type  1   force =    -0.00000079   -0.00000008    0.00000055
     atom  117 type  1   force =    -0.00000060   -0.00000045    0.00000033
     atom  118 type  1   force =    -0.00000041   -0.00000062    0.00000020
     atom  119 type  1   force =    -0.00000152   -0.00000081    0.00000030
     atom  120 type  1   force =    -0.00000110   -0.00000118    0.00000095
     atom  121 type  1   force =    -0.00000122    0.00000082    0.00000038
     atom  122 type  1   force =    -0.00000059    0.00000151    0.00000064
     atom  123 type  1   force =    -0.00000092    0.00000196    0.00000049
     atom  124 type  1   force =    -0.00000148    0.00000086   -0.00000033
     atom  125 type  1   force =    -0.00000021    0.00000096    0.00000073
     atom  126 type  1   force =    -0.00000036    0.00000073    0.00000025
     atom  127 type  1   force =    -0.00000042    0.00000124    0.00000092
     atom  128 type  1   force =    -0.00000089    0.00000032    0.00000014
     atom  129 type  1   force =    -0.00000019    0.00000110   -0.00000009
     atom  130 type  1   force =    -0.00000049    0.00000090   -0.00000095
     atom  131 type  1   force =    -0.00000087    0.00000057   -0.00000142
     atom  132 type  1   force =    -0.00000078    0.00000017   -0.00000117
     atom  133 type  1   force =    -0.00000123    0.00000117   -0.00000141
     atom  134 type  1   force =    -0.00000064    0.00000138   -0.00000219
     atom  135 type  1   force =    -0.00000082    0.00000050   -0.00000041
     atom  136 type  1   force =    -0.00000053   -0.00000030   -0.00000092
     atom  137 type  1   force =    -0.00000138    0.00000034   -0.00000035
     atom  138 type  1   force =    -0.00000152    0.00000086    0.00000049
     atom  139 type  1   force =    -0.00000144    0.00000078    0.00000091
     atom  140 type  1   force =    -0.00000088    0.00000074    0.00000140
     atom  141 type  1   force =    -0.00000106    0.00000034    0.00000122
     atom  142 type  1   force =     0.00000025    0.00000123    0.00000157
     atom  143 type  1   force =    -0.00000088    0.00000114   -0.00000052
     atom  144 type  1   force =     0.00000037    0.00000104    0.00000074
     atom  145 type  1   force =     0.00000005   -0.00000047    0.00000022
     atom  146 type  1   force =     0.00000113   -0.00000070   -0.00000005
     atom  147 type  1   force =     0.00000017   -0.00000058    0.00000008
     atom  148 type  1   force =     0.00000146    0.00000013    0.00000053
     atom  149 type  1   force =     0.00000175   -0.00000017   -0.00000026
     atom  150 type  1   force =     0.00000228   -0.00000002   -0.00000004
     atom  151 type  1   force =     0.00000168   -0.00000082    0.00000044
     atom  152 type  1   force =     0.00000211   -0.00000041    0.00000065
     atom  153 type  1   force =    -0.00000003   -0.00000056   -0.00000031
     atom  154 type  1   force =     0.00000122   -0.00000013   -0.00000011
     atom  155 type  1   force =     0.00000074   -0.00000030   -0.00000020
     atom  156 type  1   force =     0.00000070   -0.00000073   -0.00000072
     atom  157 type  1   force =     0.00000159   -0.00000026   -0.00000032
     atom  158 type  1   force =     0.00000099   -0.00000094   -0.00000069
     atom  159 type  1   force =     0.00000185    0.00000025   -0.00000013
     atom  160 type  1   force =     0.00000134   -0.00000021   -0.00000102
     atom  161 type  1   force =     0.00000085    0.00000003    0.00000011
     atom  162 type  1   force =     0.00000085   -0.00000090    0.00000015
     atom  163 type  1   force =     0.00000004   -0.00000048    0.00000024
     atom  164 type  1   force =     0.00000078   -0.00000045    0.00000044
     atom  165 type  1   force =     0.00000132   -0.00000071    0.00000049
     atom  166 type  1   force =     0.00000145   -0.00000072    0.00000064
     atom  167 type  1   force =     0.00000092   -0.00000084   -0.00000036
     atom  168 type  1   force =     0.00000113   -0.00000096    0.00000045
     atom  169 type  1   force =     0.00000015   -0.00000038    0.00000009
     atom  170 type  1   force =     0.00000129    0.00000018    0.00000053
     atom  171 type  1   force =     0.00000090    0.00000044    0.00000024
     atom  172 type  1   force =     0.00000084    0.00000018   -0.00000010
     atom  173 type  1   force =     0.00000178   -0.00000024    0.00000075
     atom  174 type  1   force =     0.00000123   -0.00000072    0.00000023
     atom  175 type  1   force =     0.00000154    0.00000023    0.00000074
     atom  176 type  1   force =     0.00000091    0.00000008   -0.00000024
     atom  177 type  1   force =     0.00000091   -0.00000056   -0.00000040
     atom  178 type  1   force =     0.00000150   -0.00000077   -0.00000116
     atom  179 type  1   force =     0.00000184   -0.00000082   -0.00000106
     atom  180 type  1   force =     0.00000122   -0.00000026   -0.00000149
     atom  181 type  1   force =     0.00000185    0.00000001   -0.00000043
     atom  182 type  1   force =     0.00000062    0.00000028   -0.00000013
     atom  183 type  1   force =     0.00000009   -0.00000124    0.00000034
     atom  184 type  1   force =     0.00000028   -0.00000097    0.00000044
     atom  185 type  1   force =     0.00000004   -0.00000088    0.00000106
     atom  186 type  1   force =     0.00000129    0.00000048    0.00000146
     atom  187 type  1   force =     0.00000096   -0.00000067    0.00000084
     atom  188 type  1   force =     0.00000161    0.00000001    0.00000130
     atom  189 type  1   force =     0.00000167    0.00000040   -0.00000073
     atom  190 type  1   force =     0.00000185    0.00000114    0.00000041
     atom  191 type  1   force =     0.00000078    0.00000090    0.00000085
     atom  192 type  1   force =     0.00000078    0.00000055   -0.00000024
     atom  193 type  1   force =    -0.00000010    0.00000026    0.00000009
     atom  194 type  1   force =     0.00000076   -0.00000010    0.00000007
     atom  195 type  1   force =     0.00000090    0.00000034   -0.00000010
     atom  196 type  1   force =     0.00000110    0.00000081   -0.00000009
     atom  197 type  1   force =     0.00000137    0.00000046   -0.00000012
     atom  198 type  1   force =     0.00000158    0.00000025   -0.00000004
     atom  199 type  1   force =     0.00000056    0.00000122   -0.00000055
     atom  200 type  1   force =     0.00000104    0.00000028   -0.00000039
     atom  201 type  1   force =     0.00000057    0.00000045   -0.00000143
     atom  202 type  1   force =     0.00000140    0.00000052   -0.00000043
     atom  203 type  1   force =     0.00000138    0.00000040   -0.00000039
     atom  204 type  1   force =     0.00000116    0.00000058   -0.00000068
     atom  205 type  1   force =     0.00000096    0.00000030    0.00000008
     atom  206 type  1   force =     0.00000160    0.00000034   -0.00000007
     atom  207 type  1   force =     0.00000115    0.00000088   -0.00000056
     atom  208 type  1   force =     0.00000263    0.00000185    0.00000101
     atom  209 type  1   force =     0.00000113    0.00000142    0.00000133
     atom  210 type  1   force =     0.00000120   -0.00000003    0.00000036
     atom  211 type  1   force =     0.00000226    0.00000129    0.00000092
     atom  212 type  1   force =     0.00000125    0.00000092    0.00000040
     atom  213 type  1   force =     0.00000215    0.00000061   -0.00000007
     atom  214 type  1   force =     0.00000116   -0.00000008    0.00000037
     atom  215 type  2   force =     0.00000086   -0.00000017   -0.00000139

     Total force =     0.068220     Total SCF correction =     0.000023


     Computing stress (Cartesian axis) and pressure

          total   stress  (Ry/bohr**3)                   (kbar)     P=   25.96
   0.00016104   0.00003991   0.00003222         23.69      5.87      4.74
   0.00003991   0.00017631   0.00002371          5.87     25.94      3.49
   0.00003222   0.00002371   0.00019216          4.74      3.49     28.27

     kinetic stress (kbar)  21589.84     16.81     16.16
                               16.81  21592.56     15.29
                               16.16     15.29  21595.48

     local   stress (kbar)  -3696.85     16.95     13.70
                               16.95  -3680.62     11.77
                               13.70     11.77  -3662.11

     nonloc. stress (kbar)   1304.32     -3.40     -3.37
                               -3.40   1304.14     -3.32
                               -3.37     -3.32   1303.94

     hartree stress (kbar)   1295.21    -11.57     -9.94
                              -11.57   1289.50     -8.66
                               -9.94     -8.66   1282.96

     exc-cor stress (kbar)  -4229.70     -0.07     -0.04
                               -0.07  -4229.74     -0.02
                               -0.04     -0.02  -4229.78

     corecor stress (kbar)      0.00      0.00      0.00
                                0.00      0.00      0.00
                                0.00      0.00      0.00

     ewald   stress (kbar) -16239.12    -12.85    -11.76
                              -12.85 -16249.90    -11.56
                              -11.76    -11.56 -16262.21

     hubbard stress (kbar)      0.00      0.00      0.00
                                0.00      0.00      0.00
                                0.00      0.00      0.00

     london  stress (kbar)      0.00      0.00      0.00
                                0.00      0.00      0.00
                                0.00      0.00      0.00

     XDM     stress (kbar)      0.00      0.00      0.00
                                0.00      0.00      0.00
                                0.00      0.00      0.00

     dft-nl  stress (kbar)      0.00      0.00      0.00
                                0.00      0.00      0.00
                                0.00      0.00      0.00

     TS-vdW  stress (kbar)      0.00      0.00      0.00
                                0.00      0.00      0.00
                                0.00      0.00      0.00



     Writing output data file pwscf.save
 
     init_run     :      3.71s CPU      4.27s WALL (       1 calls)
     electrons    :    509.77s CPU    515.31s WALL (       1 calls)
     forces       :      1.30s CPU      1.35s WALL (       1 calls)
     stress       :     15.71s CPU     15.77s WALL (       1 calls)

     Called by init_run:
     wfcinit      :      1.86s CPU      1.93s WALL (       1 calls)
     wfcinit:atom :      0.00s CPU      0.00s WALL (       1 calls)
     wfcinit:wfcr :      1.83s CPU      1.87s WALL (       1 calls)
     potinit      :      0.46s CPU      0.47s WALL (       1 calls)

     Called by electrons:
     c_bands      :    499.17s CPU    504.38s WALL (      20 calls)
     sum_band     :      8.26s CPU      8.42s WALL (      20 calls)
     v_of_rho     :      1.83s CPU      1.85s WALL (      21 calls)
     v_h          :      0.07s CPU      0.07s WALL (      21 calls)
     v_xc         :      1.76s CPU      1.77s WALL (      21 calls)
     mix_rho      :      0.27s CPU      0.29s WALL (      20 calls)

     Called by c_bands:
     init_us_2    :      0.43s CPU      0.49s WALL (      41 calls)
     regterg      :    492.65s CPU    497.72s WALL (      20 calls)

     Called by sum_band:

     Called by *egterg:
     h_psi        :     87.89s CPU     88.65s WALL (     157 calls)
     g_psi        :      0.26s CPU      0.27s WALL (     136 calls)
     rdiaghg      :    338.57s CPU    341.28s WALL (     156 calls)
     regterg:over :     28.25s CPU     28.36s WALL (     136 calls)
     regterg:upda :     24.61s CPU     24.81s WALL (     136 calls)
     regterg:last :      9.74s CPU      9.81s WALL (      22 calls)
     rdiaghg:chol :     14.69s CPU     14.79s WALL (     156 calls)
     rdiaghg:inve :     11.03s CPU     11.08s WALL (     156 calls)
     rdiaghg:para :     26.74s CPU     27.62s WALL (     312 calls)

     Called by h_psi:
     h_psi:pot    :     87.14s CPU     87.89s WALL (     157 calls)
     h_psi:calbec :     17.66s CPU     17.77s WALL (     157 calls)
     vloc_psi     :     51.65s CPU     52.23s WALL (     157 calls)
     add_vuspsi   :     17.82s CPU     17.88s WALL (     157 calls)

     General routines
     calbec       :     18.89s CPU     19.00s WALL (     162 calls)
     fft          :      2.41s CPU      2.85s WALL (     450 calls)
     fftw         :     56.95s CPU     57.60s WALL (   63452 calls)
 
     Parallel routines
     fft_scatter  :     41.00s CPU     41.92s WALL (   63902 calls)
 
     PWSCF        :  8m56.43s CPU     9m10.23s WALL

 
   This run was terminated on:   7:35:19  22Jun2022            

=------------------------------------------------------------------------------=
   JOB DONE.
=------------------------------------------------------------------------------=
