
     Program PWSCF v.6.1 starts on 22Jun2022 at  7:51: 3 

     This program is part of the open-source Quantum ESPRESSO suite
     for quantum simulation of materials; please cite
         "P. Giannozzi et al., J. Phys.:Condens. Matter 21 395502 (2009);
          URL http://www.quantum-espresso.org", 
     in publications or presentations arising from this work. More details at
     http://www.quantum-espresso.org/quote

     Parallel version (MPI & OpenMP), running on     112 processor cores
     Number of MPI processes:               112
     Threads/MPI process:                     1
     K-points division:     npool     =       2
     R & G space division:  proc/nbgrp/npool/nimage =      56
     Waiting for input...
     Reading input from standard input

     Current dimensions of program PWSCF are:
     Max number of different atomic species (ntypx) = 10
     Max number of k-points (npk) =  40000
     Max angular momentum in pseudopotentials (lmaxx) =  3

     gamma-point specific algorithms are used

     Subspace diagonalization in iterative solution of the eigenvalue problem:
     one sub-group per band group will be used
     scalapack distributed-memory algorithm (size of sub-group:  5*  5 procs)

 
     Parallelization info
     --------------------
     sticks:   dense  smooth     PW     G-vecs:    dense   smooth      PW
     Min         196     196     47                15628    15628    1940
     Max         198     198     50                15646    15646    1958
     Sum       11057   11057   2757               875727   875727  109127
 


     bravais-lattice index     =            0
     lattice parameter (alat)  =      20.2276  a.u.
     unit-cell volume          =    8276.2749 (a.u.)^3
     number of atoms/cell      =          215
     number of atomic types    =            2
     number of electrons       =       862.00 (up: 432.00, down: 430.00)
     number of Kohn-Sham states=          800
     kinetic-energy cutoff     =      85.0000  Ry
     charge density cutoff     =     340.0000  Ry
     convergence threshold     =      1.0E-10
     mixing beta               =       0.7000
     number of iterations used =            8  plain     mixing
     Exchange-correlation      = PBE ( 1  4  3  4 0 0)

     celldm(1)=  20.227629  celldm(2)=   0.000000  celldm(3)=   0.000000
     celldm(4)=   0.000000  celldm(5)=   0.000000  celldm(6)=   0.000000

     crystal axes: (cart. coord. in units of alat)
               a(1) = (   1.000000   0.000000   0.000000 )  
               a(2) = (   0.000000   1.000000   0.000000 )  
               a(3) = (   0.000000   0.000000   1.000000 )  

     reciprocal axes: (cart. coord. in units 2 pi/alat)
               b(1) = (  1.000000  0.000000  0.000000 )  
               b(2) = (  0.000000  1.000000  0.000000 )  
               b(3) = (  0.000000  0.000000  1.000000 )  


     PseudoPot. # 1 for C  read from file:
     /home/jinyuchem/program/QE/pseudo-potential/C_ONCV_PBE-1.0.upf
     MD5 check sum: 40f8c33130f0afa4272e9dcc1c4fb0df
     Pseudo is Norm-conserving, Zval =  4.0
     Generated using ONCVPSP code by D. R. Hamann
     Using radial grid of  602 points,  4 beta functions with: 
                l(1) =   0
                l(2) =   0
                l(3) =   1
                l(4) =   1

     PseudoPot. # 2 for N  read from file:
     /home/jinyuchem/program/QE/pseudo-potential/N_ONCV_PBE-1.0.upf
     MD5 check sum: e7391ac1e3da9302b4611eea0a09cd4a
     Pseudo is Norm-conserving, Zval =  5.0
     Generated using ONCVPSP code by D. R. Hamann
     Using radial grid of  602 points,  4 beta functions with: 
                l(1) =   0
                l(2) =   0
                l(3) =   1
                l(4) =   1

     atomic species   valence    mass     pseudopotential
        C              4.00    12.01100     C ( 1.00)
        N              5.00    14.00700     N ( 1.00)

     Starting magnetic structure 
     atomic species   magnetization
        C            0.000
        N            0.000

     No symmetry found


                                    s                        frac. trans.

      isym =  1     identity                                     

 cryst.   s( 1) = (     1          0          0      )
                  (     0          1          0      )
                  (     0          0          1      )

 cart.    s( 1) = (  1.0000000  0.0000000  0.0000000 )
                  (  0.0000000  1.0000000  0.0000000 )
                  (  0.0000000  0.0000000  1.0000000 )


   Cartesian axes

     site n.     atom                  positions (alat units)
         1           C   tau(   1) = (   0.0000252  -0.0000167   0.0000987  )
         2           C   tau(   2) = (   0.0832860   0.0833848   0.0834222  )
         3           C   tau(   3) = (  -0.0001648   0.1668230   0.1668339  )
         4           C   tau(   4) = (   0.0828835   0.2502479   0.2502281  )
         5           C   tau(   5) = (   0.1665968  -0.0000543   0.1667227  )
         6           C   tau(   6) = (   0.2498346   0.0832348   0.2499792  )
         7           C   tau(   7) = (   0.1666649   0.1667170  -0.0000026  )
         8           C   tau(   8) = (   0.2498890   0.2500619   0.0832220  )
         9           C   tau(   9) = (  -0.0000946   0.0001863   0.3334230  )
        10           C   tau(  10) = (   0.0831239   0.0835433   0.4166699  )
        11           C   tau(  11) = (  -0.0003444   0.1670482   0.5001416  )
        12           C   tau(  12) = (   0.0836968   0.2496682   0.5834878  )
        13           C   tau(  13) = (   0.1669218   0.0002378   0.5001206  )
        14           C   tau(  14) = (   0.2500225   0.0833415   0.5832857  )
        15           C   tau(  15) = (   0.1663166   0.1667597   0.3333527  )
        16           C   tau(  16) = (   0.2495455   0.2499942   0.4165372  )
        17           C   tau(  17) = (   0.0002266   0.0003291   0.6667933  )
        18           C   tau(  18) = (   0.0835418   0.0834364   0.7501056  )
        19           C   tau(  19) = (   0.0001721   0.1666411   0.8335046  )
        20           C   tau(  20) = (   0.0834128   0.2501486   0.9167461  )
        21           C   tau(  21) = (   0.1667667  -0.0000173   0.8333573  )
        22           C   tau(  22) = (   0.2500897   0.0833844   0.9166184  )
        23           C   tau(  23) = (   0.1670091   0.1665729   0.6666185  )
        24           C   tau(  24) = (   0.2502586   0.2501701   0.7499215  )
        25           C   tau(  25) = (  -0.0000223   0.3334402   0.0002754  )
        26           C   tau(  26) = (   0.0830819   0.4167791   0.0837130  )
        27           C   tau(  27) = (  -0.0005984   0.5002501   0.1673506  )
        28           C   tau(  28) = (   0.0829726   0.5835462   0.2503795  )
        29           C   tau(  29) = (   0.1663267   0.3334267   0.1667681  )
        30           C   tau(  30) = (   0.2495288   0.4166674   0.2499557  )
        31           C   tau(  31) = (   0.1669860   0.5001498   0.0003198  )
        32           C   tau(  32) = (   0.2500525   0.5833286   0.0833868  )
        33           C   tau(  33) = (  -0.0007098   0.3338031   0.3338287  )
        34           C   tau(  34) = (   0.0824411   0.4172400   0.4172387  )
        35           C   tau(  35) = (  -0.0012517   0.5006046   0.5009548  )
        36           C   tau(  36) = (   0.0827017   0.5835498   0.5836002  )
        37           C   tau(  37) = (   0.1663462   0.3335107   0.5000619  )
        38           C   tau(  38) = (   0.2499263   0.4168298   0.5832649  )
        39           C   tau(  39) = (   0.1661893   0.5001251   0.3335844  )
        40           C   tau(  40) = (   0.2498232   0.5833251   0.4168079  )
        41           C   tau(  41) = (   0.0008655   0.3323397   0.6665970  )
        42           C   tau(  42) = (   0.0835907   0.4166886   0.7501468  )
        43           C   tau(  43) = (   0.0011113   0.5003118   0.8344458  )
        44           C   tau(  44) = (   0.0839382   0.5833041   0.9172727  )
        45           C   tau(  45) = (   0.1669411   0.3334400   0.8333105  )
        46           C   tau(  46) = (   0.2503789   0.4167790   0.9164155  )
        47           C   tau(  47) = (   0.1666290   0.5001594   0.6666752  )
        48           C   tau(  48) = (   0.2502860   0.5834294   0.7498003  )
        49           C   tau(  49) = (   0.0000303   0.6667090   0.0001774  )
        50           C   tau(  50) = (   0.0833030   0.7500338   0.0834957  )
        51           C   tau(  51) = (  -0.0000716   0.8333116   0.1668698  )
        52           C   tau(  52) = (   0.0832587   0.9166304   0.2501657  )
        53           C   tau(  53) = (   0.1666308   0.6666275   0.1668182  )
        54           C   tau(  54) = (   0.2500540   0.7499023   0.2501880  )
        55           C   tau(  55) = (   0.1667129   0.8332978   0.0000451  )
        56           C   tau(  56) = (   0.2500400   0.9165919   0.0833719  )
        57           C   tau(  57) = (  -0.0003758   0.6666745   0.3337653  )
        58           C   tau(  58) = (   0.0830978   0.7501487   0.4170569  )
        59           C   tau(  59) = (   0.0007760   0.8345189   0.5005666  )
        60           C   tau(  60) = (   0.0838600   0.9172898   0.5833480  )
        61           C   tau(  61) = (   0.1664831   0.6666568   0.5001817  )
        62           C   tau(  62) = (   0.2501679   0.7498440   0.5833638  )
        63           C   tau(  63) = (   0.1666464   0.8332120   0.3334957  )
        64           C   tau(  64) = (   0.2501755   0.9163698   0.4166843  )
        65           C   tau(  65) = (  -0.0006591   0.6666545   0.6665282  )
        66           C   tau(  66) = (   0.0830657   0.7498445   0.7498431  )
        67           C   tau(  67) = (  -0.0000252   0.8333716   0.8333082  )
        68           C   tau(  68) = (   0.0833682   0.9166292   0.9167013  )
        69           C   tau(  69) = (   0.1668429   0.6667090   0.8333639  )
        70           C   tau(  70) = (   0.2501618   0.7500337   0.9166361  )
        71           C   tau(  71) = (   0.1667825   0.8333562   0.6667019  )
        72           C   tau(  72) = (   0.2501095   0.9166479   0.7500174  )
        73           C   tau(  73) = (   0.3333907  -0.0000540  -0.0000714  )
        74           C   tau(  74) = (   0.4166469   0.0832352   0.0831668  )
        75           C   tau(  75) = (   0.3331468   0.1665449   0.1664791  )
        76           C   tau(  76) = (   0.4163149   0.2497992   0.2496478  )
        77           C   tau(  77) = (   0.4999743  -0.0003231   0.1666172  )
        78           C   tau(  78) = (   0.5831370   0.0830373   0.2497509  )
        79           C   tau(  79) = (   0.5000200   0.1667603  -0.0003515  )
        80           C   tau(  80) = (   0.5832040   0.2499948   0.0828786  )
        81           C   tau(  81) = (   0.3332851  -0.0003235   0.3333064  )
        82           C   tau(  82) = (   0.4164187   0.0830369   0.4164691  )
        83           C   tau(  83) = (   0.3328924   0.1663812   0.4998207  )
        84           C   tau(  84) = (   0.4160444   0.2494050   0.5829172  )
        85           C   tau(  85) = (   0.4999046  -0.0000544   0.4998982  )
        86           C   tau(  86) = (   0.5833023   0.0833142   0.5832256  )
        87           C   tau(  87) = (   0.4995638   0.1661255   0.3328962  )
        88           C   tau(  88) = (   0.5827062   0.2490703   0.4160392  )
        89           C   tau(  89) = (   0.3332331   0.0001862   0.6665412  )
        90           C   tau(  90) = (   0.4167475   0.0834616   0.7499071  )
        91           C   tau(  91) = (   0.3335002   0.1668227   0.8331669  )
        92           C   tau(  92) = (   0.4168943   0.2502482   0.9162160  )
        93           C   tau(  93) = (   0.5000899   0.0001860   0.8332372  )
        94           C   tau(  94) = (   0.5833369   0.0835436   0.9164557  )
        95           C   tau(  95) = (   0.4999680   0.1667729   0.6663517  )
        96           C   tau(  96) = (   0.5835626   0.2508240   0.7490216  )
        97           C   tau(  97) = (   0.3334344   0.3334267  -0.0003401  )
        98           C   tau(  98) = (   0.4166212   0.4166678   0.0828630  )
        99           C   tau(  99) = (   0.3330491   0.4999352   0.1663832  )
       100           C   tau( 100) = (   0.4162228   0.5829852   0.2495562  )
       101           C   tau( 101) = (   0.4996708   0.3331044   0.1660598  )
       102           C   tau( 102) = (   0.5828221   0.4161323   0.2492262  )
       103           C   tau( 103) = (   0.5002497   0.5001252  -0.0004762  )
       104           C   tau( 104) = (   0.5834738   0.5833253   0.0831572  )
       105           C   tau( 105) = (   0.3327267   0.3331041   0.3330045  )
       106           C   tau( 106) = (   0.4158925   0.4161321   0.4161558  )
       107           C   tau( 107) = (   0.3332975   0.4999381   0.4998506  )
       108           C   tau( 108) = (   0.4173961   0.5832747   0.5831005  )
       109           C   tau( 109) = (   0.4986347   0.3318132   0.4994363  )
       110           C   tau( 110) = (   0.5835196   0.4163020   0.5793048  )
       111           C   tau( 111) = (   0.4988954   0.4994790   0.3322289  )
       112           C   tau( 112) = (   0.5839382   0.5793156   0.4172715  )
       113           C   tau( 113) = (   0.3335610   0.3334838   0.6663088  )
       114           C   tau( 114) = (   0.4178976   0.4170662   0.7488532  )
       115           C   tau( 115) = (   0.3340166   0.5002498   0.8327350  )
       116           C   tau( 116) = (   0.4170452   0.5835457   0.9163064  )
       117           C   tau( 117) = (   0.5004949   0.3338034   0.8326232  )
       118           C   tau( 118) = (   0.5839045   0.4172396   0.9157757  )
       119           C   tau( 119) = (   0.5020392   0.5007989   0.6647236  )
       120           C   tau( 120) = (   0.5866187   0.5845120   0.7470619  )
       121           C   tau( 121) = (   0.3334839   0.6666275  -0.0000356  )
       122           C   tau( 122) = (   0.4168543   0.7499022   0.0833871  )
       123           C   tau( 123) = (   0.3334130   0.8331456   0.1667458  )
       124           C   tau( 124) = (   0.4167789   0.9162543   0.2501109  )
       125           C   tau( 125) = (   0.5001096   0.6663791   0.1668130  )
       126           C   tau( 126) = (   0.5836014   0.7489966   0.2511026  )
       127           C   tau( 127) = (   0.5001621   0.8332123  -0.0000206  )
       128           C   tau( 128) = (   0.5833514   0.9163705   0.0835081  )
       129           C   tau( 129) = (   0.3334796   0.6663789   0.3334432  )
       130           C   tau( 130) = (   0.4177693   0.7489964   0.4169336  )
       131           C   tau( 131) = (   0.3337883   0.8328793   0.5001296  )
       132           C   tau( 132) = (   0.4164773   0.9169678   0.5833857  )
       133           C   tau( 133) = (   0.5019336   0.6652277   0.5008590  )
       134           C   tau( 134) = (   0.5852386   0.7495622   0.5842832  )
       135           C   tau( 135) = (   0.5003675   0.8328097   0.3336997  )
       136           C   tau( 136) = (   0.5836155   0.9164242   0.4169477  )
       137           C   tau( 137) = (   0.3337541   0.6666279   0.6665257  )
       138           C   tau( 138) = (   0.4170984   0.7501196   0.7497326  )
       139           C   tau( 139) = (   0.3335372   0.8333112   0.8332613  )
       140           C   tau( 140) = (   0.4168330   0.9166303   0.9165910  )
       141           C   tau( 141) = (   0.5004322   0.6666743   0.8329576  )
       142           C   tau( 142) = (   0.5837234   0.7501490   0.9164319  )
       143           C   tau( 143) = (   0.4996535   0.8341665   0.6662728  )
       144           C   tau( 144) = (   0.5834762   0.9169635   0.7500134  )
       145           C   tau( 145) = (   0.6667877   0.0002385   0.0002543  )
       146           C   tau( 146) = (   0.7499533   0.0833426   0.0833553  )
       147           C   tau( 147) = (   0.6664884   0.1663818   0.1662256  )
       148           C   tau( 148) = (   0.7495850   0.2494053   0.2493779  )
       149           C   tau( 149) = (   0.8332091   0.0001877   0.1665656  )
       150           C   tau( 150) = (   0.9165752   0.0834621   0.2500804  )
       151           C   tau( 151) = (   0.8332865   0.1665731   0.0003424  )
       152           C   tau( 152) = (   0.9165892   0.2501701   0.0835923  )
       153           C   tau( 153) = (   0.6665657  -0.0000544   0.3332373  )
       154           C   tau( 154) = (   0.7498929   0.0833141   0.4166347  )
       155           C   tau( 155) = (   0.6664543   0.1664817   0.4997870  )
       156           C   tau( 156) = (   0.7498777   0.2501476   0.5832110  )
       157           C   tau( 157) = (   0.8333019   0.0001996   0.5000851  )
       158           C   tau( 158) = (   0.9166235   0.0835436   0.5833904  )
       159           C   tau( 159) = (   0.8330192   0.1667731   0.3333011  )
       160           C   tau( 160) = (   0.9156885   0.2508239   0.4168960  )
       161           C   tau( 161) = (   0.6667520   0.0001996   0.6666346  )
       162           C   tau( 162) = (   0.7500574   0.0835439   0.7499560  )
       163           C   tau( 163) = (   0.6668088   0.1670482   0.8329879  )
       164           C   tau( 164) = (   0.7501553   0.2496679   0.9170307  )
       165           C   tau( 165) = (   0.8334605   0.0003293   0.8335593  )
       166           C   tau( 166) = (   0.9167730   0.0834367   0.9168749  )
       167           C   tau( 167) = (   0.8333633   0.1667683   0.6666959  )
       168           C   tau( 168) = (   0.9168564   0.2497809   0.7501895  )
       169           C   tau( 169) = (   0.6667287   0.3335108  -0.0003201  )
       170           C   tau( 170) = (   0.7499314   0.4168299   0.0832607  )
       171           C   tau( 171) = (   0.6665165   0.4999386   0.1666315  )
       172           C   tau( 172) = (   0.7497671   0.5832743   0.2507302  )
       173           C   tau( 173) = (   0.8329760   0.3334840   0.1668946  )
       174           C   tau( 174) = (   0.9155200   0.4170659   0.2512311  )
       175           C   tau( 175) = (   0.8333414   0.5001595  -0.0000359  )
       176           C   tau( 176) = (   0.9164663   0.5834294   0.0836210  )
       177           C   tau( 177) = (   0.6661030   0.3318129   0.3319681  )
       178           C   tau( 178) = (   0.7459715   0.4163019   0.4168527  )
       179           C   tau( 179) = (   0.8318042   0.3344198   0.5007496  )
       180           C   tau( 180) = (   0.9158754   0.4172452   0.5845573  )
       181           C   tau( 181) = (   0.8313905   0.5007987   0.3353727  )
       182           C   tau( 182) = (   0.9137275   0.5845127   0.4199513  )
       183           C   tau( 183) = (   0.6674158   0.3344199   0.6651381  )
       184           C   tau( 184) = (   0.7512229   0.4172440   0.7492108  )
       185           C   tau( 185) = (   0.6676204   0.5006044   0.8320839  )
       186           C   tau( 186) = (   0.7502661   0.5835497   0.9160371  )
       187           C   tau( 187) = (   0.8332637   0.3323390   0.8341999  )
       188           C   tau( 188) = (   0.9168130   0.4166881   0.9169253  )
       189           C   tau( 189) = (   0.8415158   0.4922458   0.6748522  )
       190           C   tau( 190) = (   0.9163723   0.5826052   0.7497076  )
       191           C   tau( 191) = (   0.6668483   0.6666575  -0.0001826  )
       192           C   tau( 192) = (   0.7500306   0.7498449   0.0835016  )
       193           C   tau( 193) = (   0.6667970   0.8328801   0.1671211  )
       194           C   tau( 194) = (   0.7500536   0.9169689   0.2498094  )
       195           C   tau( 195) = (   0.8331921   0.6666288   0.1670882  )
       196           C   tau( 196) = (   0.9163993   0.7501203   0.2504315  )
       197           C   tau( 197) = (   0.8333695   0.8333568   0.0001160  )
       198           C   tau( 198) = (   0.9166854   0.9166490   0.0834426  )
       199           C   tau( 199) = (   0.6675259   0.6652281   0.3352670  )
       200           C   tau( 200) = (   0.7509507   0.7495630   0.4185704  )
       201           C   tau( 201) = (   0.6669006   0.8333766   0.5002334  )
       202           C   tau( 202) = (   0.7501327   0.9167741   0.5834661  )
       203           C   tau( 203) = (   0.8369184   0.6738091   0.4980549  )
       204           C   tau( 204) = (   0.9158605   0.7503624   0.5829585  )
       205           C   tau( 205) = (   0.8329397   0.8341681   0.3329853  )
       206           C   tau( 206) = (   0.9166802   0.9169638   0.4168092  )
       207           C   tau( 207) = (   0.6647223   0.6738098   0.6702531  )
       208           C   tau( 208) = (   0.7496257   0.7503621   0.7491951  )
       209           C   tau( 209) = (   0.6672330   0.8345188   0.8341099  )
       210           C   tau( 210) = (   0.7500151   0.9172904   0.9171931  )
       211           C   tau( 211) = (   0.8331940   0.6666548   0.8326764  )
       212           C   tau( 212) = (   0.9165101   0.7498444   0.9164001  )
       213           C   tau( 213) = (   0.8335588   0.8339264   0.6668925  )
       214           C   tau( 214) = (   0.9166719   0.9169664   0.7500054  )
       215           N   tau( 215) = (   0.6591748   0.4912243   0.4925085  )

   Crystallographic axes

     site n.     atom                  positions (cryst. coord.)
         1           C   tau(   1) = (  0.0000252 -0.0000167  0.0000987  )
         2           C   tau(   2) = (  0.0832860  0.0833848  0.0834222  )
         3           C   tau(   3) = ( -0.0001648  0.1668230  0.1668339  )
         4           C   tau(   4) = (  0.0828835  0.2502479  0.2502281  )
         5           C   tau(   5) = (  0.1665968 -0.0000543  0.1667227  )
         6           C   tau(   6) = (  0.2498346  0.0832348  0.2499792  )
         7           C   tau(   7) = (  0.1666649  0.1667170 -0.0000026  )
         8           C   tau(   8) = (  0.2498890  0.2500619  0.0832220  )
         9           C   tau(   9) = ( -0.0000946  0.0001863  0.3334230  )
        10           C   tau(  10) = (  0.0831239  0.0835433  0.4166699  )
        11           C   tau(  11) = ( -0.0003444  0.1670482  0.5001416  )
        12           C   tau(  12) = (  0.0836968  0.2496682  0.5834878  )
        13           C   tau(  13) = (  0.1669218  0.0002378  0.5001206  )
        14           C   tau(  14) = (  0.2500225  0.0833415  0.5832857  )
        15           C   tau(  15) = (  0.1663166  0.1667597  0.3333527  )
        16           C   tau(  16) = (  0.2495455  0.2499942  0.4165372  )
        17           C   tau(  17) = (  0.0002266  0.0003291  0.6667933  )
        18           C   tau(  18) = (  0.0835418  0.0834364  0.7501056  )
        19           C   tau(  19) = (  0.0001721  0.1666411  0.8335046  )
        20           C   tau(  20) = (  0.0834128  0.2501486  0.9167461  )
        21           C   tau(  21) = (  0.1667667 -0.0000173  0.8333573  )
        22           C   tau(  22) = (  0.2500897  0.0833844  0.9166184  )
        23           C   tau(  23) = (  0.1670091  0.1665729  0.6666185  )
        24           C   tau(  24) = (  0.2502586  0.2501701  0.7499215  )
        25           C   tau(  25) = ( -0.0000223  0.3334402  0.0002754  )
        26           C   tau(  26) = (  0.0830819  0.4167791  0.0837130  )
        27           C   tau(  27) = ( -0.0005984  0.5002501  0.1673506  )
        28           C   tau(  28) = (  0.0829726  0.5835462  0.2503795  )
        29           C   tau(  29) = (  0.1663267  0.3334267  0.1667681  )
        30           C   tau(  30) = (  0.2495288  0.4166674  0.2499557  )
        31           C   tau(  31) = (  0.1669860  0.5001498  0.0003198  )
        32           C   tau(  32) = (  0.2500525  0.5833286  0.0833868  )
        33           C   tau(  33) = ( -0.0007098  0.3338031  0.3338287  )
        34           C   tau(  34) = (  0.0824411  0.4172400  0.4172387  )
        35           C   tau(  35) = ( -0.0012517  0.5006046  0.5009548  )
        36           C   tau(  36) = (  0.0827017  0.5835498  0.5836002  )
        37           C   tau(  37) = (  0.1663462  0.3335107  0.5000619  )
        38           C   tau(  38) = (  0.2499263  0.4168298  0.5832649  )
        39           C   tau(  39) = (  0.1661893  0.5001251  0.3335844  )
        40           C   tau(  40) = (  0.2498232  0.5833251  0.4168079  )
        41           C   tau(  41) = (  0.0008655  0.3323397  0.6665970  )
        42           C   tau(  42) = (  0.0835907  0.4166886  0.7501468  )
        43           C   tau(  43) = (  0.0011113  0.5003118  0.8344458  )
        44           C   tau(  44) = (  0.0839382  0.5833041  0.9172727  )
        45           C   tau(  45) = (  0.1669411  0.3334400  0.8333105  )
        46           C   tau(  46) = (  0.2503789  0.4167790  0.9164155  )
        47           C   tau(  47) = (  0.1666290  0.5001594  0.6666752  )
        48           C   tau(  48) = (  0.2502860  0.5834294  0.7498003  )
        49           C   tau(  49) = (  0.0000303  0.6667090  0.0001774  )
        50           C   tau(  50) = (  0.0833030  0.7500338  0.0834957  )
        51           C   tau(  51) = ( -0.0000716  0.8333116  0.1668698  )
        52           C   tau(  52) = (  0.0832587  0.9166304  0.2501657  )
        53           C   tau(  53) = (  0.1666308  0.6666275  0.1668182  )
        54           C   tau(  54) = (  0.2500540  0.7499023  0.2501880  )
        55           C   tau(  55) = (  0.1667129  0.8332978  0.0000451  )
        56           C   tau(  56) = (  0.2500400  0.9165919  0.0833719  )
        57           C   tau(  57) = ( -0.0003758  0.6666745  0.3337653  )
        58           C   tau(  58) = (  0.0830978  0.7501487  0.4170569  )
        59           C   tau(  59) = (  0.0007760  0.8345189  0.5005666  )
        60           C   tau(  60) = (  0.0838600  0.9172898  0.5833480  )
        61           C   tau(  61) = (  0.1664831  0.6666568  0.5001817  )
        62           C   tau(  62) = (  0.2501679  0.7498440  0.5833638  )
        63           C   tau(  63) = (  0.1666464  0.8332120  0.3334957  )
        64           C   tau(  64) = (  0.2501755  0.9163698  0.4166843  )
        65           C   tau(  65) = ( -0.0006591  0.6666545  0.6665282  )
        66           C   tau(  66) = (  0.0830657  0.7498445  0.7498431  )
        67           C   tau(  67) = ( -0.0000252  0.8333716  0.8333082  )
        68           C   tau(  68) = (  0.0833682  0.9166292  0.9167013  )
        69           C   tau(  69) = (  0.1668429  0.6667090  0.8333639  )
        70           C   tau(  70) = (  0.2501618  0.7500337  0.9166361  )
        71           C   tau(  71) = (  0.1667825  0.8333562  0.6667019  )
        72           C   tau(  72) = (  0.2501095  0.9166479  0.7500174  )
        73           C   tau(  73) = (  0.3333907 -0.0000540 -0.0000714  )
        74           C   tau(  74) = (  0.4166469  0.0832352  0.0831668  )
        75           C   tau(  75) = (  0.3331468  0.1665449  0.1664791  )
        76           C   tau(  76) = (  0.4163149  0.2497992  0.2496478  )
        77           C   tau(  77) = (  0.4999743 -0.0003231  0.1666172  )
        78           C   tau(  78) = (  0.5831370  0.0830373  0.2497509  )
        79           C   tau(  79) = (  0.5000200  0.1667603 -0.0003515  )
        80           C   tau(  80) = (  0.5832040  0.2499948  0.0828786  )
        81           C   tau(  81) = (  0.3332851 -0.0003235  0.3333064  )
        82           C   tau(  82) = (  0.4164187  0.0830369  0.4164691  )
        83           C   tau(  83) = (  0.3328924  0.1663812  0.4998207  )
        84           C   tau(  84) = (  0.4160444  0.2494050  0.5829172  )
        85           C   tau(  85) = (  0.4999046 -0.0000544  0.4998982  )
        86           C   tau(  86) = (  0.5833023  0.0833142  0.5832256  )
        87           C   tau(  87) = (  0.4995638  0.1661255  0.3328962  )
        88           C   tau(  88) = (  0.5827062  0.2490703  0.4160392  )
        89           C   tau(  89) = (  0.3332331  0.0001862  0.6665412  )
        90           C   tau(  90) = (  0.4167475  0.0834616  0.7499071  )
        91           C   tau(  91) = (  0.3335002  0.1668227  0.8331669  )
        92           C   tau(  92) = (  0.4168943  0.2502482  0.9162160  )
        93           C   tau(  93) = (  0.5000899  0.0001860  0.8332372  )
        94           C   tau(  94) = (  0.5833369  0.0835436  0.9164557  )
        95           C   tau(  95) = (  0.4999680  0.1667729  0.6663517  )
        96           C   tau(  96) = (  0.5835626  0.2508240  0.7490216  )
        97           C   tau(  97) = (  0.3334344  0.3334267 -0.0003401  )
        98           C   tau(  98) = (  0.4166212  0.4166678  0.0828630  )
        99           C   tau(  99) = (  0.3330491  0.4999352  0.1663832  )
       100           C   tau( 100) = (  0.4162228  0.5829852  0.2495562  )
       101           C   tau( 101) = (  0.4996708  0.3331044  0.1660598  )
       102           C   tau( 102) = (  0.5828221  0.4161323  0.2492262  )
       103           C   tau( 103) = (  0.5002497  0.5001252 -0.0004762  )
       104           C   tau( 104) = (  0.5834738  0.5833253  0.0831572  )
       105           C   tau( 105) = (  0.3327267  0.3331041  0.3330045  )
       106           C   tau( 106) = (  0.4158925  0.4161321  0.4161558  )
       107           C   tau( 107) = (  0.3332975  0.4999381  0.4998506  )
       108           C   tau( 108) = (  0.4173961  0.5832747  0.5831005  )
       109           C   tau( 109) = (  0.4986347  0.3318132  0.4994363  )
       110           C   tau( 110) = (  0.5835196  0.4163020  0.5793048  )
       111           C   tau( 111) = (  0.4988954  0.4994790  0.3322289  )
       112           C   tau( 112) = (  0.5839382  0.5793156  0.4172715  )
       113           C   tau( 113) = (  0.3335610  0.3334838  0.6663088  )
       114           C   tau( 114) = (  0.4178976  0.4170662  0.7488532  )
       115           C   tau( 115) = (  0.3340166  0.5002498  0.8327350  )
       116           C   tau( 116) = (  0.4170452  0.5835457  0.9163064  )
       117           C   tau( 117) = (  0.5004949  0.3338034  0.8326232  )
       118           C   tau( 118) = (  0.5839045  0.4172396  0.9157757  )
       119           C   tau( 119) = (  0.5020392  0.5007989  0.6647236  )
       120           C   tau( 120) = (  0.5866187  0.5845120  0.7470619  )
       121           C   tau( 121) = (  0.3334839  0.6666275 -0.0000356  )
       122           C   tau( 122) = (  0.4168543  0.7499022  0.0833871  )
       123           C   tau( 123) = (  0.3334130  0.8331456  0.1667458  )
       124           C   tau( 124) = (  0.4167789  0.9162543  0.2501109  )
       125           C   tau( 125) = (  0.5001096  0.6663791  0.1668130  )
       126           C   tau( 126) = (  0.5836014  0.7489966  0.2511026  )
       127           C   tau( 127) = (  0.5001621  0.8332123 -0.0000206  )
       128           C   tau( 128) = (  0.5833514  0.9163705  0.0835081  )
       129           C   tau( 129) = (  0.3334796  0.6663789  0.3334432  )
       130           C   tau( 130) = (  0.4177693  0.7489964  0.4169336  )
       131           C   tau( 131) = (  0.3337883  0.8328793  0.5001296  )
       132           C   tau( 132) = (  0.4164773  0.9169678  0.5833857  )
       133           C   tau( 133) = (  0.5019336  0.6652277  0.5008590  )
       134           C   tau( 134) = (  0.5852386  0.7495622  0.5842832  )
       135           C   tau( 135) = (  0.5003675  0.8328097  0.3336997  )
       136           C   tau( 136) = (  0.5836155  0.9164242  0.4169477  )
       137           C   tau( 137) = (  0.3337541  0.6666279  0.6665257  )
       138           C   tau( 138) = (  0.4170984  0.7501196  0.7497326  )
       139           C   tau( 139) = (  0.3335372  0.8333112  0.8332613  )
       140           C   tau( 140) = (  0.4168330  0.9166303  0.9165910  )
       141           C   tau( 141) = (  0.5004322  0.6666743  0.8329576  )
       142           C   tau( 142) = (  0.5837234  0.7501490  0.9164319  )
       143           C   tau( 143) = (  0.4996535  0.8341665  0.6662728  )
       144           C   tau( 144) = (  0.5834762  0.9169635  0.7500134  )
       145           C   tau( 145) = (  0.6667877  0.0002385  0.0002543  )
       146           C   tau( 146) = (  0.7499533  0.0833426  0.0833553  )
       147           C   tau( 147) = (  0.6664884  0.1663818  0.1662256  )
       148           C   tau( 148) = (  0.7495850  0.2494053  0.2493779  )
       149           C   tau( 149) = (  0.8332091  0.0001877  0.1665656  )
       150           C   tau( 150) = (  0.9165752  0.0834621  0.2500804  )
       151           C   tau( 151) = (  0.8332865  0.1665731  0.0003424  )
       152           C   tau( 152) = (  0.9165892  0.2501701  0.0835923  )
       153           C   tau( 153) = (  0.6665657 -0.0000544  0.3332373  )
       154           C   tau( 154) = (  0.7498929  0.0833141  0.4166347  )
       155           C   tau( 155) = (  0.6664543  0.1664817  0.4997870  )
       156           C   tau( 156) = (  0.7498777  0.2501476  0.5832110  )
       157           C   tau( 157) = (  0.8333019  0.0001996  0.5000851  )
       158           C   tau( 158) = (  0.9166235  0.0835436  0.5833904  )
       159           C   tau( 159) = (  0.8330192  0.1667731  0.3333011  )
       160           C   tau( 160) = (  0.9156885  0.2508239  0.4168960  )
       161           C   tau( 161) = (  0.6667520  0.0001996  0.6666346  )
       162           C   tau( 162) = (  0.7500574  0.0835439  0.7499560  )
       163           C   tau( 163) = (  0.6668088  0.1670482  0.8329879  )
       164           C   tau( 164) = (  0.7501553  0.2496679  0.9170307  )
       165           C   tau( 165) = (  0.8334605  0.0003293  0.8335593  )
       166           C   tau( 166) = (  0.9167730  0.0834367  0.9168749  )
       167           C   tau( 167) = (  0.8333633  0.1667683  0.6666959  )
       168           C   tau( 168) = (  0.9168564  0.2497809  0.7501895  )
       169           C   tau( 169) = (  0.6667287  0.3335108 -0.0003201  )
       170           C   tau( 170) = (  0.7499314  0.4168299  0.0832607  )
       171           C   tau( 171) = (  0.6665165  0.4999386  0.1666315  )
       172           C   tau( 172) = (  0.7497671  0.5832743  0.2507302  )
       173           C   tau( 173) = (  0.8329760  0.3334840  0.1668946  )
       174           C   tau( 174) = (  0.9155200  0.4170659  0.2512311  )
       175           C   tau( 175) = (  0.8333414  0.5001595 -0.0000359  )
       176           C   tau( 176) = (  0.9164663  0.5834294  0.0836210  )
       177           C   tau( 177) = (  0.6661030  0.3318129  0.3319681  )
       178           C   tau( 178) = (  0.7459715  0.4163019  0.4168527  )
       179           C   tau( 179) = (  0.8318042  0.3344198  0.5007496  )
       180           C   tau( 180) = (  0.9158754  0.4172452  0.5845573  )
       181           C   tau( 181) = (  0.8313905  0.5007987  0.3353727  )
       182           C   tau( 182) = (  0.9137275  0.5845127  0.4199513  )
       183           C   tau( 183) = (  0.6674158  0.3344199  0.6651381  )
       184           C   tau( 184) = (  0.7512229  0.4172440  0.7492108  )
       185           C   tau( 185) = (  0.6676204  0.5006044  0.8320839  )
       186           C   tau( 186) = (  0.7502661  0.5835497  0.9160371  )
       187           C   tau( 187) = (  0.8332637  0.3323390  0.8341999  )
       188           C   tau( 188) = (  0.9168130  0.4166881  0.9169253  )
       189           C   tau( 189) = (  0.8415158  0.4922458  0.6748522  )
       190           C   tau( 190) = (  0.9163723  0.5826052  0.7497076  )
       191           C   tau( 191) = (  0.6668483  0.6666575 -0.0001826  )
       192           C   tau( 192) = (  0.7500306  0.7498449  0.0835016  )
       193           C   tau( 193) = (  0.6667970  0.8328801  0.1671211  )
       194           C   tau( 194) = (  0.7500536  0.9169689  0.2498094  )
       195           C   tau( 195) = (  0.8331921  0.6666288  0.1670882  )
       196           C   tau( 196) = (  0.9163993  0.7501203  0.2504315  )
       197           C   tau( 197) = (  0.8333695  0.8333568  0.0001160  )
       198           C   tau( 198) = (  0.9166854  0.9166490  0.0834426  )
       199           C   tau( 199) = (  0.6675259  0.6652281  0.3352670  )
       200           C   tau( 200) = (  0.7509507  0.7495630  0.4185704  )
       201           C   tau( 201) = (  0.6669006  0.8333766  0.5002334  )
       202           C   tau( 202) = (  0.7501327  0.9167741  0.5834661  )
       203           C   tau( 203) = (  0.8369184  0.6738091  0.4980549  )
       204           C   tau( 204) = (  0.9158605  0.7503624  0.5829585  )
       205           C   tau( 205) = (  0.8329397  0.8341681  0.3329853  )
       206           C   tau( 206) = (  0.9166802  0.9169638  0.4168092  )
       207           C   tau( 207) = (  0.6647223  0.6738098  0.6702531  )
       208           C   tau( 208) = (  0.7496257  0.7503621  0.7491951  )
       209           C   tau( 209) = (  0.6672330  0.8345188  0.8341099  )
       210           C   tau( 210) = (  0.7500151  0.9172904  0.9171931  )
       211           C   tau( 211) = (  0.8331940  0.6666548  0.8326764  )
       212           C   tau( 212) = (  0.9165101  0.7498444  0.9164001  )
       213           C   tau( 213) = (  0.8335588  0.8339264  0.6668925  )
       214           C   tau( 214) = (  0.9166719  0.9169664  0.7500054  )
       215           N   tau( 215) = (  0.6591748  0.4912243  0.4925085  )

     number of k points=     1
                       cart. coord. in units 2pi/alat
        k(    1) = (   0.0000000   0.0000000   0.0000000), wk =   1.0000000

                       cryst. coord.
        k(    1) = (   0.0000000   0.0000000   0.0000000), wk =   1.0000000

     Dense  grid:   437864 G-vectors     FFT dimensions: ( 120, 120, 120)

     Estimated max dynamical RAM per process >     112.27MB

     Estimated total allocated dynamical RAM >   12574.52MB
     Generating pointlists ...
     new r_m :   0.0567 (alat units)  1.1462 (a.u.) for type    1
     new r_m :   0.0567 (alat units)  1.1462 (a.u.) for type    2

     Initial potential from superposition of free atoms

     starting charge  859.50659, renormalised to  862.00000
     Starting wfc are random

     total cpu time spent up to now is        2.9 secs

     per-process dynamical memory:    76.6 Mb

     Self-consistent Calculation

     iteration #  1     ecut=    85.00 Ry     beta=0.70
     Davidson diagonalization with overlap
     ethr =  1.00E-02,  avg # of iterations =  8.0

     total cpu time spent up to now is       38.0 secs

     total energy              =   -2455.47454690 Ry
     Harris-Foulkes estimate   =   -2461.08198562 Ry
     estimated scf accuracy    <      12.61676800 Ry

     total magnetization       =     2.00 Bohr mag/cell
     absolute magnetization    =     2.00 Bohr mag/cell

     iteration #  2     ecut=    85.00 Ry     beta=0.70
     Davidson diagonalization with overlap
     ethr =  1.46E-03,  avg # of iterations =  7.0

     total cpu time spent up to now is       54.0 secs

     total energy              =   -2455.95030785 Ry
     Harris-Foulkes estimate   =   -2456.63448142 Ry
     estimated scf accuracy    <       1.00858253 Ry

     total magnetization       =     2.00 Bohr mag/cell
     absolute magnetization    =     2.08 Bohr mag/cell

     iteration #  3     ecut=    85.00 Ry     beta=0.70
     Davidson diagonalization with overlap
     ethr =  1.17E-04,  avg # of iterations =  6.0

     total cpu time spent up to now is       80.6 secs

     total energy              =   -2455.31451952 Ry
     Harris-Foulkes estimate   =   -2457.44668272 Ry
     estimated scf accuracy    <       6.79408086 Ry

     total magnetization       =     2.00 Bohr mag/cell
     absolute magnetization    =     2.20 Bohr mag/cell

     iteration #  4     ecut=    85.00 Ry     beta=0.70
     Davidson diagonalization with overlap
     ethr =  1.17E-04,  avg # of iterations =  6.0

     total cpu time spent up to now is       99.8 secs

     total energy              =   -2456.48613885 Ry
     Harris-Foulkes estimate   =   -2456.51839708 Ry
     estimated scf accuracy    <       0.09954430 Ry

     total magnetization       =     2.00 Bohr mag/cell
     absolute magnetization    =     2.15 Bohr mag/cell

     iteration #  5     ecut=    85.00 Ry     beta=0.70
     Davidson diagonalization with overlap
     ethr =  1.15E-05,  avg # of iterations =  7.0

     total cpu time spent up to now is      118.6 secs

     total energy              =   -2456.50075213 Ry
     Harris-Foulkes estimate   =   -2456.50725853 Ry
     estimated scf accuracy    <       0.02380088 Ry

     total magnetization       =     2.00 Bohr mag/cell
     absolute magnetization    =     2.18 Bohr mag/cell

     iteration #  6     ecut=    85.00 Ry     beta=0.70
     Davidson diagonalization with overlap
     ethr =  2.76E-06,  avg # of iterations =  7.0

     total cpu time spent up to now is      138.4 secs

     total energy              =   -2456.50494572 Ry
     Harris-Foulkes estimate   =   -2456.50679282 Ry
     estimated scf accuracy    <       0.00621505 Ry

     total magnetization       =     2.00 Bohr mag/cell
     absolute magnetization    =     2.22 Bohr mag/cell

     iteration #  7     ecut=    85.00 Ry     beta=0.70
     Davidson diagonalization with overlap
     ethr =  7.21E-07,  avg # of iterations =  7.0

     total cpu time spent up to now is      158.0 secs

     total energy              =   -2456.50623537 Ry
     Harris-Foulkes estimate   =   -2456.50664591 Ry
     estimated scf accuracy    <       0.00130122 Ry

     total magnetization       =     2.00 Bohr mag/cell
     absolute magnetization    =     2.24 Bohr mag/cell

     iteration #  8     ecut=    85.00 Ry     beta=0.70
     Davidson diagonalization with overlap
     ethr =  1.51E-07,  avg # of iterations =  7.0

     total cpu time spent up to now is      178.1 secs

     total energy              =   -2456.50659750 Ry
     Harris-Foulkes estimate   =   -2456.50667975 Ry
     estimated scf accuracy    <       0.00045652 Ry

     total magnetization       =     2.00 Bohr mag/cell
     absolute magnetization    =     2.25 Bohr mag/cell

     iteration #  9     ecut=    85.00 Ry     beta=0.70
     Davidson diagonalization with overlap
     ethr =  5.30E-08,  avg # of iterations =  7.0

     total cpu time spent up to now is      197.4 secs

     total energy              =   -2456.50670850 Ry
     Harris-Foulkes estimate   =   -2456.50670732 Ry
     estimated scf accuracy    <       0.00006451 Ry

     total magnetization       =     2.00 Bohr mag/cell
     absolute magnetization    =     2.26 Bohr mag/cell

     iteration # 10     ecut=    85.00 Ry     beta=0.70
     Davidson diagonalization with overlap
     ethr =  7.48E-09,  avg # of iterations =  7.0

     total cpu time spent up to now is      217.6 secs

     total energy              =   -2456.50673216 Ry
     Harris-Foulkes estimate   =   -2456.50672754 Ry
     estimated scf accuracy    <       0.00001250 Ry

     total magnetization       =     2.00 Bohr mag/cell
     absolute magnetization    =     2.27 Bohr mag/cell

     iteration # 11     ecut=    85.00 Ry     beta=0.70
     Davidson diagonalization with overlap
     ethr =  1.45E-09,  avg # of iterations =  7.0

     total cpu time spent up to now is      239.3 secs

     total energy              =   -2456.50673668 Ry
     Harris-Foulkes estimate   =   -2456.50673818 Ry
     estimated scf accuracy    <       0.00000574 Ry

     total magnetization       =     2.00 Bohr mag/cell
     absolute magnetization    =     2.28 Bohr mag/cell

     iteration # 12     ecut=    85.00 Ry     beta=0.70
     Davidson diagonalization with overlap
     ethr =  6.65E-10,  avg # of iterations =  7.0

     total cpu time spent up to now is      258.6 secs

     total energy              =   -2456.50673816 Ry
     Harris-Foulkes estimate   =   -2456.50673835 Ry
     estimated scf accuracy    <       0.00000089 Ry

     total magnetization       =     2.00 Bohr mag/cell
     absolute magnetization    =     2.28 Bohr mag/cell

     iteration # 13     ecut=    85.00 Ry     beta=0.70
     Davidson diagonalization with overlap
     ethr =  1.03E-10,  avg # of iterations =  7.0

     total cpu time spent up to now is      278.5 secs

     total energy              =   -2456.50673843 Ry
     Harris-Foulkes estimate   =   -2456.50673842 Ry
     estimated scf accuracy    <       0.00000014 Ry

     total magnetization       =     2.00 Bohr mag/cell
     absolute magnetization    =     2.28 Bohr mag/cell

     iteration # 14     ecut=    85.00 Ry     beta=0.70
     Davidson diagonalization with overlap
     ethr =  1.65E-11,  avg # of iterations =  6.5

     total cpu time spent up to now is      300.1 secs

     total energy              =   -2456.50673848 Ry
     Harris-Foulkes estimate   =   -2456.50673848 Ry
     estimated scf accuracy    <       0.00000004 Ry

     total magnetization       =     2.00 Bohr mag/cell
     absolute magnetization    =     2.28 Bohr mag/cell

     iteration # 15     ecut=    85.00 Ry     beta=0.70
     Davidson diagonalization with overlap
     ethr =  4.08E-12,  avg # of iterations =  6.0

     total cpu time spent up to now is      319.7 secs

     total energy              =   -2456.50673849 Ry
     Harris-Foulkes estimate   =   -2456.50673850 Ry
     estimated scf accuracy    <       0.00000002 Ry

     total magnetization       =     2.00 Bohr mag/cell
     absolute magnetization    =     2.28 Bohr mag/cell

     iteration # 16     ecut=    85.00 Ry     beta=0.70
     Davidson diagonalization with overlap
     ethr =  2.13E-12,  avg # of iterations =  6.0

     total cpu time spent up to now is      338.0 secs

     total energy              =   -2456.50673850 Ry
     Harris-Foulkes estimate   =   -2456.50673850 Ry
     estimated scf accuracy    <          5.4E-09 Ry

     total magnetization       =     2.00 Bohr mag/cell
     absolute magnetization    =     2.28 Bohr mag/cell

     iteration # 17     ecut=    85.00 Ry     beta=0.70
     Davidson diagonalization with overlap
     ethr =  6.28E-13,  avg # of iterations =  6.0

     total cpu time spent up to now is      357.1 secs

     total energy              =   -2456.50673850 Ry
     Harris-Foulkes estimate   =   -2456.50673850 Ry
     estimated scf accuracy    <          1.6E-09 Ry

     total magnetization       =     2.00 Bohr mag/cell
     absolute magnetization    =     2.28 Bohr mag/cell

     iteration # 18     ecut=    85.00 Ry     beta=0.70
     Davidson diagonalization with overlap
     ethr =  1.87E-13,  avg # of iterations =  7.0

     total cpu time spent up to now is      376.8 secs

     total energy              =   -2456.50673850 Ry
     Harris-Foulkes estimate   =   -2456.50673850 Ry
     estimated scf accuracy    <          5.2E-10 Ry

     total magnetization       =     2.00 Bohr mag/cell
     absolute magnetization    =     2.28 Bohr mag/cell

     iteration # 19     ecut=    85.00 Ry     beta=0.70
     Davidson diagonalization with overlap
     ethr =  1.00E-13,  avg # of iterations =  7.0

     total cpu time spent up to now is      396.6 secs

     total energy              =   -2456.50673850 Ry
     Harris-Foulkes estimate   =   -2456.50673850 Ry
     estimated scf accuracy    <          3.6E-10 Ry

     total magnetization       =     2.00 Bohr mag/cell
     absolute magnetization    =     2.28 Bohr mag/cell

     iteration # 20     ecut=    85.00 Ry     beta=0.70
     Davidson diagonalization with overlap
     ethr =  1.00E-13,  avg # of iterations =  7.0
 
     Magnetic moment per site:
     atom:    1    charge:    1.8000    magn:    0.0001    constr:    0.0000
     atom:    2    charge:    1.7991    magn:   -0.0000    constr:    0.0000
     atom:    3    charge:    1.8003    magn:    0.0002    constr:    0.0000
     atom:    4    charge:    1.7984    magn:    0.0001    constr:    0.0000
     atom:    5    charge:    1.7999    magn:    0.0005    constr:    0.0000
     atom:    6    charge:    1.7987    magn:    0.0000    constr:    0.0000
     atom:    7    charge:    1.8000    magn:    0.0005    constr:    0.0000
     atom:    8    charge:    1.7985    magn:    0.0000    constr:    0.0000
     atom:    9    charge:    1.8006    magn:    0.0011    constr:    0.0000
     atom:   10    charge:    1.7988    magn:   -0.0001    constr:    0.0000
     atom:   11    charge:    1.7972    magn:    0.0002    constr:    0.0000
     atom:   12    charge:    1.8041    magn:    0.0035    constr:    0.0000
     atom:   13    charge:    1.8007    magn:    0.0012    constr:    0.0000
     atom:   14    charge:    1.8047    magn:    0.0013    constr:    0.0000
     atom:   15    charge:    1.8003    magn:    0.0001    constr:    0.0000
     atom:   16    charge:    1.8002    magn:   -0.0000    constr:    0.0000
     atom:   17    charge:    1.7995    magn:    0.0002    constr:    0.0000
     atom:   18    charge:    1.8007    magn:   -0.0001    constr:    0.0000
     atom:   19    charge:    1.8007    magn:    0.0010    constr:    0.0000
     atom:   20    charge:    1.7991    magn:   -0.0000    constr:    0.0000
     atom:   21    charge:    1.8000    magn:    0.0001    constr:    0.0000
     atom:   22    charge:    1.7991    magn:   -0.0000    constr:    0.0000
     atom:   23    charge:    1.8015    magn:    0.0017    constr:    0.0000
     atom:   24    charge:    1.7996    magn:   -0.0001    constr:    0.0000
     atom:   25    charge:    1.8002    magn:    0.0011    constr:    0.0000
     atom:   26    charge:    1.7978    magn:   -0.0001    constr:    0.0000
     atom:   27    charge:    1.7966    magn:    0.0002    constr:    0.0000
     atom:   28    charge:    1.7999    magn:    0.0030    constr:    0.0000
     atom:   29    charge:    1.8002    magn:    0.0001    constr:    0.0000
     atom:   30    charge:    1.7996    magn:   -0.0000    constr:    0.0000
     atom:   31    charge:    1.8002    magn:    0.0013    constr:    0.0000
     atom:   32    charge:    1.8022    magn:    0.0013    constr:    0.0000
     atom:   33    charge:    1.7998    magn:    0.0003    constr:    0.0000
     atom:   34    charge:    1.7969    magn:   -0.0007    constr:    0.0000
     atom:   35    charge:    1.7987    magn:    0.0060    constr:    0.0000
     atom:   36    charge:    1.8000    magn:   -0.0010    constr:    0.0000
     atom:   37    charge:    1.7983    magn:    0.0001    constr:    0.0000
     atom:   38    charge:    1.7997    magn:   -0.0001    constr:    0.0000
     atom:   39    charge:    1.7985    magn:    0.0001    constr:    0.0000
     atom:   40    charge:    1.7996    magn:   -0.0001    constr:    0.0000
     atom:   41    charge:    1.7989    magn:    0.0194    constr:    0.0000
     atom:   42    charge:    1.7983    magn:   -0.0011    constr:    0.0000
     atom:   43    charge:    1.7995    magn:    0.0178    constr:    0.0000
     atom:   44    charge:    1.8039    magn:    0.0022    constr:    0.0000
     atom:   45    charge:    1.8002    magn:    0.0011    constr:    0.0000
     atom:   46    charge:    1.7978    magn:   -0.0001    constr:    0.0000
     atom:   47    charge:    1.7990    magn:    0.0016    constr:    0.0000
     atom:   48    charge:    1.7994    magn:   -0.0001    constr:    0.0000
     atom:   49    charge:    1.7981    magn:    0.0001    constr:    0.0000
     atom:   50    charge:    1.7997    magn:   -0.0001    constr:    0.0000
     atom:   51    charge:    1.7995    magn:    0.0011    constr:    0.0000
     atom:   52    charge:    1.7993    magn:   -0.0001    constr:    0.0000
     atom:   53    charge:    1.7988    magn:    0.0015    constr:    0.0000
     atom:   54    charge:    1.7992    magn:   -0.0001    constr:    0.0000
     atom:   55    charge:    1.7996    magn:    0.0001    constr:    0.0000
     atom:   56    charge:    1.7991    magn:   -0.0000    constr:    0.0000
     atom:   57    charge:    1.7923    magn:    0.0170    constr:    0.0000
     atom:   58    charge:    1.7983    magn:   -0.0011    constr:    0.0000
     atom:   59    charge:    1.8008    magn:    0.0163    constr:    0.0000
     atom:   60    charge:    1.8041    magn:    0.0014    constr:    0.0000
     atom:   61    charge:    1.7991    magn:    0.0015    constr:    0.0000
     atom:   62    charge:    1.7995    magn:   -0.0001    constr:    0.0000
     atom:   63    charge:    1.7996    magn:    0.0011    constr:    0.0000
     atom:   64    charge:    1.7983    magn:   -0.0001    constr:    0.0000
     atom:   65    charge:    1.7969    magn:    0.0071    constr:    0.0000
     atom:   66    charge:    1.7974    magn:   -0.0004    constr:    0.0000
     atom:   67    charge:    1.7989    magn:    0.0002    constr:    0.0000
     atom:   68    charge:    1.7996    magn:   -0.0001    constr:    0.0000
     atom:   69    charge:    1.7981    magn:    0.0001    constr:    0.0000
     atom:   70    charge:    1.7997    magn:   -0.0001    constr:    0.0000
     atom:   71    charge:    1.7983    magn:    0.0002    constr:    0.0000
     atom:   72    charge:    1.7999    magn:   -0.0001    constr:    0.0000
     atom:   73    charge:    1.7999    magn:    0.0005    constr:    0.0000
     atom:   74    charge:    1.7987    magn:    0.0000    constr:    0.0000
     atom:   75    charge:    1.8003    magn:    0.0001    constr:    0.0000
     atom:   76    charge:    1.7996    magn:    0.0000    constr:    0.0000
     atom:   77    charge:    1.8002    magn:    0.0001    constr:    0.0000
     atom:   78    charge:    1.8008    magn:   -0.0000    constr:    0.0000
     atom:   79    charge:    1.8003    magn:    0.0001    constr:    0.0000
     atom:   80    charge:    1.8002    magn:   -0.0000    constr:    0.0000
     atom:   81    charge:    1.8002    magn:    0.0001    constr:    0.0000
     atom:   82    charge:    1.8008    magn:   -0.0000    constr:    0.0000
     atom:   83    charge:    1.8022    magn:    0.0002    constr:    0.0000
     atom:   84    charge:    1.8051    magn:    0.0002    constr:    0.0000
     atom:   85    charge:    1.7997    magn:    0.0001    constr:    0.0000
     atom:   86    charge:    1.8006    magn:   -0.0001    constr:    0.0000
     atom:   87    charge:    1.8025    magn:    0.0000    constr:    0.0000
     atom:   88    charge:    1.8016    magn:   -0.0001    constr:    0.0000
     atom:   89    charge:    1.8011    magn:    0.0015    constr:    0.0000
     atom:   90    charge:    1.8000    magn:   -0.0001    constr:    0.0000
     atom:   91    charge:    1.8003    magn:    0.0002    constr:    0.0000
     atom:   92    charge:    1.7984    magn:    0.0001    constr:    0.0000
     atom:   93    charge:    1.8006    magn:    0.0011    constr:    0.0000
     atom:   94    charge:    1.7988    magn:   -0.0001    constr:    0.0000
     atom:   95    charge:    1.7993    magn:    0.0002    constr:    0.0000
     atom:   96    charge:    1.7950    magn:   -0.0002    constr:    0.0000
     atom:   97    charge:    1.8002    magn:    0.0001    constr:    0.0000
     atom:   98    charge:    1.7996    magn:   -0.0000    constr:    0.0000
     atom:   99    charge:    1.8012    magn:    0.0002    constr:    0.0000
     atom:  100    charge:    1.8035    magn:    0.0002    constr:    0.0000
     atom:  101    charge:    1.8019    magn:    0.0000    constr:    0.0000
     atom:  102    charge:    1.8006    magn:   -0.0001    constr:    0.0000
     atom:  103    charge:    1.7985    magn:    0.0001    constr:    0.0000
     atom:  104    charge:    1.7996    magn:   -0.0001    constr:    0.0000
     atom:  105    charge:    1.8019    magn:    0.0000    constr:    0.0000
     atom:  106    charge:    1.8006    magn:   -0.0001    constr:    0.0000
     atom:  107    charge:    1.7992    magn:    0.0008    constr:    0.0000
     atom:  108    charge:    1.8024    magn:   -0.0006    constr:    0.0000
     atom:  109    charge:    1.8101    magn:    0.0002    constr:    0.0000
     atom:  110    charge:    1.7804    magn:    0.0006    constr:    0.0000
     atom:  111    charge:    1.8069    magn:    0.0002    constr:    0.0000
     atom:  112    charge:    1.7753    magn:    0.0007    constr:    0.0000
     atom:  113    charge:    1.7985    magn:    0.0002    constr:    0.0000
     atom:  114    charge:    1.7939    magn:   -0.0002    constr:    0.0000
     atom:  115    charge:    1.7966    magn:    0.0002    constr:    0.0000
     atom:  116    charge:    1.7999    magn:    0.0030    constr:    0.0000
     atom:  117    charge:    1.7998    magn:    0.0003    constr:    0.0000
     atom:  118    charge:    1.7969    magn:   -0.0007    constr:    0.0000
     atom:  119    charge:    1.7959    magn:    0.0034    constr:    0.0000
     atom:  120    charge:    1.7936    magn:   -0.0033    constr:    0.0000
     atom:  121    charge:    1.7988    magn:    0.0015    constr:    0.0000
     atom:  122    charge:    1.7992    magn:   -0.0001    constr:    0.0000
     atom:  123    charge:    1.7997    magn:    0.0002    constr:    0.0000
     atom:  124    charge:    1.7985    magn:    0.0001    constr:    0.0000
     atom:  125    charge:    1.7983    magn:    0.0002    constr:    0.0000
     atom:  126    charge:    1.7938    magn:   -0.0002    constr:    0.0000
     atom:  127    charge:    1.7996    magn:    0.0011    constr:    0.0000
     atom:  128    charge:    1.7983    magn:   -0.0001    constr:    0.0000
     atom:  129    charge:    1.7983    magn:    0.0002    constr:    0.0000
     atom:  130    charge:    1.7938    magn:   -0.0002    constr:    0.0000
     atom:  131    charge:    1.7965    magn:    0.0002    constr:    0.0000
     atom:  132    charge:    1.8033    magn:    0.0027    constr:    0.0000
     atom:  133    charge:    1.7948    magn:    0.0037    constr:    0.0000
     atom:  134    charge:    1.8041    magn:   -0.0036    constr:    0.0000
     atom:  135    charge:    1.7997    magn:    0.0003    constr:    0.0000
     atom:  136    charge:    1.7997    magn:   -0.0007    constr:    0.0000
     atom:  137    charge:    1.7991    magn:    0.0008    constr:    0.0000
     atom:  138    charge:    1.7988    magn:   -0.0011    constr:    0.0000
     atom:  139    charge:    1.7995    magn:    0.0011    constr:    0.0000
     atom:  140    charge:    1.7993    magn:   -0.0001    constr:    0.0000
     atom:  141    charge:    1.7923    magn:    0.0170    constr:    0.0000
     atom:  142    charge:    1.7983    magn:   -0.0011    constr:    0.0000
     atom:  143    charge:    1.7984    magn:    0.0169    constr:    0.0000
     atom:  144    charge:    1.7991    magn:   -0.0011    constr:    0.0000
     atom:  145    charge:    1.8007    magn:    0.0012    constr:    0.0000
     atom:  146    charge:    1.8047    magn:    0.0013    constr:    0.0000
     atom:  147    charge:    1.8022    magn:    0.0002    constr:    0.0000
     atom:  148    charge:    1.8051    magn:    0.0002    constr:    0.0000
     atom:  149    charge:    1.8011    magn:    0.0015    constr:    0.0000
     atom:  150    charge:    1.8000    magn:   -0.0001    constr:    0.0000
     atom:  151    charge:    1.8015    magn:    0.0017    constr:    0.0000
     atom:  152    charge:    1.7996    magn:   -0.0001    constr:    0.0000
     atom:  153    charge:    1.7997    magn:    0.0001    constr:    0.0000
     atom:  154    charge:    1.8006    magn:   -0.0001    constr:    0.0000
     atom:  155    charge:    1.8002    magn:    0.0009    constr:    0.0000
     atom:  156    charge:    1.8034    magn:   -0.0006    constr:    0.0000
     atom:  157    charge:    1.8006    magn:    0.0016    constr:    0.0000
     atom:  158    charge:    1.8004    magn:   -0.0001    constr:    0.0000
     atom:  159    charge:    1.7993    magn:    0.0002    constr:    0.0000
     atom:  160    charge:    1.7950    magn:   -0.0002    constr:    0.0000
     atom:  161    charge:    1.8006    magn:    0.0016    constr:    0.0000
     atom:  162    charge:    1.8004    magn:   -0.0001    constr:    0.0000
     atom:  163    charge:    1.7972    magn:    0.0002    constr:    0.0000
     atom:  164    charge:    1.8041    magn:    0.0035    constr:    0.0000
     atom:  165    charge:    1.7995    magn:    0.0002    constr:    0.0000
     atom:  166    charge:    1.8007    magn:   -0.0001    constr:    0.0000
     atom:  167    charge:    1.8003    magn:    0.0009    constr:    0.0000
     atom:  168    charge:    1.7999    magn:   -0.0012    constr:    0.0000
     atom:  169    charge:    1.7983    magn:    0.0001    constr:    0.0000
     atom:  170    charge:    1.7997    magn:   -0.0001    constr:    0.0000
     atom:  171    charge:    1.7992    magn:    0.0008    constr:    0.0000
     atom:  172    charge:    1.8024    magn:   -0.0006    constr:    0.0000
     atom:  173    charge:    1.7985    magn:    0.0002    constr:    0.0000
     atom:  174    charge:    1.7939    magn:   -0.0002    constr:    0.0000
     atom:  175    charge:    1.7990    magn:    0.0016    constr:    0.0000
     atom:  176    charge:    1.7994    magn:   -0.0001    constr:    0.0000
     atom:  177    charge:    1.8101    magn:    0.0002    constr:    0.0000
     atom:  178    charge:    1.7804    magn:    0.0006    constr:    0.0000
     atom:  179    charge:    1.7961    magn:    0.0043    constr:    0.0000
     atom:  180    charge:    1.8057    magn:   -0.0055    constr:    0.0000
     atom:  181    charge:    1.7959    magn:    0.0034    constr:    0.0000
     atom:  182    charge:    1.7936    magn:   -0.0033    constr:    0.0000
     atom:  183    charge:    1.7961    magn:    0.0043    constr:    0.0000
     atom:  184    charge:    1.8057    magn:   -0.0055    constr:    0.0000
     atom:  185    charge:    1.7987    magn:    0.0060    constr:    0.0000
     atom:  186    charge:    1.8000    magn:   -0.0010    constr:    0.0000
     atom:  187    charge:    1.7989    magn:    0.0194    constr:    0.0000
     atom:  188    charge:    1.7983    magn:   -0.0011    constr:    0.0000
     atom:  189    charge:    1.8105    magn:    0.2656    constr:    0.0000
     atom:  190    charge:    1.8049    magn:   -0.0088    constr:    0.0000
     atom:  191    charge:    1.7991    magn:    0.0015    constr:    0.0000
     atom:  192    charge:    1.7995    magn:   -0.0001    constr:    0.0000
     atom:  193    charge:    1.7965    magn:    0.0002    constr:    0.0000
     atom:  194    charge:    1.8033    magn:    0.0027    constr:    0.0000
     atom:  195    charge:    1.7991    magn:    0.0008    constr:    0.0000
     atom:  196    charge:    1.7988    magn:   -0.0011    constr:    0.0000
     atom:  197    charge:    1.7983    magn:    0.0002    constr:    0.0000
     atom:  198    charge:    1.7999    magn:   -0.0001    constr:    0.0000
     atom:  199    charge:    1.7948    magn:    0.0037    constr:    0.0000
     atom:  200    charge:    1.8041    magn:   -0.0036    constr:    0.0000
     atom:  201    charge:    1.8021    magn:    0.0058    constr:    0.0000
     atom:  202    charge:    1.8007    magn:   -0.0010    constr:    0.0000
     atom:  203    charge:    1.8019    magn:    0.2415    constr:    0.0000
     atom:  204    charge:    1.8072    magn:   -0.0081    constr:    0.0000
     atom:  205    charge:    1.7984    magn:    0.0169    constr:    0.0000
     atom:  206    charge:    1.7991    magn:   -0.0011    constr:    0.0000
     atom:  207    charge:    1.8019    magn:    0.2415    constr:    0.0000
     atom:  208    charge:    1.8072    magn:   -0.0081    constr:    0.0000
     atom:  209    charge:    1.8008    magn:    0.0163    constr:    0.0000
     atom:  210    charge:    1.8041    magn:    0.0014    constr:    0.0000
     atom:  211    charge:    1.7969    magn:    0.0071    constr:    0.0000
     atom:  212    charge:    1.7974    magn:   -0.0004    constr:    0.0000
     atom:  213    charge:    1.8020    magn:    0.0069    constr:    0.0000
     atom:  214    charge:    1.8005    magn:   -0.0004    constr:    0.0000
     atom:  215    charge:    2.8896    magn:   -0.0006    constr:    0.0000

     total cpu time spent up to now is      413.5 secs

     End of self-consistent calculation

 ------ SPIN UP ------------


          k = 0.0000 0.0000 0.0000 ( 54564 PWs)   bands (ev):

    -8.2693  -7.4426  -7.2614  -7.2603  -7.2237  -7.2127  -7.1331  -6.6026
    -6.2601  -6.2584  -6.2528  -6.2488  -6.2385  -6.2171  -6.2110  -6.1998
    -6.1688  -6.1465  -5.9864  -5.4889  -5.2364  -5.2325  -5.2218  -5.2143
    -5.2000  -5.1966  -5.0421  -4.4315  -4.2438  -4.2378  -4.2233  -4.2184
    -4.1627  -3.8396  -3.3517  -3.3514  -3.3432  -3.3430  -3.3406  -3.3293
    -3.3271  -3.3269  -3.3152  -3.3103  -3.3085  -3.3042  -3.3027  -3.2993
    -3.2807  -3.2703  -3.2637  -3.2637  -3.2569  -3.2355  -3.1843  -3.1672
    -2.9990  -2.7993  -2.5800  -2.5742  -2.5480  -2.5479  -2.5418  -2.5329
    -2.5316  -2.5264  -2.5238  -2.5143  -2.5136  -2.4946  -2.4904  -2.4896
    -2.4748  -2.4689  -2.4495  -2.4432  -2.4185  -2.3982  -2.3071  -2.2884
    -1.6232  -1.0334  -0.8695  -0.8678  -0.8379  -0.8312  -0.8227  -0.8195
    -0.8194  -0.8120  -0.7737  -0.7641  -0.4208   0.3795   0.4309   0.4330
     0.4501   0.4568   0.4934   0.7110   0.8854   0.8922   0.9304   0.9380
     0.9389   0.9437   0.9495   0.9503   0.9517   0.9651   0.9714   0.9771
     0.9773   0.9977   1.0295   1.0414   1.0476   1.0686   1.0700   1.0746
     1.0822   1.0886   1.1185   1.1386   1.1404   1.1463   1.1581   1.1612
     1.1618   1.1642   1.1662   1.1705   1.1814   1.1916   1.1950   1.2117
     1.2145   1.2146   1.2174   1.2267   1.2283   1.2300   1.2486   1.4586
     1.5625   1.5827   1.9705   2.2292   2.2301   2.2313   2.2729   2.2744
     2.2776   2.2852   2.3051   2.3063   2.4252   2.4346   3.3905   3.7387
     3.7404   3.7554   3.8095   3.8152   3.8180   3.8181   3.8235   3.8245
     3.8268   3.8287   3.8426   3.8470   3.8489   3.8590   3.8709   3.9821
     3.9883   3.9951   4.0247   4.3876   4.3897   4.4113   4.4855   4.4889
     4.4918   4.4943   4.4946   4.4967   4.5064   4.5069   4.5089   4.5162
     4.5172   4.5206   4.5281   4.5315   4.5436   4.5451   4.5558   4.5570
     4.7451   4.7501   5.2684   5.2715   5.2793   5.3296   5.3330   5.3336
     5.3359   5.3413   5.3446   5.3519   5.3554   5.3609   5.3725   5.3735
     5.4192   5.4287   5.4291   5.4408   5.4485   5.4779   5.4827   5.5457
     5.5609   5.5622   5.6316   5.7630   5.7653   5.8518   5.8601   5.8621
     5.8689   5.8719   5.8785   5.8820   5.8848   5.8871   5.8928   5.9011
     5.9074   5.9104   5.9239   5.9310   5.9354   5.9382   5.9584   5.9586
     5.9742   5.9950   5.9990   6.0417   6.0511   6.3228   6.3538   6.3688
     6.8633   6.8672   6.9218   6.9418   6.9546   6.9581   7.0666   7.4019
     7.4062   7.4816   7.4871   7.4893   7.5016   7.5038   7.5050   7.5292
     7.5798   7.5837   7.7414   7.7439   7.8565   7.8767   7.8818   7.8830
     7.8871   7.8914   7.8935   7.9179   7.9450   7.9481   7.9519   8.0868
     8.1001   8.1197   8.1447   8.1484   8.1494   8.1622   8.1641   8.1652
     8.1680   8.1734   8.1755   8.1777   8.1839   8.1882   8.2121   8.2135
     8.2212   8.2263   8.2300   8.2343   8.2344   8.2401   8.2885   8.2945
     8.3159   8.3410   8.3499   8.3528   8.3547   8.3555   8.3590   8.3596
     8.3615   8.3617   8.3672   8.3682   8.3747   8.3763   8.3808   8.3821
     8.3822   8.3846   8.3877   8.3934   8.3949   8.3984   8.4019   8.4075
     8.4121   8.4148   8.4313   8.4323   8.4436   8.4513   8.4523   8.4654
     8.4712   8.4955   8.4981   8.5053   8.5303   8.5526   8.5562   8.5599
     8.5709   8.6392   8.6797   8.9305   8.9382   8.9406   9.1087   9.1146
     9.1728   9.1767   9.1776   9.1841   9.2055   9.2114   9.2119   9.2185
     9.2306   9.2344   9.2388   9.2404   9.2490   9.2551   9.2593   9.2738
     9.3132   9.3179   9.3826  10.0448  10.1492  10.1609  10.4881  10.5431
    10.5454  10.5945  10.5958  10.5998  10.6135  10.6183  10.6216  10.6240
    10.6878  10.6950  10.7051  10.7878  10.7946  10.8483  10.8514  10.8531
    10.8558  10.8627  10.8654  10.8665  10.8766  10.8914  10.8958  10.9154
    10.9272  10.9331  10.9365  10.9557  10.9673  11.5196  11.5392  11.5394
    11.7626  11.7676  11.7773  11.8012  11.8020  11.8045  11.8275  11.8502
    11.8513  11.8907  12.9413  13.0297  13.0310  13.8904  14.8616  15.1160
    17.3521  17.3631  17.3743  17.4106  17.4120  17.4341  17.9331  18.0023
    18.0048  18.0176  18.0226  18.0756  18.1198  18.1324  18.1833  18.2275
    18.2291  18.2479  18.8389  18.8464  18.8649  19.4537  19.5339  19.5357
    19.5489  19.5807  19.5827  19.5872  19.5985  19.6065  19.6103  19.6141
    19.6513  20.0725  20.2414  20.2420  20.2729  20.2738  20.2752  20.2807
    20.2811  20.2831  20.2868  20.2896  20.3009  20.3085  20.3168  20.3168
    20.3341  20.3424  20.3432  20.3751  20.3872  20.4023  20.4206  20.4264
    20.4317  20.6966  20.7027  20.7183  20.7441  20.7490  20.7647  20.7648
    20.7692  20.7707  20.7761  20.7866  20.7866  20.8109  20.8273  20.8334
    20.8566  20.8612  20.8628  20.8748  20.8762  20.8788  20.8822  20.8930
    20.9012  20.9065  20.9134  20.9157  20.9250  20.9354  20.9454  20.9502
    20.9653  20.9743  20.9768  20.9829  21.0152  21.0654  21.0729  21.0842
    21.1145  21.1254  21.1403  21.2578  21.3402  21.3466  21.3662  21.3865
    21.3904  21.3934  21.3988  21.3998  21.4024  21.4040  21.4066  21.4158
    21.4212  21.4270  21.4404  21.4414  21.4428  21.4491  21.4498  21.4508
    21.4696  21.4755  21.4755  21.4780  21.4890  21.4910  21.4989  21.5084
    21.5104  21.5234  21.5288  21.5388  21.5599  21.5840  21.6771  21.6811
    21.6913  21.7135  21.7237  21.7282  21.7325  21.7370  21.7426  21.7458
    21.7511  21.7525  21.7857  21.7966  21.8033  21.8149  21.8498  21.8608
    21.8796  21.9819  22.0228  22.0271  22.0272  22.0427  22.1464  22.1488
    22.1539  22.1974  22.2163  22.2222  22.2262  22.2371  22.2415  22.3754
    22.3833  22.3855  22.4526  22.5045  22.5062  22.5213  22.5318  22.5320
    22.6977  22.7155  22.7236  22.8504  22.9893  23.0148  23.0191  23.1479
    23.1512  23.1613  23.1688  23.1690  23.1730  23.1790  23.1869  23.1881
    23.1942  23.1982  23.2072  23.2337  23.2435  23.2570  23.2623  23.3105
    23.3333  23.3494  23.3958  23.3965  23.4705  23.4896  23.4907  23.8211
    23.8271  23.8292  23.8328  23.8453  23.8502  23.8551  23.8675  23.8714
    23.8819  23.8851  23.8955  23.8985  23.8993  23.9134  23.9295  23.9479
    23.9969  24.0026  24.0089  24.1526  24.1543  24.2387  24.2509  24.3002
    24.3040  24.3102  24.3231  24.3504  24.3530  24.3548  24.3568  24.3603
    24.3742  24.4106  24.4126  24.4150  24.4497  24.4527  24.4571  24.4644
    24.4671  24.4750  24.4788  24.5004  24.5204  24.5393  24.5508  24.5555
    24.5563  24.5606  24.5636  24.5798  24.5896  24.5906  24.5976  24.6164
    24.6172  24.6300  24.6380  24.6596  24.6651  24.7199  24.7251  24.7983
    24.8311  24.9028  24.9572  25.5126  25.5416  25.5726  25.6878  25.8546
    25.8696  25.8736  25.8866  25.8867  26.0276  26.0368  26.0403  26.0435
    26.0914  26.1011  26.1509  26.1695  26.1762  26.1785  26.2664  26.2994
    26.3276  26.5342  26.6354  26.6359  26.6497  26.6767  26.6918  26.6964
    26.6985  26.7237  26.7317  26.7426  26.7470  26.7568  26.8208  26.8245
    26.8292  26.8377  26.8568  26.8616  26.8988  26.9035  26.9125  26.9881
    26.9938  27.1018  27.1069  27.1294  27.1334  27.1403  27.1437  27.1462
    27.1613  27.1620  27.1627  27.1653  27.1659  27.1930  27.1960  27.2227
    27.2293  27.2523  27.2621  27.2813  27.2858  27.2871  27.2954  27.2981
    27.3068  27.3126  27.3186  27.3229  27.3328  27.3425  27.3441  27.3536
    27.3552  27.3583  27.3610  27.3782  27.3829  27.4037  27.4052  27.4122
    27.4155  27.4227  27.4240  27.4270  27.4348  27.4367  27.4616  27.4693

     occupation numbers 
     1.0000   1.0000   1.0000   1.0000   1.0000   1.0000   1.0000   1.0000
     1.0000   1.0000   1.0000   1.0000   1.0000   1.0000   1.0000   1.0000
     1.0000   1.0000   1.0000   1.0000   1.0000   1.0000   1.0000   1.0000
     1.0000   1.0000   1.0000   1.0000   1.0000   1.0000   1.0000   1.0000
     1.0000   1.0000   1.0000   1.0000   1.0000   1.0000   1.0000   1.0000
     1.0000   1.0000   1.0000   1.0000   1.0000   1.0000   1.0000   1.0000
     1.0000   1.0000   1.0000   1.0000   1.0000   1.0000   1.0000   1.0000
     1.0000   1.0000   1.0000   1.0000   1.0000   1.0000   1.0000   1.0000
     1.0000   1.0000   1.0000   1.0000   1.0000   1.0000   1.0000   1.0000
     1.0000   1.0000   1.0000   1.0000   1.0000   1.0000   1.0000   1.0000
     1.0000   1.0000   1.0000   1.0000   1.0000   1.0000   1.0000   1.0000
     1.0000   1.0000   1.0000   1.0000   1.0000   1.0000   1.0000   1.0000
     1.0000   1.0000   1.0000   1.0000   1.0000   1.0000   1.0000   1.0000
     1.0000   1.0000   1.0000   1.0000   1.0000   1.0000   1.0000   1.0000
     1.0000   1.0000   1.0000   1.0000   1.0000   1.0000   1.0000   1.0000
     1.0000   1.0000   1.0000   1.0000   1.0000   1.0000   1.0000   1.0000
     1.0000   1.0000   1.0000   1.0000   1.0000   1.0000   1.0000   1.0000
     1.0000   1.0000   1.0000   1.0000   1.0000   1.0000   1.0000   1.0000
     1.0000   1.0000   1.0000   1.0000   1.0000   1.0000   1.0000   1.0000
     1.0000   1.0000   1.0000   1.0000   1.0000   1.0000   1.0000   1.0000
     1.0000   1.0000   1.0000   1.0000   1.0000   1.0000   1.0000   1.0000
     1.0000   1.0000   1.0000   1.0000   1.0000   1.0000   1.0000   1.0000
     1.0000   1.0000   1.0000   1.0000   1.0000   1.0000   1.0000   1.0000
     1.0000   1.0000   1.0000   1.0000   1.0000   1.0000   1.0000   1.0000
     1.0000   1.0000   1.0000   1.0000   1.0000   1.0000   1.0000   1.0000
     1.0000   1.0000   1.0000   1.0000   1.0000   1.0000   1.0000   1.0000
     1.0000   1.0000   1.0000   1.0000   1.0000   1.0000   1.0000   1.0000
     1.0000   1.0000   1.0000   1.0000   1.0000   1.0000   1.0000   1.0000
     1.0000   1.0000   1.0000   1.0000   1.0000   1.0000   1.0000   1.0000
     1.0000   1.0000   1.0000   1.0000   1.0000   1.0000   1.0000   1.0000
     1.0000   1.0000   1.0000   1.0000   1.0000   1.0000   1.0000   1.0000
     1.0000   1.0000   1.0000   1.0000   1.0000   1.0000   1.0000   1.0000
     1.0000   1.0000   1.0000   1.0000   1.0000   1.0000   1.0000   1.0000
     1.0000   1.0000   1.0000   1.0000   1.0000   1.0000   1.0000   1.0000
     1.0000   1.0000   1.0000   1.0000   1.0000   1.0000   1.0000   1.0000
     1.0000   1.0000   1.0000   1.0000   1.0000   1.0000   1.0000   1.0000
     1.0000   1.0000   1.0000   1.0000   1.0000   1.0000   1.0000   1.0000
     1.0000   1.0000   1.0000   1.0000   1.0000   1.0000   1.0000   1.0000
     1.0000   1.0000   1.0000   1.0000   1.0000   1.0000   1.0000   1.0000
     1.0000   1.0000   1.0000   1.0000   1.0000   1.0000   1.0000   1.0000
     1.0000   1.0000   1.0000   1.0000   1.0000   1.0000   1.0000   1.0000
     1.0000   1.0000   1.0000   1.0000   1.0000   1.0000   1.0000   1.0000
     1.0000   1.0000   1.0000   1.0000   1.0000   1.0000   1.0000   1.0000
     1.0000   1.0000   1.0000   1.0000   1.0000   1.0000   1.0000   1.0000
     1.0000   1.0000   1.0000   1.0000   1.0000   1.0000   1.0000   1.0000
     1.0000   1.0000   1.0000   1.0000   1.0000   1.0000   1.0000   1.0000
     1.0000   1.0000   1.0000   1.0000   1.0000   1.0000   1.0000   1.0000
     1.0000   1.0000   1.0000   1.0000   1.0000   1.0000   1.0000   1.0000
     1.0000   1.0000   1.0000   1.0000   1.0000   1.0000   1.0000   1.0000
     1.0000   1.0000   1.0000   1.0000   1.0000   1.0000   1.0000   1.0000
     1.0000   1.0000   1.0000   1.0000   1.0000   1.0000   1.0000   1.0000
     1.0000   1.0000   1.0000   1.0000   1.0000   1.0000   1.0000   1.0000
     1.0000   1.0000   1.0000   1.0000   1.0000   1.0000   1.0000   1.0000
     1.0000   1.0000   1.0000   1.0000   1.0000   1.0000   1.0000   1.0000
     0.0000   0.0000   0.0000   0.0000   0.0000   0.0000   0.0000   0.0000
     0.0000   0.0000   0.0000   0.0000   0.0000   0.0000   0.0000   0.0000
     0.0000   0.0000   0.0000   0.0000   0.0000   0.0000   0.0000   0.0000
     0.0000   0.0000   0.0000   0.0000   0.0000   0.0000   0.0000   0.0000
     0.0000   0.0000   0.0000   0.0000   0.0000   0.0000   0.0000   0.0000
     0.0000   0.0000   0.0000   0.0000   0.0000   0.0000   0.0000   0.0000
     0.0000   0.0000   0.0000   0.0000   0.0000   0.0000   0.0000   0.0000
     0.0000   0.0000   0.0000   0.0000   0.0000   0.0000   0.0000   0.0000
     0.0000   0.0000   0.0000   0.0000   0.0000   0.0000   0.0000   0.0000
     0.0000   0.0000   0.0000   0.0000   0.0000   0.0000   0.0000   0.0000
     0.0000   0.0000   0.0000   0.0000   0.0000   0.0000   0.0000   0.0000
     0.0000   0.0000   0.0000   0.0000   0.0000   0.0000   0.0000   0.0000
     0.0000   0.0000   0.0000   0.0000   0.0000   0.0000   0.0000   0.0000
     0.0000   0.0000   0.0000   0.0000   0.0000   0.0000   0.0000   0.0000
     0.0000   0.0000   0.0000   0.0000   0.0000   0.0000   0.0000   0.0000
     0.0000   0.0000   0.0000   0.0000   0.0000   0.0000   0.0000   0.0000
     0.0000   0.0000   0.0000   0.0000   0.0000   0.0000   0.0000   0.0000
     0.0000   0.0000   0.0000   0.0000   0.0000   0.0000   0.0000   0.0000
     0.0000   0.0000   0.0000   0.0000   0.0000   0.0000   0.0000   0.0000
     0.0000   0.0000   0.0000   0.0000   0.0000   0.0000   0.0000   0.0000
     0.0000   0.0000   0.0000   0.0000   0.0000   0.0000   0.0000   0.0000
     0.0000   0.0000   0.0000   0.0000   0.0000   0.0000   0.0000   0.0000
     0.0000   0.0000   0.0000   0.0000   0.0000   0.0000   0.0000   0.0000
     0.0000   0.0000   0.0000   0.0000   0.0000   0.0000   0.0000   0.0000
     0.0000   0.0000   0.0000   0.0000   0.0000   0.0000   0.0000   0.0000
     0.0000   0.0000   0.0000   0.0000   0.0000   0.0000   0.0000   0.0000
     0.0000   0.0000   0.0000   0.0000   0.0000   0.0000   0.0000   0.0000
     0.0000   0.0000   0.0000   0.0000   0.0000   0.0000   0.0000   0.0000
     0.0000   0.0000   0.0000   0.0000   0.0000   0.0000   0.0000   0.0000
     0.0000   0.0000   0.0000   0.0000   0.0000   0.0000   0.0000   0.0000
     0.0000   0.0000   0.0000   0.0000   0.0000   0.0000   0.0000   0.0000
     0.0000   0.0000   0.0000   0.0000   0.0000   0.0000   0.0000   0.0000
     0.0000   0.0000   0.0000   0.0000   0.0000   0.0000   0.0000   0.0000
     0.0000   0.0000   0.0000   0.0000   0.0000   0.0000   0.0000   0.0000
     0.0000   0.0000   0.0000   0.0000   0.0000   0.0000   0.0000   0.0000
     0.0000   0.0000   0.0000   0.0000   0.0000   0.0000   0.0000   0.0000
     0.0000   0.0000   0.0000   0.0000   0.0000   0.0000   0.0000   0.0000
     0.0000   0.0000   0.0000   0.0000   0.0000   0.0000   0.0000   0.0000
     0.0000   0.0000   0.0000   0.0000   0.0000   0.0000   0.0000   0.0000
     0.0000   0.0000   0.0000   0.0000   0.0000   0.0000   0.0000   0.0000
     0.0000   0.0000   0.0000   0.0000   0.0000   0.0000   0.0000   0.0000
     0.0000   0.0000   0.0000   0.0000   0.0000   0.0000   0.0000   0.0000
     0.0000   0.0000   0.0000   0.0000   0.0000   0.0000   0.0000   0.0000
     0.0000   0.0000   0.0000   0.0000   0.0000   0.0000   0.0000   0.0000
     0.0000   0.0000   0.0000   0.0000   0.0000   0.0000   0.0000   0.0000
     0.0000   0.0000   0.0000   0.0000   0.0000   0.0000   0.0000   0.0000

 ------ SPIN DOWN ----------


          k = 0.0000 0.0000 0.0000 ( 54564 PWs)   bands (ev):

    -8.2642  -7.4396  -7.2589  -7.2576  -7.2158  -7.2063  -7.1217  -6.5992
    -6.2578  -6.2564  -6.2504  -6.2466  -6.2341  -6.2090  -6.2053  -6.1967
    -6.1522  -6.1312  -5.9640  -5.4841  -5.2304  -5.2260  -5.2165  -5.2022
    -5.1892  -5.1826  -5.0183  -4.4195  -4.2383  -4.2325  -4.2124  -4.2095
    -4.1549  -3.8269  -3.3480  -3.3480  -3.3416  -3.3397  -3.3387  -3.3262
    -3.3236  -3.3232  -3.3138  -3.3071  -3.3065  -3.3004  -3.3001  -3.2957
    -3.2668  -3.2584  -3.2528  -3.2522  -3.2485  -3.2326  -3.1580  -3.1428
    -2.9865  -2.7958  -2.5781  -2.5720  -2.5451  -2.5434  -2.5378  -2.5306
    -2.5230  -2.5229  -2.5189  -2.5081  -2.5069  -2.4867  -2.4855  -2.4843
    -2.4704  -2.4650  -2.4386  -2.4302  -2.4065  -2.3891  -2.2406  -2.2247
    -1.5620  -1.0254  -0.8651  -0.8639  -0.8282  -0.8240  -0.8175  -0.8140
    -0.8114  -0.8058  -0.7410  -0.7332  -0.3600   0.3920   0.4342   0.4368
     0.4575   0.4642   0.4998   0.7310   0.8883   0.8952   0.9307   0.9399
     0.9405   0.9464   0.9517   0.9530   0.9541   0.9696   0.9758   0.9799
     0.9803   1.0046   1.0406   1.0506   1.0562   1.0757   1.0770   1.0836
     1.1026   1.1071   1.1222   1.1420   1.1441   1.1528   1.1614   1.1645
     1.1657   1.1679   1.1718   1.1770   1.1903   1.1974   1.1999   1.2190
     1.2213   1.2244   1.2284   1.2340   1.2432   1.2474   1.2816   1.4739
     1.6179   1.6324   1.9926   2.2356   2.2360   2.2474   2.2763   2.2795
     2.2809   2.2939   2.3109   2.3119   2.4884   2.4938   3.4600   3.7445
     3.7458   3.7659   3.8114   3.8206   3.8217   3.8229   3.8266   3.8316
     3.8323   3.8334   3.8485   3.8524   3.8574   3.8691   3.8811   3.9984
     4.0028   4.0062   4.0458   4.3938   4.3965   4.4323   4.4869   4.4921
     4.4944   4.4969   4.5019   4.5021   4.5100   4.5112   4.5126   4.5216
     4.5252   4.5269   4.5378   4.5393   4.5545   4.5567   4.5668   4.5685
     4.8075   4.8079   5.2728   5.2759   5.2940   5.3318   5.3345   5.3364
     5.3372   5.3440   5.3471   5.3558   5.3597   5.3633   5.3759   5.3766
     5.4273   5.4352   5.4384   5.4487   5.4551   5.4918   5.4955   5.5488
     5.5719   5.5720   5.6705   5.7684   5.7712   5.8621   5.8634   5.8643
     5.8750   5.8766   5.8820   5.8872   5.8909   5.8933   5.8994   5.9089
     5.9128   5.9146   5.9356   5.9411   5.9464   5.9473   5.9714   5.9728
     5.9960   6.0111   6.0164   6.0522   6.0623   6.3457   6.4032   6.4112
     6.8700   6.8738   6.9314   6.9509   6.9717   6.9750   7.1463   7.4157
     7.4186   7.4891   7.4897   7.4931   7.5069   7.5113   7.5121   7.5445
     7.5947   7.6000   7.7458   7.7486   7.8675   7.8844   7.8862   7.8910
     7.9027   7.9029   7.9107   7.9278   7.9557   7.9587   7.9670   8.0968
     8.1088   8.1224   8.1474   8.1509   8.1514   8.1646   8.1664   8.1680
     8.1699   8.1764   8.1779   8.1824   8.1864   8.1908   8.2170   8.2202
     8.2276   8.2361   8.2367   8.2442   8.2445   8.2454   8.2947   8.3000
     8.3232   8.3509   8.3545   8.3551   8.3571   8.3588   8.3621   8.3621
     8.3646   8.3651   8.3723   8.3723   8.3789   8.3803   8.3848   8.3850
     8.3862   8.3915   8.3922   8.3997   8.4022   8.4030   8.4166   8.4175
     8.4207   8.4247   8.4391   8.4436   8.4513   8.4604   8.4612   8.4715
     8.4781   8.5083   8.5112   8.5284   8.5475   8.5655   8.5736   8.5790
     8.5858   8.6790   8.7183   8.9437   8.9569   8.9605   9.1145   9.1203
     9.1756   9.1791   9.1805   9.1860   9.2114   9.2175   9.2180   9.2264
     9.2365   9.2424   9.2524   9.2533   9.2593   9.2735   9.2768   9.2797
     9.3395   9.3467   9.4184  10.0619  10.2296  10.2309  10.5571  10.5604
    10.5966  10.6002  10.6038  10.6166  10.6185  10.6335  10.6363  10.6606
    10.6933  10.7016  10.7124  10.7923  10.7991  10.8555  10.8559  10.8586
    10.8624  10.8719  10.8750  10.8771  10.8830  10.9072  10.9121  10.9293
    10.9375  10.9463  10.9530  10.9633  10.9744  11.5323  11.5693  11.5727
    11.7704  11.7744  11.7792  11.8064  11.8067  11.8104  11.8411  11.8680
    11.8985  12.2171  13.0630  13.0701  13.0762  14.4925  16.3341  16.4886
    17.3560  17.3669  17.3850  17.4243  17.4257  17.4443  17.9383  18.0111
    18.0139  18.0243  18.0281  18.0834  18.1248  18.1373  18.2103  18.2494
    18.2494  18.2587  18.8588  18.8700  18.8761  19.4621  19.5370  19.5390
    19.5515  19.5882  19.5927  19.5961  19.6039  19.6111  19.6158  19.6190
    19.6584  20.0771  20.2446  20.2446  20.2748  20.2770  20.2785  20.2838
    20.2856  20.2863  20.2960  20.2968  20.3074  20.3132  20.3208  20.3223
    20.3429  20.3518  20.3519  20.3822  20.3943  20.4095  20.4284  20.4356
    20.4398  20.7015  20.7090  20.7242  20.7463  20.7511  20.7670  20.7672
    20.7712  20.7737  20.7783  20.7894  20.7898  20.8128  20.8313  20.8373
    20.8607  20.8649  20.8663  20.8788  20.8805  20.8829  20.8930  20.9048
    20.9116  20.9152  20.9269  20.9321  20.9389  20.9444  20.9520  20.9573
    20.9687  20.9834  20.9877  20.9911  21.0246  21.0736  21.0825  21.0896
    21.1227  21.1332  21.1468  21.2625  21.3453  21.3521  21.3704  21.3907
    21.3948  21.4003  21.4023  21.4030  21.4042  21.4090  21.4119  21.4201
    21.4257  21.4308  21.4446  21.4479  21.4493  21.4547  21.4557  21.4577
    21.4763  21.4808  21.4859  21.4866  21.4970  21.5108  21.5165  21.5199
    21.5242  21.5375  21.5456  21.5662  21.5905  21.6164  21.6878  21.6894
    21.7009  21.7166  21.7270  21.7337  21.7378  21.7453  21.7503  21.7534
    21.7591  21.7596  21.7956  21.8010  21.8079  21.8209  21.8738  21.8787
    21.9043  21.9966  22.0356  22.0402  22.0509  22.0701  22.1493  22.1515
    22.1571  22.2132  22.2311  22.2337  22.2345  22.2484  22.2496  22.3870
    22.3940  22.3956  22.4700  22.5129  22.5144  22.5301  22.5355  22.5356
    22.7245  22.7645  22.7656  22.9218  23.0094  23.0341  23.0412  23.1531
    23.1573  23.1635  23.1715  23.1717  23.1788  23.1832  23.1898  23.1939
    23.1984  23.2020  23.2135  23.2458  23.2653  23.2716  23.2828  23.3414
    23.3928  23.4023  23.4158  23.4167  23.4878  23.5239  23.5324  23.8241
    23.8317  23.8345  23.8405  23.8481  23.8542  23.8597  23.8708  23.8745
    23.8902  23.9016  23.9044  23.9075  23.9141  23.9369  23.9383  23.9714
    24.0121  24.0282  24.0327  24.1692  24.1706  24.2615  24.2701  24.3067
    24.3084  24.3154  24.3271  24.3548  24.3586  24.3588  24.3615  24.3661
    24.3805  24.4156  24.4202  24.4203  24.4619  24.4628  24.4732  24.4784
    24.4832  24.4868  24.4921  24.5094  24.5305  24.5501  24.5596  24.5632
    24.5685  24.5783  24.5845  24.5888  24.5935  24.6005  24.6034  24.6316
    24.6344  24.6544  24.6548  24.6821  24.6864  24.7582  24.7591  24.9362
    24.9544  24.9672  25.0235  25.5606  25.5893  25.6197  25.7173  25.8613
    25.8816  25.8895  25.8967  25.9028  26.0325  26.0410  26.0467  26.0494
    26.1004  26.1098  26.1632  26.1881  26.1954  26.1987  26.2849  26.3292
    26.3584  26.5522  26.6424  26.6429  26.6636  26.6855  26.6972  26.7022
    26.7044  26.7308  26.7388  26.7521  26.7558  26.7679  26.8327  26.8370
    26.8384  26.8444  26.8623  26.8671  26.9111  26.9167  26.9173  27.0163
    27.0254  27.1076  27.1130  27.1328  27.1394  27.1454  27.1473  27.1523
    27.1648  27.1659  27.1670  27.1700  27.1702  27.1994  27.2016  27.2339
    27.2352  27.2570  27.2670  27.2887  27.2927  27.2941  27.2998  27.3019
    27.3120  27.3219  27.3266  27.3296  27.3403  27.3492  27.3547  27.3597
    27.3617  27.3659  27.3767  27.4004  27.4020  27.4105  27.4105  27.4183
    27.4212  27.4296  27.4300  27.4353  27.4434  27.4450  27.4760  27.4885

     occupation numbers 
     1.0000   1.0000   1.0000   1.0000   1.0000   1.0000   1.0000   1.0000
     1.0000   1.0000   1.0000   1.0000   1.0000   1.0000   1.0000   1.0000
     1.0000   1.0000   1.0000   1.0000   1.0000   1.0000   1.0000   1.0000
     1.0000   1.0000   1.0000   1.0000   1.0000   1.0000   1.0000   1.0000
     1.0000   1.0000   1.0000   1.0000   1.0000   1.0000   1.0000   1.0000
     1.0000   1.0000   1.0000   1.0000   1.0000   1.0000   1.0000   1.0000
     1.0000   1.0000   1.0000   1.0000   1.0000   1.0000   1.0000   1.0000
     1.0000   1.0000   1.0000   1.0000   1.0000   1.0000   1.0000   1.0000
     1.0000   1.0000   1.0000   1.0000   1.0000   1.0000   1.0000   1.0000
     1.0000   1.0000   1.0000   1.0000   1.0000   1.0000   1.0000   1.0000
     1.0000   1.0000   1.0000   1.0000   1.0000   1.0000   1.0000   1.0000
     1.0000   1.0000   1.0000   1.0000   1.0000   1.0000   1.0000   1.0000
     1.0000   1.0000   1.0000   1.0000   1.0000   1.0000   1.0000   1.0000
     1.0000   1.0000   1.0000   1.0000   1.0000   1.0000   1.0000   1.0000
     1.0000   1.0000   1.0000   1.0000   1.0000   1.0000   1.0000   1.0000
     1.0000   1.0000   1.0000   1.0000   1.0000   1.0000   1.0000   1.0000
     1.0000   1.0000   1.0000   1.0000   1.0000   1.0000   1.0000   1.0000
     1.0000   1.0000   1.0000   1.0000   1.0000   1.0000   1.0000   1.0000
     1.0000   1.0000   1.0000   1.0000   1.0000   1.0000   1.0000   1.0000
     1.0000   1.0000   1.0000   1.0000   1.0000   1.0000   1.0000   1.0000
     1.0000   1.0000   1.0000   1.0000   1.0000   1.0000   1.0000   1.0000
     1.0000   1.0000   1.0000   1.0000   1.0000   1.0000   1.0000   1.0000
     1.0000   1.0000   1.0000   1.0000   1.0000   1.0000   1.0000   1.0000
     1.0000   1.0000   1.0000   1.0000   1.0000   1.0000   1.0000   1.0000
     1.0000   1.0000   1.0000   1.0000   1.0000   1.0000   1.0000   1.0000
     1.0000   1.0000   1.0000   1.0000   1.0000   1.0000   1.0000   1.0000
     1.0000   1.0000   1.0000   1.0000   1.0000   1.0000   1.0000   1.0000
     1.0000   1.0000   1.0000   1.0000   1.0000   1.0000   1.0000   1.0000
     1.0000   1.0000   1.0000   1.0000   1.0000   1.0000   1.0000   1.0000
     1.0000   1.0000   1.0000   1.0000   1.0000   1.0000   1.0000   1.0000
     1.0000   1.0000   1.0000   1.0000   1.0000   1.0000   1.0000   1.0000
     1.0000   1.0000   1.0000   1.0000   1.0000   1.0000   1.0000   1.0000
     1.0000   1.0000   1.0000   1.0000   1.0000   1.0000   1.0000   1.0000
     1.0000   1.0000   1.0000   1.0000   1.0000   1.0000   1.0000   1.0000
     1.0000   1.0000   1.0000   1.0000   1.0000   1.0000   1.0000   1.0000
     1.0000   1.0000   1.0000   1.0000   1.0000   1.0000   1.0000   1.0000
     1.0000   1.0000   1.0000   1.0000   1.0000   1.0000   1.0000   1.0000
     1.0000   1.0000   1.0000   1.0000   1.0000   1.0000   1.0000   1.0000
     1.0000   1.0000   1.0000   1.0000   1.0000   1.0000   1.0000   1.0000
     1.0000   1.0000   1.0000   1.0000   1.0000   1.0000   1.0000   1.0000
     1.0000   1.0000   1.0000   1.0000   1.0000   1.0000   1.0000   1.0000
     1.0000   1.0000   1.0000   1.0000   1.0000   1.0000   1.0000   1.0000
     1.0000   1.0000   1.0000   1.0000   1.0000   1.0000   1.0000   1.0000
     1.0000   1.0000   1.0000   1.0000   1.0000   1.0000   1.0000   1.0000
     1.0000   1.0000   1.0000   1.0000   1.0000   1.0000   1.0000   1.0000
     1.0000   1.0000   1.0000   1.0000   1.0000   1.0000   1.0000   1.0000
     1.0000   1.0000   1.0000   1.0000   1.0000   1.0000   1.0000   1.0000
     1.0000   1.0000   1.0000   1.0000   1.0000   1.0000   1.0000   1.0000
     1.0000   1.0000   1.0000   1.0000   1.0000   1.0000   1.0000   1.0000
     1.0000   1.0000   1.0000   1.0000   1.0000   1.0000   1.0000   1.0000
     1.0000   1.0000   1.0000   1.0000   1.0000   1.0000   1.0000   1.0000
     1.0000   1.0000   1.0000   1.0000   1.0000   1.0000   1.0000   1.0000
     1.0000   1.0000   1.0000   1.0000   1.0000   1.0000   1.0000   1.0000
     1.0000   1.0000   1.0000   1.0000   1.0000   1.0000   0.0000   0.0000
     0.0000   0.0000   0.0000   0.0000   0.0000   0.0000   0.0000   0.0000
     0.0000   0.0000   0.0000   0.0000   0.0000   0.0000   0.0000   0.0000
     0.0000   0.0000   0.0000   0.0000   0.0000   0.0000   0.0000   0.0000
     0.0000   0.0000   0.0000   0.0000   0.0000   0.0000   0.0000   0.0000
     0.0000   0.0000   0.0000   0.0000   0.0000   0.0000   0.0000   0.0000
     0.0000   0.0000   0.0000   0.0000   0.0000   0.0000   0.0000   0.0000
     0.0000   0.0000   0.0000   0.0000   0.0000   0.0000   0.0000   0.0000
     0.0000   0.0000   0.0000   0.0000   0.0000   0.0000   0.0000   0.0000
     0.0000   0.0000   0.0000   0.0000   0.0000   0.0000   0.0000   0.0000
     0.0000   0.0000   0.0000   0.0000   0.0000   0.0000   0.0000   0.0000
     0.0000   0.0000   0.0000   0.0000   0.0000   0.0000   0.0000   0.0000
     0.0000   0.0000   0.0000   0.0000   0.0000   0.0000   0.0000   0.0000
     0.0000   0.0000   0.0000   0.0000   0.0000   0.0000   0.0000   0.0000
     0.0000   0.0000   0.0000   0.0000   0.0000   0.0000   0.0000   0.0000
     0.0000   0.0000   0.0000   0.0000   0.0000   0.0000   0.0000   0.0000
     0.0000   0.0000   0.0000   0.0000   0.0000   0.0000   0.0000   0.0000
     0.0000   0.0000   0.0000   0.0000   0.0000   0.0000   0.0000   0.0000
     0.0000   0.0000   0.0000   0.0000   0.0000   0.0000   0.0000   0.0000
     0.0000   0.0000   0.0000   0.0000   0.0000   0.0000   0.0000   0.0000
     0.0000   0.0000   0.0000   0.0000   0.0000   0.0000   0.0000   0.0000
     0.0000   0.0000   0.0000   0.0000   0.0000   0.0000   0.0000   0.0000
     0.0000   0.0000   0.0000   0.0000   0.0000   0.0000   0.0000   0.0000
     0.0000   0.0000   0.0000   0.0000   0.0000   0.0000   0.0000   0.0000
     0.0000   0.0000   0.0000   0.0000   0.0000   0.0000   0.0000   0.0000
     0.0000   0.0000   0.0000   0.0000   0.0000   0.0000   0.0000   0.0000
     0.0000   0.0000   0.0000   0.0000   0.0000   0.0000   0.0000   0.0000
     0.0000   0.0000   0.0000   0.0000   0.0000   0.0000   0.0000   0.0000
     0.0000   0.0000   0.0000   0.0000   0.0000   0.0000   0.0000   0.0000
     0.0000   0.0000   0.0000   0.0000   0.0000   0.0000   0.0000   0.0000
     0.0000   0.0000   0.0000   0.0000   0.0000   0.0000   0.0000   0.0000
     0.0000   0.0000   0.0000   0.0000   0.0000   0.0000   0.0000   0.0000
     0.0000   0.0000   0.0000   0.0000   0.0000   0.0000   0.0000   0.0000
     0.0000   0.0000   0.0000   0.0000   0.0000   0.0000   0.0000   0.0000
     0.0000   0.0000   0.0000   0.0000   0.0000   0.0000   0.0000   0.0000
     0.0000   0.0000   0.0000   0.0000   0.0000   0.0000   0.0000   0.0000
     0.0000   0.0000   0.0000   0.0000   0.0000   0.0000   0.0000   0.0000
     0.0000   0.0000   0.0000   0.0000   0.0000   0.0000   0.0000   0.0000
     0.0000   0.0000   0.0000   0.0000   0.0000   0.0000   0.0000   0.0000
     0.0000   0.0000   0.0000   0.0000   0.0000   0.0000   0.0000   0.0000
     0.0000   0.0000   0.0000   0.0000   0.0000   0.0000   0.0000   0.0000
     0.0000   0.0000   0.0000   0.0000   0.0000   0.0000   0.0000   0.0000
     0.0000   0.0000   0.0000   0.0000   0.0000   0.0000   0.0000   0.0000
     0.0000   0.0000   0.0000   0.0000   0.0000   0.0000   0.0000   0.0000
     0.0000   0.0000   0.0000   0.0000   0.0000   0.0000   0.0000   0.0000
     0.0000   0.0000   0.0000   0.0000   0.0000   0.0000   0.0000   0.0000
     0.0000   0.0000   0.0000   0.0000   0.0000   0.0000   0.0000   0.0000

     highest occupied, lowest unoccupied level (ev):    15.1160   16.3341

!    total energy              =   -2456.50673850 Ry
     Harris-Foulkes estimate   =   -2456.50673850 Ry
     estimated scf accuracy    <          4.5E-11 Ry

     The total energy is the sum of the following terms:

     one-electron contribution =     835.99605255 Ry
     hartree contribution      =     217.59165691 Ry
     xc contribution           =    -767.29577777 Ry
     ewald contribution        =   -2742.79867018 Ry

     total magnetization       =     2.00 Bohr mag/cell
     absolute magnetization    =     2.28 Bohr mag/cell

     convergence has been achieved in  20 iterations

     Forces acting on atoms (cartesian axes, Ry/au):

     atom    1 type  1   force =    -0.00000395    0.00000599    0.00008209
     atom    2 type  1   force =    -0.00000027    0.00002998    0.00003116
     atom    3 type  1   force =    -0.00002417   -0.00003817   -0.00001364
     atom    4 type  1   force =    -0.00002982   -0.00002026    0.00002891
     atom    5 type  1   force =    -0.00000906   -0.00008020    0.00002895
     atom    6 type  1   force =    -0.00001686    0.00003146   -0.00000357
     atom    7 type  1   force =     0.00000714    0.00000212    0.00001093
     atom    8 type  1   force =    -0.00000453   -0.00002424   -0.00000286
     atom    9 type  1   force =    -0.00007177   -0.00023435   -0.00003242
     atom   10 type  1   force =    -0.00008252    0.00007480    0.00003180
     atom   11 type  1   force =    -0.00001225   -0.00003270   -0.00003547
     atom   12 type  1   force =    -0.00010152    0.00019281    0.00028009
     atom   13 type  1   force =    -0.00015032   -0.00014995   -0.00003827
     atom   14 type  1   force =     0.00009699   -0.00018485   -0.00006584
     atom   15 type  1   force =     0.00002999   -0.00005453    0.00001277
     atom   16 type  1   force =    -0.00007305    0.00007545    0.00002151
     atom   17 type  1   force =    -0.00010984   -0.00001500    0.00004765
     atom   18 type  1   force =    -0.00001954   -0.00002793    0.00012858
     atom   19 type  1   force =    -0.00002572    0.00001483   -0.00001910
     atom   20 type  1   force =    -0.00001503    0.00000370   -0.00001808
     atom   21 type  1   force =     0.00006746    0.00000803    0.00000217
     atom   22 type  1   force =     0.00002777    0.00003393   -0.00000531
     atom   23 type  1   force =     0.00000254   -0.00001657   -0.00007090
     atom   24 type  1   force =     0.00007168    0.00006386    0.00005834
     atom   25 type  1   force =    -0.00004616    0.00009404    0.00004322
     atom   26 type  1   force =    -0.00003043   -0.00003244    0.00004501
     atom   27 type  1   force =    -0.00002444   -0.00013233    0.00008251
     atom   28 type  1   force =     0.00016115    0.00090013   -0.00015191
     atom   29 type  1   force =     0.00003781   -0.00000377   -0.00000095
     atom   30 type  1   force =     0.00001213    0.00002834    0.00000616
     atom   31 type  1   force =     0.00008741    0.00027352    0.00008991
     atom   32 type  1   force =     0.00007308    0.00012215    0.00006663
     atom   33 type  1   force =     0.00000602   -0.00004661   -0.00002957
     atom   34 type  1   force =    -0.00019389    0.00039328    0.00009072
     atom   35 type  1   force =    -0.00088599   -0.00137726   -0.00005153
     atom   36 type  1   force =     0.00028681   -0.00001862    0.00005533
     atom   37 type  1   force =     0.00011072   -0.00015633   -0.00004854
     atom   38 type  1   force =    -0.00002167    0.00004153    0.00001052
     atom   39 type  1   force =    -0.00008149   -0.00018731   -0.00005010
     atom   40 type  1   force =     0.00009590   -0.00006099   -0.00014833
     atom   41 type  1   force =     0.00041827    0.00028687   -0.00022201
     atom   42 type  1   force =    -0.00018643    0.00000677    0.00008420
     atom   43 type  1   force =     0.00028113    0.00239056    0.00027996
     atom   44 type  1   force =     0.00040160   -0.00062660    0.00039610
     atom   45 type  1   force =     0.00004959    0.00009834   -0.00004058
     atom   46 type  1   force =     0.00004586   -0.00003455   -0.00003597
     atom   47 type  1   force =    -0.00003460    0.00000637   -0.00019589
     atom   48 type  1   force =    -0.00002253    0.00000058    0.00017618
     atom   49 type  1   force =     0.00001338    0.00011540   -0.00009232
     atom   50 type  1   force =    -0.00007004   -0.00000640   -0.00004263
     atom   51 type  1   force =    -0.00007184    0.00002299    0.00005857
     atom   52 type  1   force =     0.00005053    0.00014821   -0.00002738
     atom   53 type  1   force =     0.00012272   -0.00038643   -0.00001531
     atom   54 type  1   force =    -0.00007302    0.00007315   -0.00006037
     atom   55 type  1   force =     0.00001853   -0.00003482    0.00003250
     atom   56 type  1   force =     0.00000510    0.00008938    0.00001187
     atom   57 type  1   force =    -0.00020401   -0.00293442    0.00045968
     atom   58 type  1   force =     0.00011179    0.00019760   -0.00013780
     atom   59 type  1   force =    -0.00076336   -0.00141755    0.00020210
     atom   60 type  1   force =    -0.00020376   -0.00034253    0.00015339
     atom   61 type  1   force =    -0.00037278    0.00000174    0.00021959
     atom   62 type  1   force =     0.00006831   -0.00005788    0.00007014
     atom   63 type  1   force =    -0.00000494   -0.00010715    0.00013311
     atom   64 type  1   force =    -0.00008258    0.00013845   -0.00003461
     atom   65 type  1   force =    -0.00100645    0.00100413    0.00080678
     atom   66 type  1   force =     0.00017489   -0.00017691    0.00003080
     atom   67 type  1   force =     0.00004599    0.00002120    0.00004780
     atom   68 type  1   force =     0.00002582    0.00009727    0.00001509
     atom   69 type  1   force =    -0.00009238    0.00011451    0.00001178
     atom   70 type  1   force =    -0.00003524   -0.00000587   -0.00007345
     atom   71 type  1   force =    -0.00000569    0.00009922    0.00002249
     atom   72 type  1   force =    -0.00005872    0.00000120    0.00000938
     atom   73 type  1   force =     0.00002538   -0.00008403   -0.00000163
     atom   74 type  1   force =    -0.00000376    0.00003001   -0.00002049
     atom   75 type  1   force =    -0.00000191    0.00000011    0.00000260
     atom   76 type  1   force =     0.00000102   -0.00003910    0.00000218
     atom   77 type  1   force =    -0.00000636   -0.00003194   -0.00000734
     atom   78 type  1   force =    -0.00007639    0.00006772   -0.00010525
     atom   79 type  1   force =     0.00000962   -0.00005577    0.00003412
     atom   80 type  1   force =     0.00002364    0.00007171   -0.00007381
     atom   81 type  1   force =    -0.00001080   -0.00003424   -0.00000152
     atom   82 type  1   force =    -0.00011138    0.00007027   -0.00007518
     atom   83 type  1   force =     0.00000570   -0.00012301    0.00007219
     atom   84 type  1   force =    -0.00004249    0.00001705   -0.00006822
     atom   85 type  1   force =     0.00019168    0.00000833    0.00004556
     atom   86 type  1   force =     0.00001169   -0.00001418    0.00001622
     atom   87 type  1   force =     0.00003470    0.00001648    0.00003782
     atom   88 type  1   force =    -0.00009489   -0.00001065   -0.00009534
     atom   89 type  1   force =     0.00040652   -0.00036579    0.00036181
     atom   90 type  1   force =     0.00005846    0.00004777   -0.00000243
     atom   91 type  1   force =    -0.00000461   -0.00003459   -0.00001548
     atom   92 type  1   force =     0.00003121   -0.00002277   -0.00003157
     atom   93 type  1   force =    -0.00003064   -0.00023167   -0.00006331
     atom   94 type  1   force =     0.00003446    0.00007379   -0.00007830
     atom   95 type  1   force =    -0.00002368   -0.00004242    0.00003233
     atom   96 type  1   force =     0.00003486    0.00003226   -0.00004843
     atom   97 type  1   force =    -0.00000063   -0.00000144    0.00003776
     atom   98 type  1   force =     0.00001087    0.00002380    0.00000575
     atom   99 type  1   force =    -0.00005743    0.00003468   -0.00005546
     atom  100 type  1   force =    -0.00018185   -0.00030430   -0.00017738
     atom  101 type  1   force =    -0.00000476    0.00004831    0.00001774
     atom  102 type  1   force =    -0.00000356    0.00000292    0.00003858
     atom  103 type  1   force =    -0.00004363   -0.00019065   -0.00008581
     atom  104 type  1   force =    -0.00014503   -0.00005725    0.00009462
     atom  105 type  1   force =     0.00001389    0.00004846   -0.00000853
     atom  106 type  1   force =     0.00004254    0.00000770   -0.00000364
     atom  107 type  1   force =     0.00006095   -0.00000378   -0.00002742
     atom  108 type  1   force =     0.00007248   -0.00010523   -0.00003757
     atom  109 type  1   force =    -0.00011289    0.00003649    0.00004233
     atom  110 type  1   force =     0.00039160    0.00085728   -0.00027404
     atom  111 type  1   force =    -0.00029860    0.00081136   -0.00029723
     atom  112 type  1   force =    -0.00139651   -0.00183733   -0.00139149
     atom  113 type  1   force =     0.00008621    0.00004656   -0.00005427
     atom  114 type  1   force =     0.00029290    0.00006035    0.00021486
     atom  115 type  1   force =     0.00007766   -0.00012936   -0.00002366
     atom  116 type  1   force =    -0.00014661    0.00090819    0.00015928
     atom  117 type  1   force =    -0.00002882   -0.00004890    0.00001072
     atom  118 type  1   force =     0.00009015    0.00039966   -0.00019874
     atom  119 type  1   force =     0.00119475   -0.00017227   -0.00041437
     atom  120 type  1   force =    -0.00506242    0.00499264    0.00589286
     atom  121 type  1   force =    -0.00001147   -0.00039075    0.00012291
     atom  122 type  1   force =    -0.00005767    0.00007485   -0.00007267
     atom  123 type  1   force =     0.00003804   -0.00004771    0.00003870
     atom  124 type  1   force =     0.00003386    0.00005168    0.00003845
     atom  125 type  1   force =    -0.00001660    0.00002177   -0.00002060
     atom  126 type  1   force =    -0.00002927    0.00003297   -0.00020247
     atom  127 type  1   force =     0.00013904   -0.00010945   -0.00000244
     atom  128 type  1   force =    -0.00003222    0.00013522   -0.00008460
     atom  129 type  1   force =    -0.00002304    0.00002064   -0.00002025
     atom  130 type  1   force =    -0.00019329    0.00003492   -0.00001911
     atom  131 type  1   force =     0.00004912   -0.00009076    0.00004426
     atom  132 type  1   force =     0.00083052   -0.00092326   -0.00056088
     atom  133 type  1   force =    -0.00064746    0.00022518    0.00011550
     atom  134 type  1   force =    -0.00031756   -0.00096644   -0.00781579
     atom  135 type  1   force =     0.00002915   -0.00005158    0.00003427
     atom  136 type  1   force =    -0.00044122    0.00053906   -0.00043512
     atom  137 type  1   force =     0.00003235    0.00035907   -0.00008747
     atom  138 type  1   force =    -0.00023741    0.00010056    0.00026762
     atom  139 type  1   force =     0.00004951    0.00001851   -0.00007544
     atom  140 type  1   force =    -0.00003021    0.00015257    0.00005084
     atom  141 type  1   force =     0.00045493   -0.00294173   -0.00019540
     atom  142 type  1   force =    -0.00013709    0.00019399    0.00010427
     atom  143 type  1   force =     0.00112228   -0.00164334    0.00158791
     atom  144 type  1   force =    -0.00016925    0.00035343    0.00038752
     atom  145 type  1   force =    -0.00003493   -0.00014949   -0.00014872
     atom  146 type  1   force =    -0.00006800   -0.00019262    0.00009586
     atom  147 type  1   force =     0.00006805   -0.00012121    0.00000143
     atom  148 type  1   force =    -0.00007764    0.00001519   -0.00004319
     atom  149 type  1   force =     0.00036176   -0.00037344    0.00040955
     atom  150 type  1   force =    -0.00000453    0.00004837    0.00006337
     atom  151 type  1   force =    -0.00007654   -0.00001635    0.00000319
     atom  152 type  1   force =     0.00005681    0.00006573    0.00007277
     atom  153 type  1   force =     0.00004704    0.00001308    0.00018675
     atom  154 type  1   force =     0.00001638   -0.00000957    0.00002216
     atom  155 type  1   force =     0.00002365    0.00011851    0.00002554
     atom  156 type  1   force =     0.00000970    0.00004702    0.00001047
     atom  157 type  1   force =    -0.00003289   -0.00002980   -0.00016185
     atom  158 type  1   force =     0.00005311    0.00013495    0.00007442
     atom  159 type  1   force =     0.00003399   -0.00004556   -0.00002563
     atom  160 type  1   force =    -0.00004772    0.00003401    0.00003620
     atom  161 type  1   force =    -0.00016049   -0.00002948   -0.00002963
     atom  162 type  1   force =     0.00007764    0.00013193    0.00005389
     atom  163 type  1   force =    -0.00003665   -0.00002914   -0.00000410
     atom  164 type  1   force =     0.00027126    0.00019399   -0.00010680
     atom  165 type  1   force =     0.00004195   -0.00001254   -0.00010482
     atom  166 type  1   force =     0.00013033   -0.00002875   -0.00002796
     atom  167 type  1   force =    -0.00005583   -0.00014761   -0.00005108
     atom  168 type  1   force =     0.00019295   -0.00003923    0.00019478
     atom  169 type  1   force =    -0.00004717   -0.00015770    0.00011350
     atom  170 type  1   force =     0.00000710    0.00004184   -0.00002495
     atom  171 type  1   force =    -0.00002053   -0.00001114    0.00006054
     atom  172 type  1   force =    -0.00003918   -0.00009327    0.00006464
     atom  173 type  1   force =    -0.00005479    0.00004534    0.00008597
     atom  174 type  1   force =     0.00022007    0.00006307    0.00029671
     atom  175 type  1   force =    -0.00019610    0.00000239   -0.00004139
     atom  176 type  1   force =     0.00018103    0.00000771   -0.00003128
     atom  177 type  1   force =     0.00004642    0.00004501   -0.00011597
     atom  178 type  1   force =    -0.00027729    0.00085448    0.00039998
     atom  179 type  1   force =     0.00007413    0.00065807    0.00040894
     atom  180 type  1   force =     0.00063397    0.00067220   -0.00080502
     atom  181 type  1   force =    -0.00042211   -0.00017186    0.00119113
     atom  182 type  1   force =     0.00590119    0.00497928   -0.00505103
     atom  183 type  1   force =     0.00041234    0.00065196    0.00006975
     atom  184 type  1   force =    -0.00080751    0.00068202    0.00063554
     atom  185 type  1   force =    -0.00004214   -0.00138308   -0.00089540
     atom  186 type  1   force =     0.00005635   -0.00001474    0.00028273
     atom  187 type  1   force =    -0.00022144    0.00028878    0.00041457
     atom  188 type  1   force =     0.00008751    0.00001321   -0.00018620
     atom  189 type  1   force =    -0.00915249    0.02728908   -0.00917716
     atom  190 type  1   force =     0.00320105   -0.00575169    0.00320006
     atom  191 type  1   force =     0.00021256   -0.00000516   -0.00037222
     atom  192 type  1   force =     0.00007413   -0.00006112    0.00006537
     atom  193 type  1   force =     0.00004284   -0.00008915    0.00005096
     atom  194 type  1   force =    -0.00056792   -0.00092219    0.00083054
     atom  195 type  1   force =    -0.00008766    0.00034976    0.00003284
     atom  196 type  1   force =     0.00027099    0.00010204   -0.00023986
     atom  197 type  1   force =     0.00001594    0.00010192   -0.00000367
     atom  198 type  1   force =     0.00000258   -0.00000274   -0.00006557
     atom  199 type  1   force =     0.00011725    0.00022220   -0.00064990
     atom  200 type  1   force =    -0.00782717   -0.00096877   -0.00030462
     atom  201 type  1   force =     0.00045819    0.00049045    0.00045280
     atom  202 type  1   force =     0.00007498    0.00044611    0.00007123
     atom  203 type  1   force =     0.01946019   -0.01420591   -0.01074089
     atom  204 type  1   force =     0.00347561    0.00125680    0.00279986
     atom  205 type  1   force =     0.00159657   -0.00165709    0.00113499
     atom  206 type  1   force =     0.00039530    0.00035637   -0.00017226
     atom  207 type  1   force =    -0.01074351   -0.01422594    0.01945376
     atom  208 type  1   force =     0.00279049    0.00126762    0.00347453
     atom  209 type  1   force =     0.00021177   -0.00141043   -0.00076338
     atom  210 type  1   force =     0.00015374   -0.00034757   -0.00020257
     atom  211 type  1   force =     0.00081479    0.00099802   -0.00101195
     atom  212 type  1   force =     0.00002548   -0.00017178    0.00017240
     atom  213 type  1   force =    -0.00054964   -0.00158106   -0.00055064
     atom  214 type  1   force =     0.00031481   -0.00033025    0.00030692
     atom  215 type  2   force =    -0.00449599    0.00389793   -0.00450410
     The non-local contrib.  to forces
     atom    1 type  1   force =     0.00513875    0.00394158    0.00336254
     atom    2 type  1   force =     0.00346058    0.00257851    0.00166967
     atom    3 type  1   force =     0.00530645   -0.00192250   -0.00243398
     atom    4 type  1   force =     0.00420486   -0.00288993   -0.00288475
     atom    5 type  1   force =     0.00311534    0.00323018   -0.00292897
     atom    6 type  1   force =     0.00144433    0.00220484   -0.00096936
     atom    7 type  1   force =     0.00278817   -0.00266082    0.00278994
     atom    8 type  1   force =     0.00133686   -0.00060090    0.00134346
     atom    9 type  1   force =     0.01123047    0.01048337   -0.01236674
     atom   10 type  1   force =     0.00521705    0.00302385    0.00005355
     atom   11 type  1   force =     0.00241368   -0.00160984   -0.00977886
     atom   12 type  1   force =     0.01401310   -0.01560350   -0.01911210
     atom   13 type  1   force =     0.00574832    0.00646755   -0.01491396
     atom   14 type  1   force =     0.00298004    0.00317487   -0.00131301
     atom   15 type  1   force =     0.00370341   -0.00180710   -0.00702970
     atom   16 type  1   force =     0.00278652   -0.00452860   -0.00287147
     atom   17 type  1   force =     0.00556521    0.01228378   -0.00191125
     atom   18 type  1   force =     0.00737825    0.00277306    0.00495519
     atom   19 type  1   force =     0.00921637   -0.00548663    0.00922247
     atom   20 type  1   force =     0.00474339   -0.00309716    0.00474403
     atom   21 type  1   force =     0.00334576    0.00394528    0.00514604
     atom   22 type  1   force =     0.00166260    0.00258310    0.00345869
     atom   23 type  1   force =     0.00502906   -0.00200757    0.00942557
     atom   24 type  1   force =     0.00295075   -0.00331578    0.00065320
     atom   25 type  1   force =     0.01014499   -0.01149971    0.00848202
     atom   26 type  1   force =     0.00452860   -0.00033424    0.00177393
     atom   27 type  1   force =     0.00251059   -0.01192711   -0.00407417
     atom   28 type  1   force =     0.01705304   -0.01678541   -0.01850760
     atom   29 type  1   force =     0.00362255   -0.00762753   -0.00207571
     atom   30 type  1   force =     0.00312553   -0.00326635   -0.00452158
     atom   31 type  1   force =     0.00574548   -0.01575965    0.00574743
     atom   32 type  1   force =     0.00288326    0.00064354    0.00287390
     atom   33 type  1   force =     0.00435528   -0.01157260   -0.01050469
     atom   34 type  1   force =     0.02144538   -0.02128932   -0.01906176
     atom   35 type  1   force =     0.06062884   -0.01388329   -0.00236506
     atom   36 type  1   force =     0.03472462   -0.00472082   -0.00340213
     atom   37 type  1   force =     0.01033785   -0.00647248   -0.00245494
     atom   38 type  1   force =     0.00476255   -0.00844156   -0.00211651
     atom   39 type  1   force =     0.01124830   -0.00434483   -0.00580698
     atom   40 type  1   force =     0.00558871   -0.00242304   -0.00796821
     atom   41 type  1   force =     0.02821548   -0.02700735    0.04906416
     atom   42 type  1   force =     0.02333520   -0.00966891    0.00325068
     atom   43 type  1   force =     0.03385179   -0.05462668    0.03384762
     atom   44 type  1   force =     0.01807047    0.01899839    0.01806096
     atom   45 type  1   force =     0.00849366   -0.01149478    0.01014866
     atom   46 type  1   force =     0.00177216   -0.00033471    0.00452567
     atom   47 type  1   force =     0.01632489   -0.00874364    0.00475914
     atom   48 type  1   force =     0.00229472   -0.00041522    0.00688006
     atom   49 type  1   force =     0.00602292   -0.00166200    0.01041172
     atom   50 type  1   force =     0.00744683    0.00470725    0.00092401
     atom   51 type  1   force =     0.00999085    0.01060998   -0.00736169
     atom   52 type  1   force =     0.00565660    0.00618864   -0.00401407
     atom   53 type  1   force =     0.00618843    0.00676834   -0.00352856
     atom   54 type  1   force =     0.00378823    0.00163559   -0.00392894
     atom   55 type  1   force =     0.00335984    0.00487654    0.00337970
     atom   56 type  1   force =     0.00176417    0.00440817    0.00177337
     atom   57 type  1   force =     0.03648647    0.04545754   -0.03628637
     atom   58 type  1   force =     0.02777213    0.00471577   -0.00894762
     atom   59 type  1   force =     0.03700277    0.03746496   -0.05710777
     atom   60 type  1   force =     0.01880249    0.01862434    0.02026812
     atom   61 type  1   force =     0.01720300    0.00329038   -0.00656253
     atom   62 type  1   force =     0.00308822    0.00713123   -0.00005326
     atom   63 type  1   force =     0.01007060    0.01118686   -0.01168494
     atom   64 type  1   force =     0.00240116    0.00619592   -0.00029453
     atom   65 type  1   force =     0.06309700   -0.00125447    0.00839757
     atom   66 type  1   force =     0.02664838    0.01992738    0.02033595
     atom   67 type  1   force =     0.01035820    0.00991666    0.01036304
     atom   68 type  1   force =     0.00850722    0.00951556    0.00849695
     atom   69 type  1   force =     0.01041422   -0.00166429    0.00602239
     atom   70 type  1   force =     0.00093468    0.00470845    0.00744237
     atom   71 type  1   force =     0.01090651    0.00606747   -0.00064814
     atom   72 type  1   force =     0.00128360    0.00814973    0.00417191
     atom   73 type  1   force =    -0.00293669    0.00322509    0.00312580
     atom   74 type  1   force =    -0.00097357    0.00220035    0.00144248
     atom   75 type  1   force =    -0.00208222   -0.00216025   -0.00207831
     atom   76 type  1   force =    -0.00194564   -0.00175788   -0.00194089
     atom   77 type  1   force =    -0.00696223    0.00377100   -0.00184628
     atom   78 type  1   force =    -0.00396940    0.00391662   -0.00535283
     atom   79 type  1   force =    -0.00703139   -0.00180787    0.00370882
     atom   80 type  1   force =    -0.00287274   -0.00453647    0.00278919
     atom   81 type  1   force =    -0.00185375    0.00376750   -0.00695433
     atom   82 type  1   force =    -0.00536082    0.00392085   -0.00396625
     atom   83 type  1   force =    -0.00136879   -0.00103306   -0.00886598
     atom   84 type  1   force =    -0.00560258   -0.00573773    0.00724295
     atom   85 type  1   force =    -0.00555880    0.01183483   -0.00118057
     atom   86 type  1   force =    -0.00798010    0.00606305   -0.00268374
     atom   87 type  1   force =    -0.00750610   -0.00208669   -0.00750252
     atom   88 type  1   force =    -0.00150124   -0.00707981   -0.00150245
     atom   89 type  1   force =    -0.00218710    0.00551585    0.00988793
     atom   90 type  1   force =    -0.00383688    0.00387315    0.00072000
     atom   91 type  1   force =    -0.00241830   -0.00191787    0.00531636
     atom   92 type  1   force =    -0.00288402   -0.00289372    0.00420735
     atom   93 type  1   force =    -0.01236391    0.01048720    0.01124289
     atom   94 type  1   force =     0.00005471    0.00302032    0.00522485
     atom   95 type  1   force =    -0.00559190   -0.00069355    0.00231655
     atom   96 type  1   force =    -0.00095386   -0.01092522    0.00415307
     atom   97 type  1   force =    -0.00207096   -0.00762448    0.00362107
     atom   98 type  1   force =    -0.00451582   -0.00327320    0.00311852
     atom   99 type  1   force =    -0.00120451   -0.00984935   -0.00120422
     atom  100 type  1   force =    -0.00587243    0.00606340   -0.00586872
     atom  101 type  1   force =    -0.00745312   -0.00800870   -0.00218287
     atom  102 type  1   force =    -0.00188384   -0.00276044   -0.00668010
     atom  103 type  1   force =    -0.00579479   -0.00434712    0.01124298
     atom  104 type  1   force =    -0.00796148   -0.00242397    0.00558627
     atom  105 type  1   force =    -0.00218467   -0.00800722   -0.00746023
     atom  106 type  1   force =    -0.00667627   -0.00275443   -0.00188404
     atom  107 type  1   force =    -0.00334811   -0.00672322   -0.00600416
     atom  108 type  1   force =    -0.01815193   -0.00437260   -0.00341789
     atom  109 type  1   force =    -0.02994841   -0.02950328   -0.04994843
     atom  110 type  1   force =     0.12621016    0.11990846   -0.12464883
     atom  111 type  1   force =    -0.03016910   -0.04786147   -0.03016621
     atom  112 type  1   force =     0.11991302   -0.13135917    0.11991496
     atom  113 type  1   force =    -0.00192069   -0.00606888    0.00241611
     atom  114 type  1   force =    -0.01113808   -0.00261355    0.00365516
     atom  115 type  1   force =    -0.00407665   -0.01192322    0.00250997
     atom  116 type  1   force =    -0.01850123   -0.01677739    0.01705316
     atom  117 type  1   force =    -0.01049935   -0.01157314    0.00435884
     atom  118 type  1   force =    -0.01906101   -0.02128334    0.02143846
     atom  119 type  1   force =    -0.04228391   -0.04265612   -0.01706425
     atom  120 type  1   force =    -0.10257940   -0.06780211    0.07650446
     atom  121 type  1   force =    -0.00352347    0.00676527    0.00619098
     atom  122 type  1   force =    -0.00392110    0.00163674    0.00378474
     atom  123 type  1   force =    -0.00200306    0.00490130   -0.00199831
     atom  124 type  1   force =    -0.00324403    0.00562372   -0.00323930
     atom  125 type  1   force =    -0.00610464    0.00160376   -0.00191151
     atom  126 type  1   force =    -0.00184337    0.00497720   -0.01246229
     atom  127 type  1   force =    -0.01167884    0.01118643    0.01007506
     atom  128 type  1   force =    -0.00029023    0.00618885    0.00239753
     atom  129 type  1   force =    -0.00191778    0.00160160   -0.00610479
     atom  130 type  1   force =    -0.01244745    0.00497917   -0.00183289
     atom  131 type  1   force =    -0.00308420    0.00258006   -0.01023956
     atom  132 type  1   force =    -0.01613760    0.01440386   -0.01982408
     atom  133 type  1   force =    -0.04334160   -0.01856343   -0.04266017
     atom  134 type  1   force =    -0.09622755    0.05943667   -0.07976748
     atom  135 type  1   force =    -0.01100478    0.00417105   -0.01099500
     atom  136 type  1   force =    -0.02434160    0.02424420   -0.02433877
     atom  137 type  1   force =    -0.00696961   -0.00139799   -0.00147363
     atom  138 type  1   force =    -0.02815481    0.00502946    0.00459328
     atom  139 type  1   force =    -0.00737277    0.01060567    0.00998952
     atom  140 type  1   force =    -0.00401792    0.00619046    0.00565639
     atom  141 type  1   force =    -0.03629196    0.04545229    0.03649950
     atom  142 type  1   force =    -0.00894426    0.00471130    0.02776058
     atom  143 type  1   force =    -0.03210757    0.03255942    0.05177945
     atom  144 type  1   force =    -0.00887517    0.02667099    0.00409047
     atom  145 type  1   force =    -0.01491084    0.00646985    0.00575438
     atom  146 type  1   force =    -0.00131629    0.00316118    0.00298101
     atom  147 type  1   force =    -0.00887164   -0.00103187   -0.00137515
     atom  148 type  1   force =     0.00722922   -0.00574095   -0.00560257
     atom  149 type  1   force =     0.00988660    0.00550429   -0.00218056
     atom  150 type  1   force =     0.00071386    0.00387330   -0.00383110
     atom  151 type  1   force =     0.00942135   -0.00200554    0.00502729
     atom  152 type  1   force =     0.00064536   -0.00331441    0.00295326
     atom  153 type  1   force =    -0.00117937    0.01184117   -0.00556214
     atom  154 type  1   force =    -0.00268445    0.00606965   -0.00796625
     atom  155 type  1   force =    -0.00523041   -0.00124468   -0.00522781
     atom  156 type  1   force =    -0.00319370   -0.01563339   -0.00318980
     atom  157 type  1   force =     0.00532975    0.01948592   -0.00852437
     atom  158 type  1   force =     0.00701460    0.00445522    0.00061245
     atom  159 type  1   force =     0.00231658   -0.00069720   -0.00559526
     atom  160 type  1   force =     0.00415117   -0.01092114   -0.00095135
     atom  161 type  1   force =    -0.00852377    0.01948702    0.00533516
     atom  162 type  1   force =     0.00061426    0.00445138    0.00701805
     atom  163 type  1   force =    -0.00977858   -0.00160269    0.00242274
     atom  164 type  1   force =    -0.01912747   -0.01560291    0.01400908
     atom  165 type  1   force =    -0.00191587    0.01228702    0.00557168
     atom  166 type  1   force =     0.00495451    0.00277128    0.00737231
     atom  167 type  1   force =    -0.00086304   -0.00385661   -0.00085842
     atom  168 type  1   force =     0.00387048   -0.02419314    0.00387655
     atom  169 type  1   force =    -0.00244952   -0.00647202    0.01033617
     atom  170 type  1   force =    -0.00211961   -0.00844420    0.00476003
     atom  171 type  1   force =    -0.00599436   -0.00673136   -0.00335088
     atom  172 type  1   force =    -0.00341799   -0.00435854   -0.01816367
     atom  173 type  1   force =     0.00241702   -0.00607045   -0.00192298
     atom  174 type  1   force =     0.00365865   -0.00260910   -0.01113129
     atom  175 type  1   force =     0.00476154   -0.00874617    0.01631158
     atom  176 type  1   force =     0.00688747   -0.00040943    0.00228154
     atom  177 type  1   force =    -0.04994073   -0.02949213   -0.02995398
     atom  178 type  1   force =    -0.12465184    0.11990778    0.12621818
     atom  179 type  1   force =    -0.01384061   -0.03713824   -0.03451224
     atom  180 type  1   force =     0.05369108   -0.08429597   -0.05764297
     atom  181 type  1   force =    -0.01707611   -0.04265583   -0.04228935
     atom  182 type  1   force =     0.07651571   -0.06781996   -0.10256807
     atom  183 type  1   force =    -0.03450310   -0.03714211   -0.01385007
     atom  184 type  1   force =    -0.05764515   -0.08428407    0.05368714
     atom  185 type  1   force =    -0.00234970   -0.01388301    0.06061250
     atom  186 type  1   force =    -0.00339948   -0.00471821    0.03471535
     atom  187 type  1   force =     0.04906895   -0.02699878    0.02820553
     atom  188 type  1   force =     0.00325221   -0.00966170    0.02333701
     atom  189 type  1   force =     0.17778554   -0.17353460    0.17774772
     atom  190 type  1   force =     0.07320457    0.04338364    0.07319631
     atom  191 type  1   force =    -0.00657165    0.00328391    0.01720405
     atom  192 type  1   force =    -0.00004689    0.00712297    0.00308321
     atom  193 type  1   force =    -0.01024438    0.00258275   -0.00307810
     atom  194 type  1   force =    -0.01982975    0.01440062   -0.01613509
     atom  195 type  1   force =    -0.00147277   -0.00140904   -0.00697123
     atom  196 type  1   force =     0.00459890    0.00502892   -0.02815814
     atom  197 type  1   force =    -0.00066046    0.00606811    0.01091094
     atom  198 type  1   force =     0.00416304    0.00814349    0.00127745
     atom  199 type  1   force =    -0.04266501   -0.01856831   -0.04334355
     atom  200 type  1   force =    -0.07978440    0.05943629   -0.09621546
     atom  201 type  1   force =    -0.00203155    0.06762115   -0.00203181
     atom  202 type  1   force =    -0.00339444    0.03630335   -0.00340211
     atom  203 type  1   force =     0.26309493    0.20972799   -0.27380890
     atom  204 type  1   force =     0.08707753    0.07592068    0.07107092
     atom  205 type  1   force =     0.05178509    0.03254069   -0.03208873
     atom  206 type  1   force =     0.00410088    0.02667287   -0.00887940
     atom  207 type  1   force =    -0.27381169    0.20969837    0.26307315
     atom  208 type  1   force =     0.07106013    0.07593123    0.08707283
     atom  209 type  1   force =    -0.05709966    0.03747442    0.03700251
     atom  210 type  1   force =     0.02027016    0.01861824    0.01880463
     atom  211 type  1   force =     0.00840323   -0.00125904    0.06308860
     atom  212 type  1   force =     0.02033048    0.01993292    0.02664168
     atom  213 type  1   force =    -0.00172728    0.06712661   -0.00172568
     atom  214 type  1   force =     0.02317320    0.02676023    0.02316329
     atom  215 type  2   force =    -0.77626537   -0.76469868   -0.77626687
     The ionic contribution  to forces
     atom    1 type  1   force =    -0.02060749   -0.06826716   -0.03457726
     atom    2 type  1   force =    -0.02147137   -0.00176428    0.00268755
     atom    3 type  1   force =    -0.00466732    0.03096864    0.02182078
     atom    4 type  1   force =    -0.08120335    0.10283722    0.07404275
     atom    5 type  1   force =    -0.02704712   -0.05037104    0.00417504
     atom    6 type  1   force =    -0.01983858   -0.01793053    0.02844725
     atom    7 type  1   force =    -0.02120167    0.00794288   -0.02125826
     atom    8 type  1   force =    -0.01705921    0.06027281   -0.01702504
     atom    9 type  1   force =    -0.04137266   -0.07025216    0.04628464
     atom   10 type  1   force =    -0.07197959   -0.00722267    0.05012428
     atom   11 type  1   force =    -0.10456625    0.12589330   -0.02213462
     atom   12 type  1   force =    -0.11331916    0.12578998   -0.05758177
     atom   13 type  1   force =    -0.04505739   -0.07167843   -0.04430349
     atom   14 type  1   force =    -0.02185935   -0.03108772    0.01945997
     atom   15 type  1   force =    -0.06069939    0.01922691    0.00062074
     atom   16 type  1   force =    -0.08061629    0.06603030    0.04396944
     atom   17 type  1   force =    -0.10513254   -0.13122634   -0.02417551
     atom   18 type  1   force =    -0.05225278   -0.01403740   -0.01480494
     atom   19 type  1   force =    -0.04155912    0.03718133   -0.04159726
     atom   20 type  1   force =    -0.04072129    0.08378485   -0.04071910
     atom   21 type  1   force =    -0.03458768   -0.06826655   -0.02062855
     atom   22 type  1   force =     0.00265355   -0.00174148   -0.02148464
     atom   23 type  1   force =    -0.04561329    0.04234278    0.02213360
     atom   24 type  1   force =    -0.00042601    0.09717596   -0.01015081
     atom   25 type  1   force =    -0.03979756    0.08147518   -0.03681620
     atom   26 type  1   force =    -0.08454414    0.10425306    0.01106800
     atom   27 type  1   force =    -0.10621599    0.01424241    0.12153775
     atom   28 type  1   force =    -0.16023075    0.01181283    0.13913250
     atom   29 type  1   force =    -0.05975787    0.03324310    0.01013102
     atom   30 type  1   force =    -0.08478478    0.09216869    0.04004228
     atom   31 type  1   force =    -0.04269312   -0.01999966   -0.04275103
     atom   32 type  1   force =    -0.02051265    0.05340065   -0.02055169
     atom   33 type  1   force =    -0.08124152    0.17649356    0.12705771
     atom   34 type  1   force =    -0.26737472    0.19931188    0.14304715
     atom   35 type  1   force =    -0.73351855    0.26600464    0.15844721
     atom   36 type  1   force =    -0.44090781    0.01968812   -0.01088913
     atom   37 type  1   force =    -0.15375783    0.15541714    0.00652218
     atom   38 type  1   force =    -0.07550967    0.12465384    0.04333863
     atom   39 type  1   force =    -0.16309098    0.04452576    0.10643064
     atom   40 type  1   force =    -0.08782642    0.05376818    0.08668514
     atom   41 type  1   force =    -0.20026740    0.27424951   -0.14385028
     atom   42 type  1   force =    -0.18887548    0.16357643   -0.12612930
     atom   43 type  1   force =    -0.22554443    0.17926291   -0.22559383
     atom   44 type  1   force =    -0.11423849    0.08003813   -0.11430583
     atom   45 type  1   force =    -0.03672614    0.08149007   -0.03986245
     atom   46 type  1   force =     0.01105526    0.10423962   -0.08460893
     atom   47 type  1   force =    -0.16857399    0.11140838   -0.06264227
     atom   48 type  1   force =    -0.01685944    0.02029112   -0.06295360
     atom   49 type  1   force =    -0.12667439   -0.02742486   -0.11183921
     atom   50 type  1   force =    -0.06605409   -0.04815814   -0.00587688
     atom   51 type  1   force =    -0.06120501   -0.10841020    0.04512451
     atom   52 type  1   force =    -0.04353967   -0.07960636    0.05243783
     atom   53 type  1   force =    -0.07204366   -0.02637944    0.04633448
     atom   54 type  1   force =    -0.01449126   -0.03859603    0.06751299
     atom   55 type  1   force =    -0.04038075   -0.06928380   -0.04031818
     atom   56 type  1   force =    -0.00024597   -0.04878489   -0.00024557
     atom   57 type  1   force =    -0.28085772   -0.24896773    0.30257124
     atom   58 type  1   force =    -0.20540465   -0.16877171    0.11200379
     atom   59 type  1   force =    -0.22547669   -0.29677742    0.12697210
     atom   60 type  1   force =    -0.10461221   -0.15656901    0.06083771
     atom   61 type  1   force =    -0.18646715   -0.07197876    0.06955599
     atom   62 type  1   force =    -0.02982243   -0.09509179    0.00999723
     atom   63 type  1   force =    -0.06115839   -0.10102170    0.05818893
     atom   64 type  1   force =    -0.00446839   -0.11376181    0.05449783
     atom   65 type  1   force =    -0.80796941   -0.20938323   -0.22325358
     atom   66 type  1   force =    -0.23005120   -0.16381402   -0.13113598
     atom   67 type  1   force =    -0.14389455   -0.18824521   -0.14389969
     atom   68 type  1   force =    -0.05800308   -0.09286661   -0.05806023
     atom   69 type  1   force =    -0.11186007   -0.02742827   -0.12669558
     atom   70 type  1   force =    -0.00581046   -0.04819818   -0.06617027
     atom   71 type  1   force =    -0.11379808   -0.16180021   -0.01738694
     atom   72 type  1   force =    -0.00918895   -0.10161725   -0.01834724
     atom   73 type  1   force =     0.00417991   -0.05033793   -0.02703125
     atom   74 type  1   force =     0.02843645   -0.01792028   -0.01984904
     atom   75 type  1   force =    -0.02712951   -0.01832480   -0.02712534
     atom   76 type  1   force =    -0.00738241    0.02737837   -0.00733654
     atom   77 type  1   force =     0.00157167   -0.08424031   -0.00007516
     atom   78 type  1   force =     0.03862913   -0.07369472    0.02195780
     atom   79 type  1   force =     0.00063705    0.01926787   -0.06073728
     atom   80 type  1   force =     0.04390643    0.06597889   -0.08059373
     atom   81 type  1   force =    -0.00011266   -0.08428919    0.00162419
     atom   82 type  1   force =     0.02193579   -0.07368607    0.03866442
     atom   83 type  1   force =    -0.02449808   -0.00292653   -0.01336449
     atom   84 type  1   force =     0.02344200    0.05720621    0.14767302
     atom   85 type  1   force =     0.09544849   -0.16212207    0.02406994
     atom   86 type  1   force =     0.07812934   -0.07684841    0.05057455
     atom   87 type  1   force =    -0.01037021   -0.06118173   -0.01035073
     atom   88 type  1   force =     0.08189115   -0.06561584    0.08196419
     atom   89 type  1   force =     0.02791129   -0.08016461    0.02405889
     atom   90 type  1   force =     0.06044418   -0.01515473   -0.00328570
     atom   91 type  1   force =     0.02186912    0.03100735   -0.00471032
     atom   92 type  1   force =     0.07397778    0.10281313   -0.08124031
     atom   93 type  1   force =     0.04625860   -0.07020199   -0.04136854
     atom   94 type  1   force =     0.05008685   -0.00722547   -0.07199001
     atom   95 type  1   force =     0.10215036    0.06638556    0.07122053
     atom   96 type  1   force =     0.16476658    0.23157846   -0.06134979
     atom   97 type  1   force =     0.01018676    0.03325697   -0.05982458
     atom   98 type  1   force =     0.03999834    0.09212978   -0.08481152
     atom   99 type  1   force =    -0.01665212    0.01153878   -0.01660732
     atom  100 type  1   force =     0.03610351    0.13762649    0.03611834
     atom  101 type  1   force =    -0.00391384    0.03264187   -0.07570599
     atom  102 type  1   force =     0.08517977    0.12217807   -0.09252717
     atom  103 type  1   force =     0.10643839    0.04453377   -0.16314694
     atom  104 type  1   force =     0.08668562    0.05375280   -0.08791086
     atom  105 type  1   force =    -0.07567744    0.03264002   -0.00393883
     atom  106 type  1   force =    -0.09254074    0.12224027    0.08519987
     atom  107 type  1   force =     0.00309340    0.14468459    0.12145436
     atom  108 type  1   force =     0.20038014    0.12466738    0.13496049
     atom  109 type  1   force =    -0.08563180   -0.03400734    0.19860790
     atom  110 type  1   force =     0.26235346    0.30648288    1.31154821
     atom  111 type  1   force =    -0.06217654    0.24715158   -0.06211293
     atom  112 type  1   force =     0.29991375    1.25366773    0.29993868
     atom  113 type  1   force =     0.05275624    0.15336987    0.07290735
     atom  114 type  1   force =     0.22551042    0.23918018   -0.08018778
     atom  115 type  1   force =     0.12153002    0.01424469   -0.10629523
     atom  116 type  1   force =     0.13914820    0.01185655   -0.16031389
     atom  117 type  1   force =     0.12705965    0.17650198   -0.08127575
     atom  118 type  1   force =     0.14293976    0.19928360   -0.26736135
     atom  119 type  1   force =     0.69484858    0.25647151    0.17107677
     atom  120 type  1   force =     0.83180314   -0.17555499   -0.73370506
     atom  121 type  1   force =     0.04632874   -0.02641296   -0.07206641
     atom  122 type  1   force =     0.06753573   -0.03864163   -0.01454032
     atom  123 type  1   force =     0.01667927   -0.05512649    0.01675864
     atom  124 type  1   force =     0.06481903   -0.10580413    0.06483541
     atom  125 type  1   force =     0.11178791    0.04858492    0.04115125
     atom  126 type  1   force =     0.18751517   -0.11737799    0.20130412
     atom  127 type  1   force =     0.05815959   -0.10102792   -0.06111120
     atom  128 type  1   force =     0.05451870   -0.11380709   -0.00453041
     atom  129 type  1   force =     0.04110505    0.04851993    0.11182275
     atom  130 type  1   force =     0.20137148   -0.11734141    0.18754393
     atom  131 type  1   force =     0.10270314   -0.15105387   -0.01108078
     atom  132 type  1   force =     0.09075773   -0.16404464   -0.03211204
     atom  133 type  1   force =     0.69373598    0.10128938    0.22295325
     atom  134 type  1   force =     0.67413821   -0.75033076   -0.23247012
     atom  135 type  1   force =     0.12200895   -0.12160089    0.12210385
     atom  136 type  1   force =     0.10964539   -0.26301422    0.10970813
     atom  137 type  1   force =     0.13671119   -0.05995997   -0.03101095
     atom  138 type  1   force =     0.18379094   -0.15392901   -0.08958182
     atom  139 type  1   force =     0.04508147   -0.10844554   -0.06123160
     atom  140 type  1   force =     0.05243650   -0.07960356   -0.04359133
     atom  141 type  1   force =     0.30252955   -0.24902791   -0.28084512
     atom  142 type  1   force =     0.11196615   -0.16883388   -0.20544530
     atom  143 type  1   force =     0.24097463   -0.29093293   -0.13356161
     atom  144 type  1   force =     0.10921277   -0.23875003   -0.10033838
     atom  145 type  1   force =    -0.04430807   -0.07162648   -0.04505373
     atom  146 type  1   force =     0.01937649   -0.03113340   -0.02191378
     atom  147 type  1   force =    -0.01340859   -0.00287481   -0.02453454
     atom  148 type  1   force =     0.14761385    0.05720996    0.02347728
     atom  149 type  1   force =     0.02406379   -0.08016238    0.02789104
     atom  150 type  1   force =    -0.00327265   -0.01518914    0.06049869
     atom  151 type  1   force =     0.02215832    0.04234287   -0.04564624
     atom  152 type  1   force =    -0.01016592    0.09714233   -0.00040726
     atom  153 type  1   force =     0.02401136   -0.16210625    0.09546867
     atom  154 type  1   force =     0.05056766   -0.07684272    0.07818615
     atom  155 type  1   force =     0.11366651    0.02119380    0.11366417
     atom  156 type  1   force =     0.11653084    0.22302420    0.11659139
     atom  157 type  1   force =    -0.03777341   -0.17014483    0.06461258
     atom  158 type  1   force =    -0.05378962   -0.03111761    0.00166441
     atom  159 type  1   force =     0.07123345    0.06634811    0.10217204
     atom  160 type  1   force =    -0.06137235    0.23160463    0.16485880
     atom  161 type  1   force =     0.06456029   -0.17015233   -0.03774067
     atom  162 type  1   force =     0.00166687   -0.03113220   -0.05380196
     atom  163 type  1   force =    -0.02212737    0.12595266   -0.10455458
     atom  164 type  1   force =    -0.05771478    0.12573278   -0.11330961
     atom  165 type  1   force =    -0.02420087   -0.13118279   -0.10512594
     atom  166 type  1   force =    -0.01482612   -0.01404038   -0.05230882
     atom  167 type  1   force =    -0.04283843    0.13951559   -0.04285555
     atom  168 type  1   force =    -0.10560918    0.19376258   -0.10560038
     atom  169 type  1   force =     0.00654906    0.15541006   -0.15382035
     atom  170 type  1   force =     0.04325299    0.12461911   -0.07549779
     atom  171 type  1   force =     0.12143332    0.14467642    0.00305793
     atom  172 type  1   force =     0.13495382    0.12465968    0.20035080
     atom  173 type  1   force =     0.07289745    0.15334935    0.05269533
     atom  174 type  1   force =    -0.08014464    0.23916323    0.22555613
     atom  175 type  1   force =    -0.06260872    0.11139884   -0.16864849
     atom  176 type  1   force =    -0.06293294    0.02032225   -0.01689392
     atom  177 type  1   force =     0.19858117   -0.03400510   -0.08565146
     atom  178 type  1   force =     1.31149904    0.30649084    0.26240267
     atom  179 type  1   force =     0.11747923    0.76224815    0.20318081
     atom  180 type  1   force =    -0.70019441    0.82967058   -0.38113117
     atom  181 type  1   force =     0.17107486    0.25641468    0.69486587
     atom  182 type  1   force =    -0.73359928   -0.17555433    0.83185565
     atom  183 type  1   force =     0.20318442    0.76224854    0.11741865
     atom  184 type  1   force =    -0.38121648    0.82960222   -0.70012585
     atom  185 type  1   force =     0.15844067    0.26600276   -0.73352462
     atom  186 type  1   force =    -0.01090719    0.01964554   -0.44094666
     atom  187 type  1   force =    -0.14377602    0.27424006   -0.20033063
     atom  188 type  1   force =    -0.12613971    0.16358005   -0.18888486
     atom  189 type  1   force =    -2.10575091    2.31741119   -2.10586326
     atom  190 type  1   force =    -0.81395320    0.42316359   -0.81402123
     atom  191 type  1   force =     0.06948599   -0.07197655   -0.18645426
     atom  192 type  1   force =     0.01002895   -0.09509002   -0.02989482
     atom  193 type  1   force =    -0.01116742   -0.15101072    0.10271475
     atom  194 type  1   force =    -0.03213884   -0.16399030    0.09069571
     atom  195 type  1   force =    -0.03106994   -0.05996660    0.13671637
     atom  196 type  1   force =    -0.08949436   -0.15389693    0.18381541
     atom  197 type  1   force =    -0.01742520   -0.16174601   -0.11380414
     atom  198 type  1   force =    -0.01833103   -0.10158542   -0.00921589
     atom  199 type  1   force =     0.22288244    0.10125999    0.69379415
     atom  200 type  1   force =    -0.23244466   -0.75024710    0.67416362
     atom  201 type  1   force =     0.18913247   -0.71149696    0.18916242
     atom  202 type  1   force =     0.00917729   -0.45604897    0.00915787
     atom  203 type  1   force =    -2.06966802   -2.33547838    2.22980346
     atom  204 type  1   force =    -0.67100878   -0.84237811    0.33165699
     atom  205 type  1   force =    -0.13352015   -0.29091655    0.24104139
     atom  206 type  1   force =    -0.10026980   -0.23874244    0.10920595
     atom  207 type  1   force =     2.22965781   -2.33552040   -2.06966836
     atom  208 type  1   force =     0.33167704   -0.84232696   -0.67101977
     atom  209 type  1   force =     0.12696611   -0.29675984   -0.22547707
     atom  210 type  1   force =     0.06084541   -0.15658675   -0.10463113
     atom  211 type  1   force =    -0.22324706   -0.20937502   -0.80793825
     atom  212 type  1   force =    -0.13107246   -0.16379245   -0.23010677
     atom  213 type  1   force =    -0.17486493   -0.78398696   -0.17486270
     atom  214 type  1   force =    -0.09335865   -0.25347300   -0.09341469
     atom  215 type  2   force =     3.06151197    3.13502289    3.06151831
     The local contribution  to forces
     atom    1 type  1   force =     0.01545185    0.06433969    0.03128549
     atom    2 type  1   force =     0.01799731   -0.00077657   -0.00433753
     atom    3 type  1   force =    -0.00067714   -0.02907609   -0.01941166
     atom    4 type  1   force =     0.07695609   -0.09995842   -0.07113974
     atom    5 type  1   force =     0.02391047    0.04706773   -0.00122823
     atom    6 type  1   force =     0.01836625    0.01576515   -0.02749160
     atom    7 type  1   force =     0.01840829   -0.00527171    0.01846691
     atom    8 type  1   force =     0.01570663   -0.05968651    0.01566757
     atom    9 type  1   force =     0.03005718    0.05954217   -0.03396178
     atom   10 type  1   force =     0.06666789    0.00428208   -0.05015690
     atom   11 type  1   force =     0.10212810   -0.12430766    0.03186641
     atom   12 type  1   force =     0.09919297   -0.10998508    0.07696161
     atom   13 type  1   force =     0.03914757    0.06506935    0.05916754
     atom   14 type  1   force =     0.01896540    0.02773667   -0.01822536
     atom   15 type  1   force =     0.05701445   -0.01746558    0.00641153
     atom   16 type  1   force =     0.07774611   -0.06141702   -0.04108716
     atom   17 type  1   force =     0.09944515    0.11893630    0.02612139
     atom   18 type  1   force =     0.04484315    0.01124507    0.00996502
     atom   19 type  1   force =     0.03230415   -0.03167104    0.03234279
     atom   20 type  1   force =     0.03595006   -0.08067513    0.03594417
     atom   21 type  1   force =     0.03129805    0.06433743    0.01547173
     atom   22 type  1   force =    -0.00429989   -0.00079999    0.01800742
     atom   23 type  1   force =     0.04057541   -0.04034293   -0.03164332
     atom   24 type  1   force =    -0.00246455   -0.09378763    0.00954206
     atom   25 type  1   force =     0.02959293   -0.06987227    0.02836570
     atom   26 type  1   force =     0.07997272   -0.10394071   -0.01280796
     atom   27 type  1   force =     0.10366849   -0.00243722   -0.11739224
     atom   28 type  1   force =     0.14332699    0.00588286   -0.12078807
     atom   29 type  1   force =     0.05616151   -0.02560906   -0.00806690
     atom   30 type  1   force =     0.08166076   -0.08886349   -0.03552511
     atom   31 type  1   force =     0.03702378    0.03604342    0.03708224
     atom   32 type  1   force =     0.01769154   -0.05391198    0.01773352
     atom   33 type  1   force =     0.07687983   -0.16495825   -0.11659375
     atom   34 type  1   force =     0.24572406   -0.17761939   -0.12390604
     atom   35 type  1   force =     0.67199153   -0.25348835   -0.15614608
     atom   36 type  1   force =     0.40645800   -0.01497641    0.01433353
     atom   37 type  1   force =     0.14351968   -0.14909179   -0.00412746
     atom   38 type  1   force =     0.07071407   -0.11616166   -0.04122441
     atom   39 type  1   force =     0.15175006   -0.04035807   -0.10068497
     atom   40 type  1   force =     0.08232213   -0.05139675   -0.07887731
     atom   41 type  1   force =     0.17245810   -0.24694666    0.09455148
     atom   42 type  1   force =     0.16534199   -0.15389181    0.12294951
     atom   43 type  1   force =     0.19196141   -0.12223655    0.19201378
     atom   44 type  1   force =     0.09655823   -0.09965338    0.09662956
     atom   45 type  1   force =     0.02827036   -0.06988778    0.02965972
     atom   46 type  1   force =    -0.01279262   -0.10392890    0.08003488
     atom   47 type  1   force =     0.15220334   -0.10264903    0.05767400
     atom   48 type  1   force =     0.01453161   -0.01986560    0.05623692
     atom   49 type  1   force =     0.12065259    0.02921147    0.10132438
     atom   50 type  1   force =     0.05852554    0.04345286    0.00489947
     atom   51 type  1   force =     0.05112960    0.09783114   -0.03771493
     atom   52 type  1   force =     0.03792106    0.07357325   -0.04846230
     atom   53 type  1   force =     0.06596665    0.01923384   -0.04283214
     atom   54 type  1   force =     0.01061849    0.03704162   -0.06365597
     atom   55 type  1   force =     0.03702815    0.06438024    0.03695971
     atom   56 type  1   force =    -0.00152458    0.04447286   -0.00152737
     atom   57 type  1   force =     0.24415431    0.20058535   -0.26583644
     atom   58 type  1   force =     0.17773168    0.16426182   -0.10320618
     atom   59 type  1   force =     0.18769732    0.25790264   -0.06967505
     atom   60 type  1   force =     0.08559429    0.13761059   -0.08096517
     atom   61 type  1   force =     0.16887986    0.06869906   -0.06278642
     atom   62 type  1   force =     0.02679185    0.08791146   -0.00988628
     atom   63 type  1   force =     0.05107111    0.08973527   -0.04638248
     atom   64 type  1   force =     0.00197366    0.10771227   -0.05424896
     atom   65 type  1   force =     0.74385359    0.21165109    0.21564914
     atom   66 type  1   force =     0.20356613    0.14371845    0.11081791
     atom   67 type  1   force =     0.13357007    0.17835817    0.13357218
     atom   68 type  1   force =     0.04950977    0.08345634    0.04956646
     atom   69 type  1   force =     0.10134267    0.02921628    0.12067269
     atom   70 type  1   force =     0.00482975    0.04349222    0.05864277
     atom   71 type  1   force =     0.10287498    0.15584038    0.01804466
     atom   72 type  1   force =     0.00783579    0.09347695    0.01417156
     atom   73 type  1   force =    -0.00122898    0.04703586    0.02389160
     atom   74 type  1   force =    -0.02747679    0.01575794    0.01837497
     atom   75 type  1   force =     0.02919962    0.02049418    0.02919609
     atom   76 type  1   force =     0.00931901   -0.02564992    0.00926957
     atom   77 type  1   force =     0.00537378    0.08044540    0.00190336
     atom   78 type  1   force =    -0.03474703    0.06985465   -0.01672102
     atom   79 type  1   force =     0.00639376   -0.01750702    0.05705107
     atom   80 type  1   force =    -0.04102072   -0.06136147    0.07772014
     atom   81 type  1   force =     0.00194484    0.08049547    0.00531819
     atom   82 type  1   force =    -0.01669716    0.06984431   -0.03478430
     atom   83 type  1   force =     0.02586149    0.00384520    0.02229088
     atom   84 type  1   force =    -0.01789379   -0.05144317   -0.15499715
     atom   85 type  1   force =    -0.08970943    0.15030410   -0.02285561
     atom   86 type  1   force =    -0.07014972    0.07077924   -0.04788746
     atom   87 type  1   force =     0.01790015    0.06329399    0.01788020
     atom   88 type  1   force =    -0.08049687    0.07269334   -0.08056918
     atom   89 type  1   force =    -0.02532854    0.07429125   -0.03359815
     atom   90 type  1   force =    -0.05656026    0.01133736    0.00254957
     atom   91 type  1   force =    -0.01946670   -0.02911583   -0.00063538
     atom   92 type  1   force =    -0.07107320   -0.09993305    0.07698879
     atom   93 type  1   force =    -0.03393678    0.05949086    0.03004908
     atom   94 type  1   force =    -0.05011793    0.00428741    0.06667472
     atom   95 type  1   force =    -0.09659385   -0.06572649   -0.07351802
     atom   96 type  1   force =    -0.16378933   -0.22061251    0.05713537
     atom   97 type  1   force =    -0.00812708   -0.02562365    0.05622966
     atom   98 type  1   force =    -0.03548224   -0.08882228    0.08168816
     atom   99 type  1   force =     0.01778817   -0.00164443    0.01774508
     atom  100 type  1   force =    -0.03042480   -0.14398480   -0.03043885
     atom  101 type  1   force =     0.01135157   -0.02457514    0.07789620
     atom  102 type  1   force =    -0.08331137   -0.11940557    0.09923417
     atom  103 type  1   force =    -0.10069844   -0.04036712    0.15180703
     atom  104 type  1   force =    -0.07888119   -0.05137671    0.08240775
     atom  105 type  1   force =     0.07786558   -0.02457463    0.01137989
     atom  106 type  1   force =     0.09924785   -0.11946901   -0.08333138
     atom  107 type  1   force =     0.00030435   -0.13795588   -0.11549003
     atom  108 type  1   force =    -0.18216664   -0.12039020   -0.13159247
     atom  109 type  1   force =     0.11545602    0.06355644   -0.14862972
     atom  110 type  1   force =    -0.38818335   -0.42552384   -1.18718650
     atom  111 type  1   force =     0.09203591   -0.19846947    0.09197076
     atom  112 type  1   force =    -0.42123409   -1.12413648   -0.42125599
     atom  113 type  1   force =    -0.05076119   -0.14724549   -0.07539112
     atom  114 type  1   force =    -0.21409098   -0.23649638    0.07673442
     atom  115 type  1   force =    -0.11738691   -0.00244043    0.10374913
     atom  116 type  1   force =    -0.12080487    0.00583917    0.14340814
     atom  117 type  1   force =    -0.11660028   -0.16496841    0.07691518
     atom  118 type  1   force =    -0.12379993   -0.17759072    0.24571276
     atom  119 type  1   force =    -0.65138084   -0.21397741   -0.15444038
     atom  120 type  1   force =    -0.73429770    0.24836065    0.66308015
     atom  121 type  1   force =    -0.04282769    0.01926611    0.06598705
     atom  122 type  1   force =    -0.06368386    0.03708778    0.01067142
     atom  123 type  1   force =    -0.01464956    0.05018462   -0.01473298
     atom  124 type  1   force =    -0.06155207    0.10023975   -0.06156857
     atom  125 type  1   force =    -0.10571164   -0.05015795   -0.03927218
     atom  126 type  1   force =    -0.18571248    0.11244250   -0.18905576
     atom  127 type  1   force =    -0.04635332    0.08973960    0.05102198
     atom  128 type  1   force =    -0.05427170    0.10776139    0.00203732
     atom  129 type  1   force =    -0.03922217   -0.05009193   -0.10574997
     atom  130 type  1   force =    -0.18912880    0.11240590   -0.18574159
     atom  131 type  1   force =    -0.09958100    0.14839160    0.02135294
     atom  132 type  1   force =    -0.07380085    0.14872576    0.05136297
     atom  133 type  1   force =    -0.65105233   -0.08249206   -0.18018917
     atom  134 type  1   force =    -0.57823907    0.68993593    0.30441028
     atom  135 type  1   force =    -0.11098634    0.11738674   -0.11108589
     atom  136 type  1   force =    -0.08575635    0.23931759   -0.08581584
     atom  137 type  1   force =    -0.12971997    0.06172641    0.03238450
     atom  138 type  1   force =    -0.15588417    0.14900863    0.08524318
     atom  139 type  1   force =    -0.03766991    0.09786632    0.05115391
     atom  140 type  1   force =    -0.04845998    0.07357298    0.03797324
     atom  141 type  1   force =    -0.26579392    0.20064346    0.24413731
     atom  142 type  1   force =    -0.10317116    0.16432483    0.17777637
     atom  143 type  1   force =    -0.20775578    0.25673801    0.08335745
     atom  144 type  1   force =    -0.10051889    0.21243980    0.09662204
     atom  145 type  1   force =     0.05917240    0.06501556    0.03913945
     atom  146 type  1   force =    -0.01814071    0.02778827    0.01901775
     atom  147 type  1   force =     0.02233656    0.00379410    0.02590008
     atom  148 type  1   force =    -0.15493361   -0.05144557   -0.01792977
     atom  149 type  1   force =    -0.03360173    0.07429294   -0.02531177
     atom  150 type  1   force =     0.00254058    0.01137221   -0.05661562
     atom  151 type  1   force =    -0.03166942   -0.04034482    0.04061081
     atom  152 type  1   force =     0.00956349   -0.09375349   -0.00248469
     atom  153 type  1   force =    -0.02279671    0.15028669   -0.08973121
     atom  154 type  1   force =    -0.04787963    0.07077156   -0.07020995
     atom  155 type  1   force =    -0.10842501   -0.01982220   -0.10842344
     atom  156 type  1   force =    -0.11333994   -0.20733500   -0.11340367
     atom  157 type  1   force =     0.03239765    0.15063692   -0.05626255
     atom  158 type  1   force =     0.04681547    0.02680611   -0.00221488
     atom  159 type  1   force =    -0.07352926   -0.06568854   -0.09661414
     atom  160 type  1   force =     0.05716057   -0.22064099   -0.16388274
     atom  161 type  1   force =    -0.05620943    0.15064366    0.03236271
     atom  162 type  1   force =    -0.00221588    0.02682154    0.04682512
     atom  163 type  1   force =     0.03185775   -0.12437060    0.10211550
     atom  164 type  1   force =     0.07710122   -0.10992727    0.09918216
     atom  165 type  1   force =     0.02614572    0.11889197    0.09943707
     atom  166 type  1   force =     0.00998865    0.01124901    0.04489670
     atom  167 type  1   force =     0.04363307   -0.13579794    0.04365028
     atom  168 type  1   force =     0.10191882   -0.16959998    0.10190575
     atom  169 type  1   force =    -0.00415834   -0.14908652    0.14358668
     atom  170 type  1   force =    -0.04113903   -0.11612397    0.07070144
     atom  171 type  1   force =    -0.11547186   -0.13794693    0.00034221
     atom  172 type  1   force =    -0.13158724   -0.12038458   -0.18213338
     atom  173 type  1   force =    -0.07538260   -0.14722463   -0.05069822
     atom  174 type  1   force =     0.07669302   -0.23648116   -0.21413966
     atom  175 type  1   force =     0.05763788   -0.10264095    0.15228437
     atom  176 type  1   force =     0.05621372   -0.01989537    0.01457055
     atom  177 type  1   force =    -0.14860656    0.06355156    0.11547816
     atom  178 type  1   force =    -1.18713751   -0.42553391   -0.38823221
     atom  179 type  1   force =    -0.10357797   -0.72444252   -0.16827200
     atom  180 type  1   force =     0.64712494   -0.74469323    0.43795630
     atom  181 type  1   force =    -0.15443429   -0.21392042   -0.65139630
     atom  182 type  1   force =     0.66297146    0.24836452   -0.73435017
     atom  183 type  1   force =    -0.16828131   -0.72444516   -0.10351235
     atom  184 type  1   force =     0.43804135   -0.74462696    0.64706187
     atom  185 type  1   force =    -0.15614545   -0.25349258    0.67200455
     atom  186 type  1   force =     0.01435002   -0.01493258    0.40650204
     atom  187 type  1   force =     0.09447304   -0.24694387    0.17252757
     atom  188 type  1   force =     0.12296172   -0.15389620    0.16534979
     atom  189 type  1   force =     1.91880000   -2.11657807    1.91892544
     atom  190 type  1   force =     0.74393691   -0.47228901    0.74401218
     atom  191 type  1   force =    -0.06271428    0.06869641    0.16886651
     atom  192 type  1   force =    -0.00992033    0.08791471    0.02686635
     atom  193 type  1   force =     0.02144306    0.14834736   -0.09959682
     atom  194 type  1   force =     0.05138848    0.14867573   -0.07374129
     atom  195 type  1   force =     0.03244250    0.06173480   -0.12972299
     atom  196 type  1   force =     0.08515348    0.14897856   -0.15590773
     atom  197 type  1   force =     0.01808873    0.15578825    0.10287863
     atom  198 type  1   force =     0.01415744    0.09344742    0.00786206
     atom  199 type  1   force =    -0.18011169   -0.08246076   -0.65111099
     atom  200 type  1   force =     0.30439046    0.68985031   -0.57826365
     atom  201 type  1   force =    -0.18665418    0.64437402   -0.18668934
     atom  202 type  1   force =    -0.00572066    0.42019899   -0.00569740
     atom  203 type  1   force =     1.82602002    2.11155426   -1.96674826
     atom  204 type  1   force =     0.58739303    0.76772257   -0.39994201
     atom  205 type  1   force =     0.08331906    0.25672658   -0.20782865
     atom  206 type  1   force =     0.09655085    0.21243324   -0.10051087
     atom  207 type  1   force =    -1.96660237    2.11160586    1.82603566
     atom  208 type  1   force =    -0.39996053    0.76767170    0.58740762
     atom  209 type  1   force =    -0.06966744    0.25788275    0.18769796
     atom  210 type  1   force =    -0.08097451    0.13762939    0.08561226
     atom  211 type  1   force =     0.21564503    0.21164134    0.74382533
     atom  212 type  1   force =     0.11075456    0.14369646    0.20362590
     atom  213 type  1   force =     0.17602887    0.71528729    0.17602397
     atom  214 type  1   force =     0.07048724    0.22639089    0.07054529
     atom  215 type  2   force =    -2.28975492   -2.36641576   -2.28976795
     The core correction contribution to forces
     atom    1 type  1   force =     0.00000000    0.00000000    0.00000000
     atom    2 type  1   force =     0.00000000    0.00000000    0.00000000
     atom    3 type  1   force =     0.00000000    0.00000000    0.00000000
     atom    4 type  1   force =     0.00000000    0.00000000    0.00000000
     atom    5 type  1   force =     0.00000000    0.00000000    0.00000000
     atom    6 type  1   force =     0.00000000    0.00000000    0.00000000
     atom    7 type  1   force =     0.00000000    0.00000000    0.00000000
     atom    8 type  1   force =     0.00000000    0.00000000    0.00000000
     atom    9 type  1   force =     0.00000000    0.00000000    0.00000000
     atom   10 type  1   force =     0.00000000    0.00000000    0.00000000
     atom   11 type  1   force =     0.00000000    0.00000000    0.00000000
     atom   12 type  1   force =     0.00000000    0.00000000    0.00000000
     atom   13 type  1   force =     0.00000000    0.00000000    0.00000000
     atom   14 type  1   force =     0.00000000    0.00000000    0.00000000
     atom   15 type  1   force =     0.00000000    0.00000000    0.00000000
     atom   16 type  1   force =     0.00000000    0.00000000    0.00000000
     atom   17 type  1   force =     0.00000000    0.00000000    0.00000000
     atom   18 type  1   force =     0.00000000    0.00000000    0.00000000
     atom   19 type  1   force =     0.00000000    0.00000000    0.00000000
     atom   20 type  1   force =     0.00000000    0.00000000    0.00000000
     atom   21 type  1   force =     0.00000000    0.00000000    0.00000000
     atom   22 type  1   force =     0.00000000    0.00000000    0.00000000
     atom   23 type  1   force =     0.00000000    0.00000000    0.00000000
     atom   24 type  1   force =     0.00000000    0.00000000    0.00000000
     atom   25 type  1   force =     0.00000000    0.00000000    0.00000000
     atom   26 type  1   force =     0.00000000    0.00000000    0.00000000
     atom   27 type  1   force =     0.00000000    0.00000000    0.00000000
     atom   28 type  1   force =     0.00000000    0.00000000    0.00000000
     atom   29 type  1   force =     0.00000000    0.00000000    0.00000000
     atom   30 type  1   force =     0.00000000    0.00000000    0.00000000
     atom   31 type  1   force =     0.00000000    0.00000000    0.00000000
     atom   32 type  1   force =     0.00000000    0.00000000    0.00000000
     atom   33 type  1   force =     0.00000000    0.00000000    0.00000000
     atom   34 type  1   force =     0.00000000    0.00000000    0.00000000
     atom   35 type  1   force =     0.00000000    0.00000000    0.00000000
     atom   36 type  1   force =     0.00000000    0.00000000    0.00000000
     atom   37 type  1   force =     0.00000000    0.00000000    0.00000000
     atom   38 type  1   force =     0.00000000    0.00000000    0.00000000
     atom   39 type  1   force =     0.00000000    0.00000000    0.00000000
     atom   40 type  1   force =     0.00000000    0.00000000    0.00000000
     atom   41 type  1   force =     0.00000000    0.00000000    0.00000000
     atom   42 type  1   force =     0.00000000    0.00000000    0.00000000
     atom   43 type  1   force =     0.00000000    0.00000000    0.00000000
     atom   44 type  1   force =     0.00000000    0.00000000    0.00000000
     atom   45 type  1   force =     0.00000000    0.00000000    0.00000000
     atom   46 type  1   force =     0.00000000    0.00000000    0.00000000
     atom   47 type  1   force =     0.00000000    0.00000000    0.00000000
     atom   48 type  1   force =     0.00000000    0.00000000    0.00000000
     atom   49 type  1   force =     0.00000000    0.00000000    0.00000000
     atom   50 type  1   force =     0.00000000    0.00000000    0.00000000
     atom   51 type  1   force =     0.00000000    0.00000000    0.00000000
     atom   52 type  1   force =     0.00000000    0.00000000    0.00000000
     atom   53 type  1   force =     0.00000000    0.00000000    0.00000000
     atom   54 type  1   force =     0.00000000    0.00000000    0.00000000
     atom   55 type  1   force =     0.00000000    0.00000000    0.00000000
     atom   56 type  1   force =     0.00000000    0.00000000    0.00000000
     atom   57 type  1   force =     0.00000000    0.00000000    0.00000000
     atom   58 type  1   force =     0.00000000    0.00000000    0.00000000
     atom   59 type  1   force =     0.00000000    0.00000000    0.00000000
     atom   60 type  1   force =     0.00000000    0.00000000    0.00000000
     atom   61 type  1   force =     0.00000000    0.00000000    0.00000000
     atom   62 type  1   force =     0.00000000    0.00000000    0.00000000
     atom   63 type  1   force =     0.00000000    0.00000000    0.00000000
     atom   64 type  1   force =     0.00000000    0.00000000    0.00000000
     atom   65 type  1   force =     0.00000000    0.00000000    0.00000000
     atom   66 type  1   force =     0.00000000    0.00000000    0.00000000
     atom   67 type  1   force =     0.00000000    0.00000000    0.00000000
     atom   68 type  1   force =     0.00000000    0.00000000    0.00000000
     atom   69 type  1   force =     0.00000000    0.00000000    0.00000000
     atom   70 type  1   force =     0.00000000    0.00000000    0.00000000
     atom   71 type  1   force =     0.00000000    0.00000000    0.00000000
     atom   72 type  1   force =     0.00000000    0.00000000    0.00000000
     atom   73 type  1   force =     0.00000000    0.00000000    0.00000000
     atom   74 type  1   force =     0.00000000    0.00000000    0.00000000
     atom   75 type  1   force =     0.00000000    0.00000000    0.00000000
     atom   76 type  1   force =     0.00000000    0.00000000    0.00000000
     atom   77 type  1   force =     0.00000000    0.00000000    0.00000000
     atom   78 type  1   force =     0.00000000    0.00000000    0.00000000
     atom   79 type  1   force =     0.00000000    0.00000000    0.00000000
     atom   80 type  1   force =     0.00000000    0.00000000    0.00000000
     atom   81 type  1   force =     0.00000000    0.00000000    0.00000000
     atom   82 type  1   force =     0.00000000    0.00000000    0.00000000
     atom   83 type  1   force =     0.00000000    0.00000000    0.00000000
     atom   84 type  1   force =     0.00000000    0.00000000    0.00000000
     atom   85 type  1   force =     0.00000000    0.00000000    0.00000000
     atom   86 type  1   force =     0.00000000    0.00000000    0.00000000
     atom   87 type  1   force =     0.00000000    0.00000000    0.00000000
     atom   88 type  1   force =     0.00000000    0.00000000    0.00000000
     atom   89 type  1   force =     0.00000000    0.00000000    0.00000000
     atom   90 type  1   force =     0.00000000    0.00000000    0.00000000
     atom   91 type  1   force =     0.00000000    0.00000000    0.00000000
     atom   92 type  1   force =     0.00000000    0.00000000    0.00000000
     atom   93 type  1   force =     0.00000000    0.00000000    0.00000000
     atom   94 type  1   force =     0.00000000    0.00000000    0.00000000
     atom   95 type  1   force =     0.00000000    0.00000000    0.00000000
     atom   96 type  1   force =     0.00000000    0.00000000    0.00000000
     atom   97 type  1   force =     0.00000000    0.00000000    0.00000000
     atom   98 type  1   force =     0.00000000    0.00000000    0.00000000
     atom   99 type  1   force =     0.00000000    0.00000000    0.00000000
     atom  100 type  1   force =     0.00000000    0.00000000    0.00000000
     atom  101 type  1   force =     0.00000000    0.00000000    0.00000000
     atom  102 type  1   force =     0.00000000    0.00000000    0.00000000
     atom  103 type  1   force =     0.00000000    0.00000000    0.00000000
     atom  104 type  1   force =     0.00000000    0.00000000    0.00000000
     atom  105 type  1   force =     0.00000000    0.00000000    0.00000000
     atom  106 type  1   force =     0.00000000    0.00000000    0.00000000
     atom  107 type  1   force =     0.00000000    0.00000000    0.00000000
     atom  108 type  1   force =     0.00000000    0.00000000    0.00000000
     atom  109 type  1   force =     0.00000000    0.00000000    0.00000000
     atom  110 type  1   force =     0.00000000    0.00000000    0.00000000
     atom  111 type  1   force =     0.00000000    0.00000000    0.00000000
     atom  112 type  1   force =     0.00000000    0.00000000    0.00000000
     atom  113 type  1   force =     0.00000000    0.00000000    0.00000000
     atom  114 type  1   force =     0.00000000    0.00000000    0.00000000
     atom  115 type  1   force =     0.00000000    0.00000000    0.00000000
     atom  116 type  1   force =     0.00000000    0.00000000    0.00000000
     atom  117 type  1   force =     0.00000000    0.00000000    0.00000000
     atom  118 type  1   force =     0.00000000    0.00000000    0.00000000
     atom  119 type  1   force =     0.00000000    0.00000000    0.00000000
     atom  120 type  1   force =     0.00000000    0.00000000    0.00000000
     atom  121 type  1   force =     0.00000000    0.00000000    0.00000000
     atom  122 type  1   force =     0.00000000    0.00000000    0.00000000
     atom  123 type  1   force =     0.00000000    0.00000000    0.00000000
     atom  124 type  1   force =     0.00000000    0.00000000    0.00000000
     atom  125 type  1   force =     0.00000000    0.00000000    0.00000000
     atom  126 type  1   force =     0.00000000    0.00000000    0.00000000
     atom  127 type  1   force =     0.00000000    0.00000000    0.00000000
     atom  128 type  1   force =     0.00000000    0.00000000    0.00000000
     atom  129 type  1   force =     0.00000000    0.00000000    0.00000000
     atom  130 type  1   force =     0.00000000    0.00000000    0.00000000
     atom  131 type  1   force =     0.00000000    0.00000000    0.00000000
     atom  132 type  1   force =     0.00000000    0.00000000    0.00000000
     atom  133 type  1   force =     0.00000000    0.00000000    0.00000000
     atom  134 type  1   force =     0.00000000    0.00000000    0.00000000
     atom  135 type  1   force =     0.00000000    0.00000000    0.00000000
     atom  136 type  1   force =     0.00000000    0.00000000    0.00000000
     atom  137 type  1   force =     0.00000000    0.00000000    0.00000000
     atom  138 type  1   force =     0.00000000    0.00000000    0.00000000
     atom  139 type  1   force =     0.00000000    0.00000000    0.00000000
     atom  140 type  1   force =     0.00000000    0.00000000    0.00000000
     atom  141 type  1   force =     0.00000000    0.00000000    0.00000000
     atom  142 type  1   force =     0.00000000    0.00000000    0.00000000
     atom  143 type  1   force =     0.00000000    0.00000000    0.00000000
     atom  144 type  1   force =     0.00000000    0.00000000    0.00000000
     atom  145 type  1   force =     0.00000000    0.00000000    0.00000000
     atom  146 type  1   force =     0.00000000    0.00000000    0.00000000
     atom  147 type  1   force =     0.00000000    0.00000000    0.00000000
     atom  148 type  1   force =     0.00000000    0.00000000    0.00000000
     atom  149 type  1   force =     0.00000000    0.00000000    0.00000000
     atom  150 type  1   force =     0.00000000    0.00000000    0.00000000
     atom  151 type  1   force =     0.00000000    0.00000000    0.00000000
     atom  152 type  1   force =     0.00000000    0.00000000    0.00000000
     atom  153 type  1   force =     0.00000000    0.00000000    0.00000000
     atom  154 type  1   force =     0.00000000    0.00000000    0.00000000
     atom  155 type  1   force =     0.00000000    0.00000000    0.00000000
     atom  156 type  1   force =     0.00000000    0.00000000    0.00000000
     atom  157 type  1   force =     0.00000000    0.00000000    0.00000000
     atom  158 type  1   force =     0.00000000    0.00000000    0.00000000
     atom  159 type  1   force =     0.00000000    0.00000000    0.00000000
     atom  160 type  1   force =     0.00000000    0.00000000    0.00000000
     atom  161 type  1   force =     0.00000000    0.00000000    0.00000000
     atom  162 type  1   force =     0.00000000    0.00000000    0.00000000
     atom  163 type  1   force =     0.00000000    0.00000000    0.00000000
     atom  164 type  1   force =     0.00000000    0.00000000    0.00000000
     atom  165 type  1   force =     0.00000000    0.00000000    0.00000000
     atom  166 type  1   force =     0.00000000    0.00000000    0.00000000
     atom  167 type  1   force =     0.00000000    0.00000000    0.00000000
     atom  168 type  1   force =     0.00000000    0.00000000    0.00000000
     atom  169 type  1   force =     0.00000000    0.00000000    0.00000000
     atom  170 type  1   force =     0.00000000    0.00000000    0.00000000
     atom  171 type  1   force =     0.00000000    0.00000000    0.00000000
     atom  172 type  1   force =     0.00000000    0.00000000    0.00000000
     atom  173 type  1   force =     0.00000000    0.00000000    0.00000000
     atom  174 type  1   force =     0.00000000    0.00000000    0.00000000
     atom  175 type  1   force =     0.00000000    0.00000000    0.00000000
     atom  176 type  1   force =     0.00000000    0.00000000    0.00000000
     atom  177 type  1   force =     0.00000000    0.00000000    0.00000000
     atom  178 type  1   force =     0.00000000    0.00000000    0.00000000
     atom  179 type  1   force =     0.00000000    0.00000000    0.00000000
     atom  180 type  1   force =     0.00000000    0.00000000    0.00000000
     atom  181 type  1   force =     0.00000000    0.00000000    0.00000000
     atom  182 type  1   force =     0.00000000    0.00000000    0.00000000
     atom  183 type  1   force =     0.00000000    0.00000000    0.00000000
     atom  184 type  1   force =     0.00000000    0.00000000    0.00000000
     atom  185 type  1   force =     0.00000000    0.00000000    0.00000000
     atom  186 type  1   force =     0.00000000    0.00000000    0.00000000
     atom  187 type  1   force =     0.00000000    0.00000000    0.00000000
     atom  188 type  1   force =     0.00000000    0.00000000    0.00000000
     atom  189 type  1   force =     0.00000000    0.00000000    0.00000000
     atom  190 type  1   force =     0.00000000    0.00000000    0.00000000
     atom  191 type  1   force =     0.00000000    0.00000000    0.00000000
     atom  192 type  1   force =     0.00000000    0.00000000    0.00000000
     atom  193 type  1   force =     0.00000000    0.00000000    0.00000000
     atom  194 type  1   force =     0.00000000    0.00000000    0.00000000
     atom  195 type  1   force =     0.00000000    0.00000000    0.00000000
     atom  196 type  1   force =     0.00000000    0.00000000    0.00000000
     atom  197 type  1   force =     0.00000000    0.00000000    0.00000000
     atom  198 type  1   force =     0.00000000    0.00000000    0.00000000
     atom  199 type  1   force =     0.00000000    0.00000000    0.00000000
     atom  200 type  1   force =     0.00000000    0.00000000    0.00000000
     atom  201 type  1   force =     0.00000000    0.00000000    0.00000000
     atom  202 type  1   force =     0.00000000    0.00000000    0.00000000
     atom  203 type  1   force =     0.00000000    0.00000000    0.00000000
     atom  204 type  1   force =     0.00000000    0.00000000    0.00000000
     atom  205 type  1   force =     0.00000000    0.00000000    0.00000000
     atom  206 type  1   force =     0.00000000    0.00000000    0.00000000
     atom  207 type  1   force =     0.00000000    0.00000000    0.00000000
     atom  208 type  1   force =     0.00000000    0.00000000    0.00000000
     atom  209 type  1   force =     0.00000000    0.00000000    0.00000000
     atom  210 type  1   force =     0.00000000    0.00000000    0.00000000
     atom  211 type  1   force =     0.00000000    0.00000000    0.00000000
     atom  212 type  1   force =     0.00000000    0.00000000    0.00000000
     atom  213 type  1   force =     0.00000000    0.00000000    0.00000000
     atom  214 type  1   force =     0.00000000    0.00000000    0.00000000
     atom  215 type  2   force =     0.00000000    0.00000000    0.00000000
     The Hubbard contrib.    to forces
     atom    1 type  1   force =     0.00000000    0.00000000    0.00000000
     atom    2 type  1   force =     0.00000000    0.00000000    0.00000000
     atom    3 type  1   force =     0.00000000    0.00000000    0.00000000
     atom    4 type  1   force =     0.00000000    0.00000000    0.00000000
     atom    5 type  1   force =     0.00000000    0.00000000    0.00000000
     atom    6 type  1   force =     0.00000000    0.00000000    0.00000000
     atom    7 type  1   force =     0.00000000    0.00000000    0.00000000
     atom    8 type  1   force =     0.00000000    0.00000000    0.00000000
     atom    9 type  1   force =     0.00000000    0.00000000    0.00000000
     atom   10 type  1   force =     0.00000000    0.00000000    0.00000000
     atom   11 type  1   force =     0.00000000    0.00000000    0.00000000
     atom   12 type  1   force =     0.00000000    0.00000000    0.00000000
     atom   13 type  1   force =     0.00000000    0.00000000    0.00000000
     atom   14 type  1   force =     0.00000000    0.00000000    0.00000000
     atom   15 type  1   force =     0.00000000    0.00000000    0.00000000
     atom   16 type  1   force =     0.00000000    0.00000000    0.00000000
     atom   17 type  1   force =     0.00000000    0.00000000    0.00000000
     atom   18 type  1   force =     0.00000000    0.00000000    0.00000000
     atom   19 type  1   force =     0.00000000    0.00000000    0.00000000
     atom   20 type  1   force =     0.00000000    0.00000000    0.00000000
     atom   21 type  1   force =     0.00000000    0.00000000    0.00000000
     atom   22 type  1   force =     0.00000000    0.00000000    0.00000000
     atom   23 type  1   force =     0.00000000    0.00000000    0.00000000
     atom   24 type  1   force =     0.00000000    0.00000000    0.00000000
     atom   25 type  1   force =     0.00000000    0.00000000    0.00000000
     atom   26 type  1   force =     0.00000000    0.00000000    0.00000000
     atom   27 type  1   force =     0.00000000    0.00000000    0.00000000
     atom   28 type  1   force =     0.00000000    0.00000000    0.00000000
     atom   29 type  1   force =     0.00000000    0.00000000    0.00000000
     atom   30 type  1   force =     0.00000000    0.00000000    0.00000000
     atom   31 type  1   force =     0.00000000    0.00000000    0.00000000
     atom   32 type  1   force =     0.00000000    0.00000000    0.00000000
     atom   33 type  1   force =     0.00000000    0.00000000    0.00000000
     atom   34 type  1   force =     0.00000000    0.00000000    0.00000000
     atom   35 type  1   force =     0.00000000    0.00000000    0.00000000
     atom   36 type  1   force =     0.00000000    0.00000000    0.00000000
     atom   37 type  1   force =     0.00000000    0.00000000    0.00000000
     atom   38 type  1   force =     0.00000000    0.00000000    0.00000000
     atom   39 type  1   force =     0.00000000    0.00000000    0.00000000
     atom   40 type  1   force =     0.00000000    0.00000000    0.00000000
     atom   41 type  1   force =     0.00000000    0.00000000    0.00000000
     atom   42 type  1   force =     0.00000000    0.00000000    0.00000000
     atom   43 type  1   force =     0.00000000    0.00000000    0.00000000
     atom   44 type  1   force =     0.00000000    0.00000000    0.00000000
     atom   45 type  1   force =     0.00000000    0.00000000    0.00000000
     atom   46 type  1   force =     0.00000000    0.00000000    0.00000000
     atom   47 type  1   force =     0.00000000    0.00000000    0.00000000
     atom   48 type  1   force =     0.00000000    0.00000000    0.00000000
     atom   49 type  1   force =     0.00000000    0.00000000    0.00000000
     atom   50 type  1   force =     0.00000000    0.00000000    0.00000000
     atom   51 type  1   force =     0.00000000    0.00000000    0.00000000
     atom   52 type  1   force =     0.00000000    0.00000000    0.00000000
     atom   53 type  1   force =     0.00000000    0.00000000    0.00000000
     atom   54 type  1   force =     0.00000000    0.00000000    0.00000000
     atom   55 type  1   force =     0.00000000    0.00000000    0.00000000
     atom   56 type  1   force =     0.00000000    0.00000000    0.00000000
     atom   57 type  1   force =     0.00000000    0.00000000    0.00000000
     atom   58 type  1   force =     0.00000000    0.00000000    0.00000000
     atom   59 type  1   force =     0.00000000    0.00000000    0.00000000
     atom   60 type  1   force =     0.00000000    0.00000000    0.00000000
     atom   61 type  1   force =     0.00000000    0.00000000    0.00000000
     atom   62 type  1   force =     0.00000000    0.00000000    0.00000000
     atom   63 type  1   force =     0.00000000    0.00000000    0.00000000
     atom   64 type  1   force =     0.00000000    0.00000000    0.00000000
     atom   65 type  1   force =     0.00000000    0.00000000    0.00000000
     atom   66 type  1   force =     0.00000000    0.00000000    0.00000000
     atom   67 type  1   force =     0.00000000    0.00000000    0.00000000
     atom   68 type  1   force =     0.00000000    0.00000000    0.00000000
     atom   69 type  1   force =     0.00000000    0.00000000    0.00000000
     atom   70 type  1   force =     0.00000000    0.00000000    0.00000000
     atom   71 type  1   force =     0.00000000    0.00000000    0.00000000
     atom   72 type  1   force =     0.00000000    0.00000000    0.00000000
     atom   73 type  1   force =     0.00000000    0.00000000    0.00000000
     atom   74 type  1   force =     0.00000000    0.00000000    0.00000000
     atom   75 type  1   force =     0.00000000    0.00000000    0.00000000
     atom   76 type  1   force =     0.00000000    0.00000000    0.00000000
     atom   77 type  1   force =     0.00000000    0.00000000    0.00000000
     atom   78 type  1   force =     0.00000000    0.00000000    0.00000000
     atom   79 type  1   force =     0.00000000    0.00000000    0.00000000
     atom   80 type  1   force =     0.00000000    0.00000000    0.00000000
     atom   81 type  1   force =     0.00000000    0.00000000    0.00000000
     atom   82 type  1   force =     0.00000000    0.00000000    0.00000000
     atom   83 type  1   force =     0.00000000    0.00000000    0.00000000
     atom   84 type  1   force =     0.00000000    0.00000000    0.00000000
     atom   85 type  1   force =     0.00000000    0.00000000    0.00000000
     atom   86 type  1   force =     0.00000000    0.00000000    0.00000000
     atom   87 type  1   force =     0.00000000    0.00000000    0.00000000
     atom   88 type  1   force =     0.00000000    0.00000000    0.00000000
     atom   89 type  1   force =     0.00000000    0.00000000    0.00000000
     atom   90 type  1   force =     0.00000000    0.00000000    0.00000000
     atom   91 type  1   force =     0.00000000    0.00000000    0.00000000
     atom   92 type  1   force =     0.00000000    0.00000000    0.00000000
     atom   93 type  1   force =     0.00000000    0.00000000    0.00000000
     atom   94 type  1   force =     0.00000000    0.00000000    0.00000000
     atom   95 type  1   force =     0.00000000    0.00000000    0.00000000
     atom   96 type  1   force =     0.00000000    0.00000000    0.00000000
     atom   97 type  1   force =     0.00000000    0.00000000    0.00000000
     atom   98 type  1   force =     0.00000000    0.00000000    0.00000000
     atom   99 type  1   force =     0.00000000    0.00000000    0.00000000
     atom  100 type  1   force =     0.00000000    0.00000000    0.00000000
     atom  101 type  1   force =     0.00000000    0.00000000    0.00000000
     atom  102 type  1   force =     0.00000000    0.00000000    0.00000000
     atom  103 type  1   force =     0.00000000    0.00000000    0.00000000
     atom  104 type  1   force =     0.00000000    0.00000000    0.00000000
     atom  105 type  1   force =     0.00000000    0.00000000    0.00000000
     atom  106 type  1   force =     0.00000000    0.00000000    0.00000000
     atom  107 type  1   force =     0.00000000    0.00000000    0.00000000
     atom  108 type  1   force =     0.00000000    0.00000000    0.00000000
     atom  109 type  1   force =     0.00000000    0.00000000    0.00000000
     atom  110 type  1   force =     0.00000000    0.00000000    0.00000000
     atom  111 type  1   force =     0.00000000    0.00000000    0.00000000
     atom  112 type  1   force =     0.00000000    0.00000000    0.00000000
     atom  113 type  1   force =     0.00000000    0.00000000    0.00000000
     atom  114 type  1   force =     0.00000000    0.00000000    0.00000000
     atom  115 type  1   force =     0.00000000    0.00000000    0.00000000
     atom  116 type  1   force =     0.00000000    0.00000000    0.00000000
     atom  117 type  1   force =     0.00000000    0.00000000    0.00000000
     atom  118 type  1   force =     0.00000000    0.00000000    0.00000000
     atom  119 type  1   force =     0.00000000    0.00000000    0.00000000
     atom  120 type  1   force =     0.00000000    0.00000000    0.00000000
     atom  121 type  1   force =     0.00000000    0.00000000    0.00000000
     atom  122 type  1   force =     0.00000000    0.00000000    0.00000000
     atom  123 type  1   force =     0.00000000    0.00000000    0.00000000
     atom  124 type  1   force =     0.00000000    0.00000000    0.00000000
     atom  125 type  1   force =     0.00000000    0.00000000    0.00000000
     atom  126 type  1   force =     0.00000000    0.00000000    0.00000000
     atom  127 type  1   force =     0.00000000    0.00000000    0.00000000
     atom  128 type  1   force =     0.00000000    0.00000000    0.00000000
     atom  129 type  1   force =     0.00000000    0.00000000    0.00000000
     atom  130 type  1   force =     0.00000000    0.00000000    0.00000000
     atom  131 type  1   force =     0.00000000    0.00000000    0.00000000
     atom  132 type  1   force =     0.00000000    0.00000000    0.00000000
     atom  133 type  1   force =     0.00000000    0.00000000    0.00000000
     atom  134 type  1   force =     0.00000000    0.00000000    0.00000000
     atom  135 type  1   force =     0.00000000    0.00000000    0.00000000
     atom  136 type  1   force =     0.00000000    0.00000000    0.00000000
     atom  137 type  1   force =     0.00000000    0.00000000    0.00000000
     atom  138 type  1   force =     0.00000000    0.00000000    0.00000000
     atom  139 type  1   force =     0.00000000    0.00000000    0.00000000
     atom  140 type  1   force =     0.00000000    0.00000000    0.00000000
     atom  141 type  1   force =     0.00000000    0.00000000    0.00000000
     atom  142 type  1   force =     0.00000000    0.00000000    0.00000000
     atom  143 type  1   force =     0.00000000    0.00000000    0.00000000
     atom  144 type  1   force =     0.00000000    0.00000000    0.00000000
     atom  145 type  1   force =     0.00000000    0.00000000    0.00000000
     atom  146 type  1   force =     0.00000000    0.00000000    0.00000000
     atom  147 type  1   force =     0.00000000    0.00000000    0.00000000
     atom  148 type  1   force =     0.00000000    0.00000000    0.00000000
     atom  149 type  1   force =     0.00000000    0.00000000    0.00000000
     atom  150 type  1   force =     0.00000000    0.00000000    0.00000000
     atom  151 type  1   force =     0.00000000    0.00000000    0.00000000
     atom  152 type  1   force =     0.00000000    0.00000000    0.00000000
     atom  153 type  1   force =     0.00000000    0.00000000    0.00000000
     atom  154 type  1   force =     0.00000000    0.00000000    0.00000000
     atom  155 type  1   force =     0.00000000    0.00000000    0.00000000
     atom  156 type  1   force =     0.00000000    0.00000000    0.00000000
     atom  157 type  1   force =     0.00000000    0.00000000    0.00000000
     atom  158 type  1   force =     0.00000000    0.00000000    0.00000000
     atom  159 type  1   force =     0.00000000    0.00000000    0.00000000
     atom  160 type  1   force =     0.00000000    0.00000000    0.00000000
     atom  161 type  1   force =     0.00000000    0.00000000    0.00000000
     atom  162 type  1   force =     0.00000000    0.00000000    0.00000000
     atom  163 type  1   force =     0.00000000    0.00000000    0.00000000
     atom  164 type  1   force =     0.00000000    0.00000000    0.00000000
     atom  165 type  1   force =     0.00000000    0.00000000    0.00000000
     atom  166 type  1   force =     0.00000000    0.00000000    0.00000000
     atom  167 type  1   force =     0.00000000    0.00000000    0.00000000
     atom  168 type  1   force =     0.00000000    0.00000000    0.00000000
     atom  169 type  1   force =     0.00000000    0.00000000    0.00000000
     atom  170 type  1   force =     0.00000000    0.00000000    0.00000000
     atom  171 type  1   force =     0.00000000    0.00000000    0.00000000
     atom  172 type  1   force =     0.00000000    0.00000000    0.00000000
     atom  173 type  1   force =     0.00000000    0.00000000    0.00000000
     atom  174 type  1   force =     0.00000000    0.00000000    0.00000000
     atom  175 type  1   force =     0.00000000    0.00000000    0.00000000
     atom  176 type  1   force =     0.00000000    0.00000000    0.00000000
     atom  177 type  1   force =     0.00000000    0.00000000    0.00000000
     atom  178 type  1   force =     0.00000000    0.00000000    0.00000000
     atom  179 type  1   force =     0.00000000    0.00000000    0.00000000
     atom  180 type  1   force =     0.00000000    0.00000000    0.00000000
     atom  181 type  1   force =     0.00000000    0.00000000    0.00000000
     atom  182 type  1   force =     0.00000000    0.00000000    0.00000000
     atom  183 type  1   force =     0.00000000    0.00000000    0.00000000
     atom  184 type  1   force =     0.00000000    0.00000000    0.00000000
     atom  185 type  1   force =     0.00000000    0.00000000    0.00000000
     atom  186 type  1   force =     0.00000000    0.00000000    0.00000000
     atom  187 type  1   force =     0.00000000    0.00000000    0.00000000
     atom  188 type  1   force =     0.00000000    0.00000000    0.00000000
     atom  189 type  1   force =     0.00000000    0.00000000    0.00000000
     atom  190 type  1   force =     0.00000000    0.00000000    0.00000000
     atom  191 type  1   force =     0.00000000    0.00000000    0.00000000
     atom  192 type  1   force =     0.00000000    0.00000000    0.00000000
     atom  193 type  1   force =     0.00000000    0.00000000    0.00000000
     atom  194 type  1   force =     0.00000000    0.00000000    0.00000000
     atom  195 type  1   force =     0.00000000    0.00000000    0.00000000
     atom  196 type  1   force =     0.00000000    0.00000000    0.00000000
     atom  197 type  1   force =     0.00000000    0.00000000    0.00000000
     atom  198 type  1   force =     0.00000000    0.00000000    0.00000000
     atom  199 type  1   force =     0.00000000    0.00000000    0.00000000
     atom  200 type  1   force =     0.00000000    0.00000000    0.00000000
     atom  201 type  1   force =     0.00000000    0.00000000    0.00000000
     atom  202 type  1   force =     0.00000000    0.00000000    0.00000000
     atom  203 type  1   force =     0.00000000    0.00000000    0.00000000
     atom  204 type  1   force =     0.00000000    0.00000000    0.00000000
     atom  205 type  1   force =     0.00000000    0.00000000    0.00000000
     atom  206 type  1   force =     0.00000000    0.00000000    0.00000000
     atom  207 type  1   force =     0.00000000    0.00000000    0.00000000
     atom  208 type  1   force =     0.00000000    0.00000000    0.00000000
     atom  209 type  1   force =     0.00000000    0.00000000    0.00000000
     atom  210 type  1   force =     0.00000000    0.00000000    0.00000000
     atom  211 type  1   force =     0.00000000    0.00000000    0.00000000
     atom  212 type  1   force =     0.00000000    0.00000000    0.00000000
     atom  213 type  1   force =     0.00000000    0.00000000    0.00000000
     atom  214 type  1   force =     0.00000000    0.00000000    0.00000000
     atom  215 type  2   force =     0.00000000    0.00000000    0.00000000
     The SCF correction term to forces
     atom    1 type  1   force =     0.00000102    0.00000073   -0.00000060
     atom    2 type  1   force =     0.00000130    0.00000116   -0.00000045
     atom    3 type  1   force =     0.00000194    0.00000063   -0.00000069
     atom    4 type  1   force =     0.00000068   -0.00000027   -0.00000127
     atom    5 type  1   force =     0.00000033    0.00000179   -0.00000081
     atom    6 type  1   force =    -0.00000077    0.00000086   -0.00000178
     atom    7 type  1   force =     0.00000044    0.00000062    0.00000042
     atom    8 type  1   force =    -0.00000072   -0.00000079   -0.00000077
     atom    9 type  1   force =     0.00000134    0.00000112   -0.00000045
     atom   10 type  1   force =     0.00000022    0.00000039   -0.00000106
     atom   11 type  1   force =     0.00000031    0.00000034   -0.00000033
     atom   12 type  1   force =    -0.00000033    0.00000025    0.00000042
     atom   13 type  1   force =    -0.00000073    0.00000043   -0.00000029
     atom   14 type  1   force =    -0.00000100    0.00000019    0.00000064
     atom   15 type  1   force =    -0.00000040    0.00000010   -0.00000171
     atom   16 type  1   force =    -0.00000130   -0.00000037   -0.00000121
     atom   17 type  1   force =     0.00000044    0.00000010    0.00000109
     atom   18 type  1   force =    -0.00000006    0.00000019    0.00000139
     atom   19 type  1   force =     0.00000098    0.00000002    0.00000099
     atom   20 type  1   force =     0.00000089   -0.00000001    0.00000090
     atom   21 type  1   force =    -0.00000057    0.00000072    0.00000103
     atom   22 type  1   force =    -0.00000040    0.00000115    0.00000130
     atom   23 type  1   force =    -0.00000055    0.00000000    0.00000133
     atom   24 type  1   force =    -0.00000041    0.00000016    0.00000198
     atom   25 type  1   force =     0.00000157   -0.00000032   -0.00000022
     atom   26 type  1   force =     0.00000049   -0.00000170   -0.00000089
     atom   27 type  1   force =     0.00000057   -0.00000156   -0.00000074
     atom   28 type  1   force =    -0.00000004   -0.00000131   -0.00000066
     atom   29 type  1   force =    -0.00000030   -0.00000144   -0.00000129
     atom   30 type  1   force =    -0.00000129   -0.00000164   -0.00000134
     atom   31 type  1   force =    -0.00000064   -0.00000173   -0.00000065
     atom   32 type  1   force =    -0.00000099   -0.00000120   -0.00000102
     atom   33 type  1   force =     0.00000053   -0.00000047   -0.00000076
     atom   34 type  1   force =    -0.00000051   -0.00000103   -0.00000055
     atom   35 type  1   force =     0.00000027   -0.00000141    0.00000048
     atom   36 type  1   force =     0.00000010   -0.00000066    0.00000114
     atom   37 type  1   force =    -0.00000089   -0.00000035   -0.00000024
     atom   38 type  1   force =    -0.00000053   -0.00000024    0.00000089
     atom   39 type  1   force =    -0.00000078   -0.00000132   -0.00000071
     atom   40 type  1   force =    -0.00000043   -0.00000052    0.00000014
     atom   41 type  1   force =     0.00000019    0.00000022    0.00000071
     atom   42 type  1   force =    -0.00000004   -0.00000009    0.00000139
     atom   43 type  1   force =     0.00000046   -0.00000028    0.00000047
     atom   44 type  1   force =    -0.00000052   -0.00000090   -0.00000052
     atom   45 type  1   force =    -0.00000019   -0.00000031    0.00000158
     atom   46 type  1   force =    -0.00000085   -0.00000170    0.00000048
     atom   47 type  1   force =    -0.00000075   -0.00000048    0.00000131
     atom   48 type  1   force =    -0.00000132   -0.00000088    0.00000088
     atom   49 type  1   force =     0.00000036   -0.00000037   -0.00000113
     atom   50 type  1   force =    -0.00000023    0.00000048   -0.00000116
     atom   51 type  1   force =     0.00000081    0.00000092   -0.00000124
     atom   52 type  1   force =     0.00000063    0.00000153   -0.00000075
     atom   53 type  1   force =    -0.00000061   -0.00000032   -0.00000101
     atom   54 type  1   force =    -0.00000039    0.00000081   -0.00000037
     atom   55 type  1   force =    -0.00000062    0.00000105   -0.00000065
     atom   56 type  1   force =    -0.00000043    0.00000209   -0.00000048
     atom   57 type  1   force =     0.00000102   -0.00000073   -0.00000067
     atom   58 type  1   force =     0.00000072    0.00000058    0.00000029
     atom   59 type  1   force =     0.00000133    0.00000112    0.00000091
     atom   60 type  1   force =    -0.00000023    0.00000040    0.00000082
     atom   61 type  1   force =    -0.00000040   -0.00000008    0.00000063
     atom   62 type  1   force =    -0.00000124    0.00000007    0.00000054
     atom   63 type  1   force =    -0.00000017    0.00000128   -0.00000031
     atom   64 type  1   force =    -0.00000092    0.00000093   -0.00000088
     atom   65 type  1   force =     0.00000046   -0.00000041    0.00000173
     atom   66 type  1   force =    -0.00000033    0.00000014    0.00000100
     atom   67 type  1   force =     0.00000036    0.00000042    0.00000035
     atom   68 type  1   force =     0.00000000    0.00000083   -0.00000002
     atom   69 type  1   force =    -0.00000110   -0.00000036    0.00000036
     atom   70 type  1   force =    -0.00000111    0.00000049   -0.00000024
     atom   71 type  1   force =    -0.00000101    0.00000043    0.00000100
     atom   72 type  1   force =    -0.00000106    0.00000062    0.00000124
     atom   73 type  1   force =    -0.00000077    0.00000179    0.00000030
     atom   74 type  1   force =    -0.00000175    0.00000085   -0.00000082
     atom   75 type  1   force =    -0.00000170   -0.00000017   -0.00000175
     atom   76 type  1   force =    -0.00000184   -0.00000082   -0.00000187
     atom   77 type  1   force =    -0.00000148    0.00000082   -0.00000118
     atom   78 type  1   force =    -0.00000098    0.00000002   -0.00000112
     atom   79 type  1   force =    -0.00000171    0.00000009   -0.00000042
     atom   80 type  1   force =    -0.00000124   -0.00000038   -0.00000133
     atom   81 type  1   force =    -0.00000113    0.00000083   -0.00000149
     atom   82 type  1   force =    -0.00000110    0.00000002   -0.00000096
     atom   83 type  1   force =    -0.00000083    0.00000023   -0.00000014
     atom   84 type  1   force =    -0.00000003    0.00000059    0.00000104
     atom   85 type  1   force =    -0.00000048    0.00000033   -0.00000011
     atom   86 type  1   force =     0.00000026    0.00000078    0.00000095
     atom   87 type  1   force =    -0.00000105   -0.00000024   -0.00000105
     atom   88 type  1   force =     0.00000016    0.00000051    0.00000018
     atom   89 type  1   force =    -0.00000103    0.00000057    0.00000123
     atom   90 type  1   force =    -0.00000049    0.00000084    0.00000178
     atom   91 type  1   force =    -0.00000064    0.00000062    0.00000194
     atom   92 type  1   force =    -0.00000125   -0.00000028    0.00000067
     atom   93 type  1   force =    -0.00000045    0.00000111    0.00000134
     atom   94 type  1   force =    -0.00000108    0.00000038    0.00000021
     atom   95 type  1   force =    -0.00000020    0.00000091    0.00000135
     atom   96 type  1   force =    -0.00000044    0.00000037    0.00000100
     atom   97 type  1   force =    -0.00000125   -0.00000144   -0.00000031
     atom   98 type  1   force =    -0.00000131   -0.00000165   -0.00000133
     atom   99 type  1   force =    -0.00000088   -0.00000147   -0.00000092
     atom  100 type  1   force =    -0.00000003   -0.00000056   -0.00000006
     atom  101 type  1   force =    -0.00000127   -0.00000086   -0.00000153
     atom  102 type  1   force =    -0.00000003   -0.00000028   -0.00000024
     atom  103 type  1   force =    -0.00000070   -0.00000132   -0.00000080
     atom  104 type  1   force =     0.00000012   -0.00000051   -0.00000047
     atom  105 type  1   force =    -0.00000149   -0.00000085   -0.00000128
     atom  106 type  1   force =    -0.00000021   -0.00000028   -0.00000001
     atom  107 type  1   force =    -0.00000060   -0.00000043    0.00000049
     atom  108 type  1   force =    -0.00000100   -0.00000096    0.00000037
     atom  109 type  1   force =    -0.00000060   -0.00000047    0.00000066
     atom  110 type  1   force =    -0.00000058   -0.00000136    0.00000116
     atom  111 type  1   force =    -0.00000078   -0.00000043   -0.00000078
     atom  112 type  1   force =    -0.00000109   -0.00000055   -0.00000106
     atom  113 type  1   force =    -0.00000004   -0.00000009    0.00000147
     atom  114 type  1   force =    -0.00000036   -0.00000105    0.00000115
     atom  115 type  1   force =    -0.00000070   -0.00000156    0.00000056
     atom  116 type  1   force =    -0.00000062   -0.00000129   -0.00000005
     atom  117 type  1   force =    -0.00000075   -0.00000047    0.00000053
     atom  118 type  1   force =    -0.00000058   -0.00000103   -0.00000053
     atom  119 type  1   force =    -0.00000098   -0.00000141    0.00000156
     atom  120 type  1   force =    -0.00000036   -0.00000206    0.00000138
     atom  121 type  1   force =    -0.00000097   -0.00000031   -0.00000063
     atom  122 type  1   force =    -0.00000034    0.00000081   -0.00000043
     atom  123 type  1   force =    -0.00000052    0.00000171   -0.00000056
     atom  124 type  1   force =    -0.00000098    0.00000120   -0.00000102
     atom  125 type  1   force =    -0.00000014   -0.00000010   -0.00000008
     atom  126 type  1   force =    -0.00000051    0.00000011   -0.00000046
     atom  127 type  1   force =    -0.00000030    0.00000129   -0.00000020
     atom  128 type  1   force =    -0.00000090    0.00000093   -0.00000096
     atom  129 type  1   force =    -0.00000005   -0.00000011   -0.00000015
     atom  130 type  1   force =    -0.00000043    0.00000011   -0.00000047
     atom  131 type  1   force =    -0.00000073    0.00000030   -0.00000026
     atom  132 type  1   force =    -0.00000068    0.00000061    0.00000034
     atom  133 type  1   force =    -0.00000141    0.00000014   -0.00000033
     atom  134 type  1   force =    -0.00000106    0.00000057   -0.00000039
     atom  135 type  1   force =    -0.00000059    0.00000037   -0.00000060
     atom  136 type  1   force =    -0.00000058    0.00000035   -0.00000056
     atom  137 type  1   force =    -0.00000118   -0.00000053    0.00000068
     atom  138 type  1   force =    -0.00000127    0.00000033    0.00000106
     atom  139 type  1   force =    -0.00000119    0.00000091    0.00000081
     atom  140 type  1   force =    -0.00000072    0.00000154    0.00000062
     atom  141 type  1   force =    -0.00000065   -0.00000072    0.00000100
     atom  142 type  1   force =     0.00000027    0.00000058    0.00000069
     atom  143 type  1   force =    -0.00000090    0.00000102    0.00000070
     atom  144 type  1   force =     0.00000013    0.00000153    0.00000147
     atom  145 type  1   force =    -0.00000033    0.00000043   -0.00000074
     atom  146 type  1   force =     0.00000059    0.00000018   -0.00000105
     atom  147 type  1   force =    -0.00000018    0.00000023   -0.00000088
     atom  148 type  1   force =     0.00000100    0.00000060   -0.00000005
     atom  149 type  1   force =     0.00000119    0.00000057   -0.00000109
     atom  150 type  1   force =     0.00000177    0.00000084   -0.00000052
     atom  151 type  1   force =     0.00000131   -0.00000001   -0.00000058
     atom  152 type  1   force =     0.00000197    0.00000016   -0.00000046
     atom  153 type  1   force =    -0.00000016    0.00000033   -0.00000049
     atom  154 type  1   force =     0.00000090    0.00000079    0.00000029
     atom  155 type  1   force =     0.00000066    0.00000044    0.00000069
     atom  156 type  1   force =     0.00000059    0.00000007    0.00000063
     atom  157 type  1   force =     0.00000122    0.00000105    0.00000056
     atom  158 type  1   force =     0.00000074    0.00000007    0.00000052
     atom  159 type  1   force =     0.00000132    0.00000092   -0.00000019
     atom  160 type  1   force =     0.00000098    0.00000037   -0.00000042
     atom  161 type  1   force =     0.00000051    0.00000102    0.00000125
     atom  162 type  1   force =     0.00000048    0.00000006    0.00000076
     atom  163 type  1   force =    -0.00000037    0.00000035    0.00000032
     atom  164 type  1   force =     0.00000038    0.00000024   -0.00000034
     atom  165 type  1   force =     0.00000106    0.00000010    0.00000044
     atom  166 type  1   force =     0.00000137    0.00000019   -0.00000007
     atom  167 type  1   force =     0.00000067    0.00000020    0.00000069
     atom  168 type  1   force =     0.00000092    0.00000016    0.00000094
     atom  169 type  1   force =    -0.00000027   -0.00000037   -0.00000091
     atom  170 type  1   force =     0.00000085   -0.00000024   -0.00000055
     atom  171 type  1   force =     0.00000046   -0.00000042   -0.00000064
     atom  172 type  1   force =     0.00000033   -0.00000098   -0.00000103
     atom  173 type  1   force =     0.00000144   -0.00000008   -0.00000008
     atom  174 type  1   force =     0.00000113   -0.00000105   -0.00000039
     atom  175 type  1   force =     0.00000129   -0.00000048   -0.00000077
     atom  176 type  1   force =     0.00000087   -0.00000089   -0.00000137
     atom  177 type  1   force =     0.00000062   -0.00000048   -0.00000061
     atom  178 type  1   force =     0.00000112   -0.00000138   -0.00000057
     atom  179 type  1   force =     0.00000157   -0.00000047    0.00000045
     atom  180 type  1   force =     0.00000046   -0.00000033    0.00000091
     atom  181 type  1   force =     0.00000153   -0.00000143   -0.00000101
     atom  182 type  1   force =     0.00000139   -0.00000210   -0.00000036
     atom  183 type  1   force =     0.00000042   -0.00000046    0.00000161
     atom  184 type  1   force =     0.00000086   -0.00000033    0.00000047
     atom  185 type  1   force =     0.00000044   -0.00000139    0.00000025
     atom  186 type  1   force =     0.00000109   -0.00000064    0.00000008
     atom  187 type  1   force =     0.00000068    0.00000023    0.00000019
     atom  188 type  1   force =     0.00000138   -0.00000009   -0.00000005
     atom  189 type  1   force =     0.00000097   -0.00000059    0.00000102
     atom  190 type  1   force =     0.00000086   -0.00000106    0.00000088
     atom  191 type  1   force =     0.00000059   -0.00000008   -0.00000043
     atom  192 type  1   force =     0.00000049    0.00000006   -0.00000129
     atom  193 type  1   force =    -0.00000032    0.00000031   -0.00000078
     atom  194 type  1   force =     0.00000029    0.00000062   -0.00000071
     atom  195 type  1   force =     0.00000065   -0.00000054   -0.00000123
     atom  196 type  1   force =     0.00000106    0.00000034   -0.00000132
     atom  197 type  1   force =     0.00000097    0.00000043   -0.00000103
     atom  198 type  1   force =     0.00000122    0.00000063   -0.00000111
     atom  199 type  1   force =    -0.00000039    0.00000014   -0.00000143
     atom  200 type  1   force =    -0.00000048    0.00000058   -0.00000105
     atom  201 type  1   force =    -0.00000045    0.00000109   -0.00000038
     atom  202 type  1   force =     0.00000088    0.00000159    0.00000095
     atom  203 type  1   force =     0.00000135   -0.00000093    0.00000089
     atom  204 type  1   force =     0.00000193    0.00000051    0.00000203
     atom  205 type  1   force =     0.00000067    0.00000104   -0.00000093
     atom  206 type  1   force =     0.00000147    0.00000155    0.00000014
     atom  207 type  1   force =     0.00000084   -0.00000092    0.00000139
     atom  208 type  1   force =     0.00000194    0.00000049    0.00000193
     atom  209 type  1   force =     0.00000086    0.00000110    0.00000130
     atom  210 type  1   force =     0.00000077    0.00000040   -0.00000025
     atom  211 type  1   force =     0.00000167   -0.00000041    0.00000046
     atom  212 type  1   force =     0.00000098    0.00000013   -0.00000033
     atom  213 type  1   force =     0.00000180    0.00000085    0.00000186
     atom  214 type  1   force =     0.00000111    0.00000048    0.00000113
     atom  215 type  2   force =     0.00000042   -0.00000167    0.00000050

     Total force =     0.053307     Total SCF correction =     0.000022


     Computing stress (Cartesian axis) and pressure

          total   stress  (Ry/bohr**3)                   (kbar)     P=   25.94
   0.00016908   0.00002836   0.00003930         24.87      4.17      5.78
   0.00002836   0.00019084   0.00002836          4.17     28.07      4.17
   0.00003930   0.00002836   0.00016909          5.78      4.17     24.87

     kinetic stress (kbar)  21591.33     15.75     16.73
                               15.75  21595.31     15.75
                               16.73     15.75  21591.33

     local   stress (kbar)  -3688.06     12.67     16.68
                               12.67  -3663.28     12.67
                               16.68     12.67  -3688.05

     nonloc. stress (kbar)   1304.18     -3.35     -3.40
                               -3.35   1303.91     -3.35
                               -3.40     -3.35   1304.18

     hartree stress (kbar)   1292.10     -9.33    -11.45
                               -9.33   1283.35     -9.33
                              -11.45     -9.33   1292.09

     exc-cor stress (kbar)  -4229.73     -0.03     -0.07
                               -0.03  -4229.78     -0.03
                               -0.07     -0.03  -4229.73

     corecor stress (kbar)      0.00      0.00      0.00
                                0.00      0.00      0.00
                                0.00      0.00      0.00

     ewald   stress (kbar) -16244.95    -11.54    -12.71
                              -11.54 -16261.43    -11.53
                              -12.71    -11.53 -16244.96

     hubbard stress (kbar)      0.00      0.00      0.00
                                0.00      0.00      0.00
                                0.00      0.00      0.00

     london  stress (kbar)      0.00      0.00      0.00
                                0.00      0.00      0.00
                                0.00      0.00      0.00

     XDM     stress (kbar)      0.00      0.00      0.00
                                0.00      0.00      0.00
                                0.00      0.00      0.00

     dft-nl  stress (kbar)      0.00      0.00      0.00
                                0.00      0.00      0.00
                                0.00      0.00      0.00

     TS-vdW  stress (kbar)      0.00      0.00      0.00
                                0.00      0.00      0.00
                                0.00      0.00      0.00



     Writing output data file pwscf.save
 
     init_run     :      2.60s CPU      2.74s WALL (       1 calls)
     electrons    :    405.00s CPU    424.89s WALL (       1 calls)
     forces       :      0.98s CPU      1.01s WALL (       1 calls)
     stress       :     18.59s CPU     18.69s WALL (       1 calls)

     Called by init_run:
     wfcinit      :      1.67s CPU      1.74s WALL (       1 calls)
     wfcinit:atom :      0.00s CPU      0.00s WALL (       1 calls)
     wfcinit:wfcr :      1.64s CPU      1.68s WALL (       1 calls)
     potinit      :      0.10s CPU      0.10s WALL (       1 calls)

     Called by electrons:
     c_bands      :    394.07s CPU    399.54s WALL (      20 calls)
     sum_band     :      9.00s CPU      9.21s WALL (      20 calls)
     v_of_rho     :      1.48s CPU      1.49s WALL (      21 calls)
     v_h          :      0.06s CPU      0.06s WALL (      21 calls)
     v_xc         :      1.42s CPU      1.43s WALL (      21 calls)
     mix_rho      :      0.23s CPU      0.24s WALL (      20 calls)

     Called by c_bands:
     init_us_2    :      0.38s CPU      0.55s WALL (      41 calls)
     regterg      :    392.74s CPU    398.09s WALL (      20 calls)

     Called by sum_band:

     Called by *egterg:
     h_psi        :     84.10s CPU     84.67s WALL (     157 calls)
     g_psi        :      0.28s CPU      0.28s WALL (     136 calls)
     rdiaghg      :    262.44s CPU    265.24s WALL (     156 calls)
     regterg:over :     19.62s CPU     19.69s WALL (     136 calls)
     regterg:upda :     17.24s CPU     17.38s WALL (     136 calls)
     regterg:last :      6.55s CPU      6.65s WALL (      22 calls)
     rdiaghg:chol :     10.29s CPU     10.42s WALL (     156 calls)
     rdiaghg:inve :      7.73s CPU      7.77s WALL (     156 calls)
     rdiaghg:para :     15.86s CPU     16.80s WALL (     312 calls)

     Called by h_psi:
     h_psi:pot    :     83.44s CPU     83.98s WALL (     157 calls)
     h_psi:calbec :     12.80s CPU     12.89s WALL (     157 calls)
     vloc_psi     :     58.55s CPU     58.84s WALL (     157 calls)
     add_vuspsi   :     12.09s CPU     12.24s WALL (     157 calls)

     General routines
     calbec       :     13.68s CPU     13.77s WALL (     162 calls)
     fft          :      1.08s CPU      1.13s WALL (     450 calls)
     fftw         :     63.57s CPU     63.91s WALL (   63298 calls)
 
     Parallel routines
     fft_scatter  :     37.77s CPU     38.03s WALL (   63748 calls)
 
     PWSCF        :  7m12.42s CPU     9m34.26s WALL

 
   This run was terminated on:   8: 0:38  22Jun2022            

=------------------------------------------------------------------------------=
   JOB DONE.
=------------------------------------------------------------------------------=
