MPI startup(): shm:dapl fabric is unknown or has been removed from the product, please use ofi or shm:ofi instead.

     Program PWSCF v.7.2 starts on  2Sep2023 at  3:59:49 

     This program is part of the open-source Quantum ESPRESSO suite
     for quantum simulation of materials; please cite
         "P. Giannozzi et al., J. Phys.:Condens. Matter 21 395502 (2009);
         "P. Giannozzi et al., J. Phys.:Condens. Matter 29 465901 (2017);
         "P. Giannozzi et al., J. Chem. Phys. 152 154105 (2020);
          URL http://www.quantum-espresso.org", 
     in publications or presentations arising from this work. More details at
     http://www.quantum-espresso.org/quote

     Parallel version (MPI & OpenMP), running on     112 processor cores
     Number of MPI processes:               112
     Threads/MPI process:                     1

     MPI processes distributed on     4 nodes
     50204 MiB available memory on the printing compute node when the environment starts
 
     Reading input from pw.in

     Current dimensions of program PWSCF are:
     Max number of different atomic species (ntypx) = 10
     Max number of k-points (npk) =  40000
     Max angular momentum in pseudopotentials (lmaxx) =  4

     gamma-point specific algorithms are used
 
     K-points division:     npool     =       2
     band groups division:  nbgrp     =       4
     R & G space division:  proc/nbgrp/npool/nimage =      14
     Subspace diagonalization in iterative solution of the eigenvalue problem:
     one sub-group per band group will be used
     scalapack distributed-memory algorithm (size of sub-group:  3*  3 procs)

 
     Parallelization info
     --------------------
     sticks:   dense  smooth     PW     G-vecs:    dense   smooth      PW
     Min        1347    1347    335                97927    97927   12244
     Max        1350    1350    338                97934    97934   12250
     Sum       18883   18883   4717              1371043  1371043  171439
 
     Using Slab Decomposition
 


     bravais-lattice index     =            0
     lattice parameter (alat)  =      29.2463  a.u.
     unit-cell volume          =   14183.6707 (a.u.)^3
     number of atoms/cell      =          198
     number of atomic types    =            2
     number of electrons       =       792.00 (up: 397.00, down: 395.00)
     number of Kohn-Sham states=          400
     kinetic-energy cutoff     =      80.0000  Ry
     charge density cutoff     =     320.0000  Ry
     scf convergence threshold =      1.0E-08
     mixing beta               =       0.3000
     number of iterations used =            8  plain     mixing
     Exchange-correlation= PBE
                           (   1   4   3   4   0   0   0)

     celldm(1)=  29.246308  celldm(2)=   0.000000  celldm(3)=   0.000000
     celldm(4)=   0.000000  celldm(5)=   0.000000  celldm(6)=   0.000000

     crystal axes: (cart. coord. in units of alat)
               a(1) = (   1.000000   0.000000   0.000000 )  
               a(2) = (  -0.500000   0.866025   0.000000 )  
               a(3) = (   0.000000   0.000000   0.654704 )  

     reciprocal axes: (cart. coord. in units 2 pi/alat)
               b(1) = (  1.000000  0.577350  0.000000 )  
               b(2) = (  0.000000  1.154701  0.000000 )  
               b(3) = (  0.000000  0.000000  1.527408 )  


     PseudoPot. # 1 for Si read from file:
     ./Si_ONCV_PBE-1.1.upf
     MD5 check sum: 893f9c914d8b8e384479fa6fd8b59ac5
     Pseudo is Norm-conserving, Zval =  4.0
     Generated using ONCVPSP code by D. R. Hamann
     Using radial grid of  602 points,  4 beta functions with: 
                l(1) =   0
                l(2) =   0
                l(3) =   1
                l(4) =   1

     PseudoPot. # 2 for C  read from file:
     ./C_ONCV_PBE-1.0.upf
     MD5 check sum: 40f8c33130f0afa4272e9dcc1c4fb0df
     Pseudo is Norm-conserving, Zval =  4.0
     Generated using ONCVPSP code by D. R. Hamann
     Using radial grid of  602 points,  4 beta functions with: 
                l(1) =   0
                l(2) =   0
                l(3) =   1
                l(4) =   1

     atomic species   valence    mass     pseudopotential
        Si             4.00    28.08550     Si( 1.00)
        C              4.00    12.01070     C ( 1.00)

     Starting magnetic structure 
     atomic species   magnetization
        Si           0.000
        C            0.000

     No symmetry found


                                    s                        frac. trans.

      isym =  1     identity                                     

 cryst.   s( 1) = (     1          0          0      )
                  (     0          1          0      )
                  (     0          0          1      )

 cart.    s( 1) = (  1.0000000  0.0000000  0.0000000 )
                  (  0.0000000  1.0000000  0.0000000 )
                  (  0.0000000  0.0000000  1.0000000 )


   Cartesian axes

     site n.     atom                  positions (alat units)
         1           Si  tau(   1) = (  -0.0002881   0.1163029   0.2866165  )
         2           Si  tau(   2) = (  -0.0995604   0.2886229   0.2865916  )
         3           Si  tau(   3) = (  -0.1998755   0.4620224   0.2866431  )
         4           Si  tau(   4) = (  -0.2999868   0.6351195   0.2866471  )
         5           Si  tau(   5) = (  -0.3999442   0.8084165   0.2866884  )
         6           Si  tau(   6) = (   0.1999023   0.1154317   0.2867639  )
         7           Si  tau(   7) = (   0.0991190   0.2890366   0.2845535  )
         8           Si  tau(   8) = (  -0.0002529   0.4620712   0.2865953  )
         9           Si  tau(   9) = (  -0.1000093   0.6349950   0.2866439  )
        10           Si  tau(  10) = (  -0.2001127   0.8083784   0.2866753  )
        11           Si  tau(  11) = (   0.4002334   0.1160181   0.2864865  )
        12           Si  tau(  12) = (   0.3000933   0.2885813   0.2840080  )
        13           Si  tau(  13) = (   0.1992676   0.4624904   0.2845002  )
        14           Si  tau(  14) = (   0.1003572   0.6347711   0.2865772  )
        15           Si  tau(  15) = (   0.0002024   0.8083384   0.2865216  )
        16           Si  tau(  16) = (   0.6000965   0.1154336   0.2867699  )
        17           Si  tau(  17) = (   0.4995974   0.2882021   0.2864412  )
        18           Si  tau(  18) = (   0.3999901   0.4619863   0.2867429  )
        19           Si  tau(  19) = (   0.2991947   0.6349397   0.2866135  )
        20           Si  tau(  20) = (   0.1999787   0.8082500   0.2868393  )
        21           Si  tau(  21) = (   0.8000422   0.1155834   0.2868374  )
        22           Si  tau(  22) = (   0.7000174   0.2885303   0.2865098  )
        23           Si  tau(  23) = (   0.5999044   0.4619675   0.2866786  )
        24           Si  tau(  24) = (   0.4999635   0.6350105   0.2866899  )
        25           Si  tau(  25) = (   0.3997614   0.8084585   0.2865881  )
        26           Si  tau(  26) = (   0.0999859   0.0581601   0.6140386  )
        27           Si  tau(  27) = (   0.0001132   0.2313542   0.6143280  )
        28           Si  tau(  28) = (  -0.0993730   0.4039188   0.6133272  )
        29           Si  tau(  29) = (  -0.1997701   0.5772416   0.6138169  )
        30           Si  tau(  30) = (  -0.2999644   0.7506140   0.6139283  )
        31           Si  tau(  31) = (   0.3000852   0.0579517   0.6140192  )
        32           Si  tau(  32) = (   0.2000718   0.2309168   0.6145410  )
        33           Si  tau(  33) = (   0.0998888   0.4041859   0.6105204  )
        34           Si  tau(  34) = (   0.0005661   0.5768832   0.6133464  )
        35           Si  tau(  35) = (  -0.0998431   0.7504528   0.6140397  )
        36           Si  tau(  36) = (   0.5000766   0.0576293   0.6142047  )
        37           Si  tau(  37) = (   0.3999731   0.2309074   0.6145936  )
        38           Si  tau(  38) = (   0.2999253   0.4039674   0.6145075  )
        39           Si  tau(  39) = (   0.1996915   0.5770334   0.6143204  )
        40           Si  tau(  40) = (   0.0999682   0.7504728   0.6141609  )
        41           Si  tau(  41) = (   0.7000175   0.0577418   0.6141793  )
        42           Si  tau(  42) = (   0.6000868   0.2309180   0.6142046  )
        43           Si  tau(  43) = (   0.4997193   0.4039320   0.6139889  )
        44           Si  tau(  44) = (   0.3995743   0.5770981   0.6140127  )
        45           Si  tau(  45) = (   0.2998926   0.7505423   0.6141763  )
        46           Si  tau(  46) = (   0.8999633   0.0578805   0.6141691  )
        47           Si  tau(  47) = (   0.8000206   0.2310631   0.6141494  )
        48           Si  tau(  48) = (   0.7000490   0.4040817   0.6140231  )
        49           Si  tau(  49) = (   0.5999691   0.5772955   0.6139188  )
        50           Si  tau(  50) = (   0.4999209   0.7506019   0.6141382  )
        51           Si  tau(  51) = (  -0.0000092   0.0000563   0.1228496  )
        52           Si  tau(  52) = (  -0.1000797   0.1733741   0.1227443  )
        53           Si  tau(  53) = (  -0.1999245   0.3464859   0.1226886  )
        54           Si  tau(  54) = (  -0.2999034   0.5196048   0.1226521  )
        55           Si  tau(  55) = (  -0.3999516   0.6928001   0.1227061  )
        56           Si  tau(  56) = (   0.2000104  -0.0000913   0.1226165  )
        57           Si  tau(  57) = (   0.0999380   0.1728301   0.1228921  )
        58           Si  tau(  58) = (  -0.0004041   0.3468570   0.1222365  )
        59           Si  tau(  59) = (  -0.1000047   0.5196528   0.1223290  )
        60           Si  tau(  60) = (  -0.1999446   0.6927640   0.1226564  )
        61           Si  tau(  61) = (   0.4000507  -0.0001108   0.1228145  )
        62           Si  tau(  62) = (   0.3000922   0.1726092   0.1228244  )
        63           Si  tau(  63) = (   0.1998578   0.3464376   0.1211163  )
        64           Si  tau(  64) = (   0.0994588   0.5197522   0.1222453  )
        65           Si  tau(  65) = (   0.0000136   0.6927210   0.1227032  )
        66           Si  tau(  66) = (   0.6000459  -0.0000418   0.1228591  )
        67           Si  tau(  67) = (   0.5001340   0.1731130   0.1227719  )
        68           Si  tau(  68) = (   0.4004949   0.3466046   0.1228160  )
        69           Si  tau(  69) = (   0.3003019   0.5198380   0.1228461  )
        70           Si  tau(  70) = (   0.1998535   0.6928220   0.1227350  )
        71           Si  tau(  71) = (   0.7999457   0.0000501   0.1228648  )
        72           Si  tau(  72) = (   0.7000425   0.1731998   0.1228551  )
        73           Si  tau(  73) = (   0.6000886   0.3464267   0.1227853  )
        74           Si  tau(  74) = (   0.5001086   0.5196493   0.1225937  )
        75           Si  tau(  75) = (   0.3999859   0.6928168   0.1228329  )
        76           Si  tau(  76) = (  -0.0004590   0.0001462   0.4503125  )
        77           Si  tau(  77) = (  -0.0999594   0.1736510   0.4507135  )
        78           Si  tau(  78) = (  -0.2001496   0.3464757   0.4503125  )
        79           Si  tau(  79) = (  -0.3000620   0.5196142   0.4502056  )
        80           Si  tau(  80) = (  -0.4001051   0.6928813   0.4501923  )
        81           Si  tau(  81) = (   0.1999228   0.0003825   0.4504476  )
        82           Si  tau(  82) = (   0.0994058   0.1747171   0.4508528  )
        83           Si  tau(  83) = (   0.0028288   0.3477477   0.4517253  )
        84           Si  tau(  84) = (  -0.0995471   0.5193479   0.4505333  )
        85           Si  tau(  85) = (  -0.1999788   0.6928452   0.4502063  )
        86           Si  tau(  86) = (   0.4003731  -0.0001202   0.4502881  )
        87           Si  tau(  87) = (   0.3005178   0.1738397   0.4506085  )
        88           Si  tau(  88) = (   0.1002522   0.5165531   0.4517131  )
        89           Si  tau(  89) = (  -0.0000579   0.6928926   0.4503243  )
        90           Si  tau(  90) = (   0.6001521  -0.0000644   0.4503876  )
        91           Si  tau(  91) = (   0.5002802   0.1730130   0.4505986  )
        92           Si  tau(  92) = (   0.3995938   0.3455502   0.4505668  )
        93           Si  tau(  93) = (   0.2983171   0.5193267   0.4508312  )
        94           Si  tau(  94) = (   0.1997010   0.6926044   0.4507108  )
        95           Si  tau(  95) = (   0.7999081   0.0000931   0.4504061  )
        96           Si  tau(  96) = (   0.7000994   0.1731528   0.4503877  )
        97           Si  tau(  97) = (   0.6002000   0.3461489   0.4502651  )
        98           Si  tau(  98) = (   0.4995457   0.5194676   0.4504300  )
        99           Si  tau(  99) = (   0.3996269   0.6931249   0.4503126  )
       100           C   tau( 100) = (  -0.0000642   0.1156007   0.1637602  )
       101           C   tau( 101) = (  -0.0999792   0.2887112   0.1636293  )
       102           C   tau( 102) = (  -0.1999492   0.4619307   0.1632823  )
       103           C   tau( 103) = (  -0.2999937   0.6350891   0.1633085  )
       104           C   tau( 104) = (  -0.3999839   0.8083418   0.1633655  )
       105           C   tau( 105) = (   0.2000022   0.1154576   0.1636827  )
       106           C   tau( 106) = (   0.1001706   0.2889011   0.1630459  )
       107           C   tau( 107) = (  -0.0000960   0.4619758   0.1633751  )
       108           C   tau( 108) = (  -0.0999985   0.6350713   0.1632844  )
       109           C   tau( 109) = (  -0.2000338   0.8083306   0.1633504  )
       110           C   tau( 110) = (   0.4001179   0.1154794   0.1636972  )
       111           C   tau( 111) = (   0.2999196   0.2886767   0.1628722  )
       112           C   tau( 112) = (   0.1999135   0.4615667   0.1630153  )
       113           C   tau( 113) = (   0.1000348   0.6350682   0.1636268  )
       114           C   tau( 114) = (   0.0000503   0.8082971   0.1633932  )
       115           C   tau( 115) = (   0.6000163   0.1154564   0.1635411  )
       116           C   tau( 116) = (   0.5000116   0.2885601   0.1636541  )
       117           C   tau( 117) = (   0.4000214   0.4618781   0.1636536  )
       118           C   tau( 118) = (   0.2998962   0.6350775   0.1637401  )
       119           C   tau( 119) = (   0.2000133   0.8082501   0.1635751  )
       120           C   tau( 120) = (   0.8000390   0.1155105   0.1635720  )
       121           C   tau( 121) = (   0.6999907   0.2886502   0.1633762  )
       122           C   tau( 122) = (   0.5999687   0.4618861   0.1633457  )
       123           C   tau( 123) = (   0.4999858   0.6350457   0.1633629  )
       124           C   tau( 124) = (   0.3999783   0.8083198   0.1634494  )
       125           C   tau( 125) = (   0.0993969   0.0575422   0.4906122  )
       126           C   tau( 126) = (  -0.0004681   0.2312472   0.4910882  )
       127           C   tau( 127) = (  -0.1010667   0.4036111   0.4901180  )
       128           C   tau( 128) = (  -0.2001094   0.5773946   0.4905270  )
       129           C   tau( 129) = (  -0.3001020   0.7507119   0.4905905  )
       130           C   tau( 130) = (   0.3006703   0.0572663   0.4905901  )
       131           C   tau( 131) = (   0.2004239   0.2186632   0.4957010  )
       132           C   tau( 132) = (   0.0941744   0.4075310   0.4932251  )
       133           C   tau( 133) = (  -0.0000580   0.5785135   0.4901332  )
       134           C   tau( 134) = (  -0.1001050   0.7507883   0.4906721  )
       135           C   tau( 135) = (   0.5002445   0.0576660   0.4908382  )
       136           C   tau( 136) = (   0.4005033   0.2305756   0.4911041  )
       137           C   tau( 137) = (   0.3107196   0.4098468   0.4956509  )
       138           C   tau( 138) = (   0.1995157   0.5776517   0.4910856  )
       139           C   tau( 139) = (   0.0999483   0.7507876   0.4908352  )
       140           C   tau( 140) = (   0.6999919   0.0577679   0.4908491  )
       141           C   tau( 141) = (   0.6001182   0.2307691   0.4908435  )
       142           C   tau( 142) = (   0.5006008   0.4037520   0.4905526  )
       143           C   tau( 143) = (   0.3997649   0.5779310   0.4905829  )
       144           C   tau( 144) = (   0.2997710   0.7507542   0.4908159  )
       145           C   tau( 145) = (   0.8997427   0.0578961   0.4908100  )
       146           C   tau( 146) = (   0.7997374   0.2309248   0.4908200  )
       147           C   tau( 147) = (   0.6996339   0.4041470   0.4906554  )
       148           C   tau( 148) = (   0.5997379   0.5773599   0.4905775  )
       149           C   tau( 149) = (   0.4998676   0.7506176   0.4907197  )
       150           C   tau( 150) = (   0.0000165   0.0001166   0.0004281  )
       151           C   tau( 151) = (  -0.1000274   0.1732256   0.0004648  )
       152           C   tau( 152) = (  -0.1998926   0.3464794   0.0003231  )
       153           C   tau( 153) = (  -0.2999850   0.5196307   0.0002042  )
       154           C   tau( 154) = (  -0.4000156   0.6928351   0.0002452  )
       155           C   tau( 155) = (   0.2000049   0.0001638   0.0001680  )
       156           C   tau( 156) = (   0.0997680   0.1733125   0.0012300  )
       157           C   tau( 157) = (   0.0003401   0.3461822   0.0007710  )
       158           C   tau( 158) = (  -0.0997803   0.5195132  -0.0000202  )
       159           C   tau( 159) = (  -0.1999945   0.6928248   0.0002118  )
       160           C   tau( 160) = (   0.4000269  -0.0000052   0.0004173  )
       161           C   tau( 161) = (   0.3003422   0.1731421   0.0011901  )
       162           C   tau( 162) = (   0.1998819   0.3463944  -0.0002728  )
       163           C   tau( 163) = (   0.1004057   0.5193903   0.0007813  )
       164           C   tau( 164) = (   0.0000943   0.6926370   0.0003482  )
       165           C   tau( 165) = (   0.6000631  -0.0000096   0.0004861  )
       166           C   tau( 166) = (   0.5001101   0.1731141   0.0004707  )
       167           C   tau( 167) = (   0.4000996   0.3460792   0.0011665  )
       168           C   tau( 168) = (   0.2997405   0.5196616   0.0011765  )
       169           C   tau( 169) = (   0.2000184   0.6928311   0.0004627  )
       170           C   tau( 170) = (   0.8000100   0.0000193   0.0004659  )
       171           C   tau( 171) = (   0.7000165   0.1731842   0.0004809  )
       172           C   tau( 172) = (   0.5998921   0.3463862   0.0003930  )
       173           C   tau( 173) = (   0.4998405   0.5195084   0.0001362  )
       174           C   tau( 174) = (   0.3999226   0.6927223   0.0004105  )
       175           C   tau( 175) = (   0.0002235   0.0005011   0.3277633  )
       176           C   tau( 176) = (  -0.0998728   0.1735337   0.3280381  )
       177           C   tau( 177) = (  -0.1998174   0.3465384   0.3276767  )
       178           C   tau( 178) = (  -0.3000899   0.5196135   0.3276352  )
       179           C   tau( 179) = (  -0.4001051   0.6929218   0.3276485  )
       180           C   tau( 180) = (   0.1999496   0.0003765   0.3278595  )
       181           C   tau( 181) = (   0.1013510   0.1751509   0.3279958  )
       182           C   tau( 182) = (   0.0016203   0.3470664   0.3279566  )
       183           C   tau( 183) = (  -0.0999381   0.5196391   0.3277338  )
       184           C   tau( 184) = (  -0.2000056   0.6929700   0.3276356  )
       185           C   tau( 185) = (   0.3997571   0.0004310   0.3277326  )
       186           C   tau( 186) = (   0.2987022   0.1748322   0.3278710  )
       187           C   tau( 187) = (   0.1003009   0.5179295   0.3279312  )
       188           C   tau( 188) = (   0.0000777   0.6926041   0.3276885  )
       189           C   tau( 189) = (   0.6000025   0.0000317   0.3278327  )
       190           C   tau( 190) = (   0.4998409   0.1733123   0.3279961  )
       191           C   tau( 191) = (   0.3978870   0.3466926   0.3278391  )
       192           C   tau( 192) = (   0.2989938   0.5174754   0.3279961  )
       193           C   tau( 193) = (   0.1998599   0.6926006   0.3280380  )
       194           C   tau( 194) = (   0.7999745   0.0000661   0.3278572  )
       195           C   tau( 195) = (   0.6999687   0.1732392   0.3278297  )
       196           C   tau( 196) = (   0.5994399   0.3464312   0.3277094  )
       197           C   tau( 197) = (   0.4996602   0.5194906   0.3278411  )
       198           C   tau( 198) = (   0.3997280   0.6924154   0.3277667  )

   Crystallographic axes

     site n.     atom                  positions (cryst. coord.)
         1           Si  tau(   1) = (  0.0668594  0.1342950  0.4377804  )
         2           Si  tau(   2) = (  0.0670760  0.3332730  0.4377424  )
         3           Si  tau(   3) = (  0.0668733  0.5334976  0.4378211  )
         4           Si  tau(   4) = (  0.0666996  0.7333728  0.4378272  )
         5           Si  tau(   5) = (  0.0667953  0.9334790  0.4378903  )
         6           Si  tau(   6) = (  0.2665468  0.1332890  0.4380055  )
         7           Si  tau(   7) = (  0.2659944  0.3337508  0.4346294  )
         8           Si  tau(   8) = (  0.2665240  0.5335538  0.4377480  )
         9           Si  tau(   9) = (  0.2666052  0.7332291  0.4378222  )
        10           Si  tau(  10) = (  0.2666048  0.9334350  0.4378702  )
        11           Si  tau(  11) = (  0.4672165  0.1339662  0.4375818  )
        12           Si  tau(  12) = (  0.4667058  0.3332250  0.4337962  )
        13           Si  tau(  13) = (  0.4662865  0.5340379  0.4345480  )
        14           Si  tau(  14) = (  0.4668424  0.7329705  0.4377204  )
        15           Si  tau(  15) = (  0.4668968  0.9333887  0.4376355  )
        16           Si  tau(  16) = (  0.6667421  0.1332912  0.4380147  )
        17           Si  tau(  17) = (  0.6659910  0.3327871  0.4375126  )
        18           Si  tau(  18) = (  0.6667180  0.5334558  0.4379735  )
        19           Si  tau(  19) = (  0.6657773  0.7331652  0.4377759  )
        20           Si  tau(  20) = (  0.6666221  0.9332868  0.4381207  )
        21           Si  tau(  21) = (  0.8667743  0.1334643  0.4381178  )
        22           Si  tau(  22) = (  0.8666005  0.3331661  0.4376174  )
        23           Si  tau(  23) = (  0.8666215  0.5334341  0.4378752  )
        24           Si  tau(  24) = (  0.8665869  0.7332469  0.4378925  )
        25           Si  tau(  25) = (  0.8665251  0.9335275  0.4377370  )
        26           Si  tau(  26) = (  0.1335646  0.0671575  0.9378877  )
        27           Si  tau(  27) = (  0.1336856  0.2671448  0.9383296  )
        28           Si  tau(  28) = (  0.1338297  0.4664053  0.9368011  )
        29           Si  tau(  29) = (  0.1335005  0.6665411  0.9375490  )
        30           Si  tau(  30) = (  0.1334028  0.8667344  0.9377191  )
        31           Si  tau(  31) = (  0.3335437  0.0669168  0.9378579  )
        32           Si  tau(  32) = (  0.3333917  0.2666398  0.9386550  )
        33           Si  tau(  33) = (  0.3332457  0.4667137  0.9325139  )
        34           Si  tau(  34) = (  0.3336297  0.6661274  0.9368303  )
        35           Si  tau(  35) = (  0.3334310  0.8665482  0.9378894  )
        36           Si  tau(  36) = (  0.5333489  0.0665446  0.9381413  )
        37           Si  tau(  37) = (  0.5332875  0.2666289  0.9387354  )
        38           Si  tau(  38) = (  0.5331560  0.4664614  0.9386038  )
        39           Si  tau(  39) = (  0.5328419  0.6663008  0.9383180  )
        40           Si  tau(  40) = (  0.5332539  0.8665713  0.9380744  )
        41           Si  tau(  41) = (  0.7333547  0.0666744  0.9381025  )
        42           Si  tau(  42) = (  0.7334073  0.2666411  0.9381411  )
        43           Si  tau(  43) = (  0.7329295  0.4664205  0.9378117  )
        44           Si  tau(  44) = (  0.7327621  0.6663755  0.9378480  )
        45           Si  tau(  45) = (  0.7332184  0.8666516  0.9380980  )
        46           Si  tau(  46) = (  0.9333806  0.0668347  0.9380870  )
        47           Si  tau(  47) = (  0.9334249  0.2668086  0.9380568  )
        48           Si  tau(  48) = (  0.9333457  0.4665933  0.9378639  )
        49           Si  tau(  49) = (  0.9332708  0.6666034  0.9377046  )
        50           Si  tau(  50) = (  0.9332811  0.8667204  0.9380398  )
        51           Si  tau(  51) = (  0.0000233  0.0000650  0.1876415  )
        52           Si  tau(  52) = (  0.0000179  0.2001952  0.1874806  )
        53           Si  tau(  53) = (  0.0001192  0.4000875  0.1873955  )
        54           Si  tau(  54) = (  0.0000906  0.5999879  0.1873398  )
        55           Si  tau(  55) = (  0.0000368  0.7999767  0.1874222  )
        56           Si  tau(  56) = (  0.1999577 -0.0001054  0.1872854  )
        57           Si  tau(  57) = (  0.1997215  0.1995670  0.1877064  )
        58           Si  tau(  58) = (  0.1998539  0.4005160  0.1867050  )
        59           Si  tau(  59) = (  0.2000170  0.6000434  0.1868464  )
        60           Si  tau(  60) = (  0.2000229  0.7999350  0.1873463  )
        61           Si  tau(  61) = (  0.3999867 -0.0001280  0.1875879  )
        62           Si  tau(  62) = (  0.3997481  0.1993119  0.1876031  )
        63           Si  tau(  63) = (  0.3998737  0.4000317  0.1849940  )
        64           Si  tau(  64) = (  0.3995379  0.6001582  0.1867185  )
        65           Si  tau(  65) = (  0.3999562  0.7998853  0.1874179  )
        66           Si  tau(  66) = (  0.6000218 -0.0000482  0.1876560  )
        67           Si  tau(  67) = (  0.6000809  0.1998937  0.1875228  )
        68           Si  tau(  68) = (  0.6006072  0.4002245  0.1875902  )
        69           Si  tau(  69) = (  0.6004306  0.6002573  0.1876361  )
        70           Si  tau(  70) = (  0.5998545  0.8000019  0.1874665  )
        71           Si  tau(  71) = (  0.7999747  0.0000578  0.1876648  )
        72           Si  tau(  72) = (  0.8000395  0.1999939  0.1876499  )
        73           Si  tau(  73) = (  0.8000981  0.4000191  0.1875433  )
        74           Si  tau(  74) = (  0.8001282  0.6000393  0.1872506  )
        75           Si  tau(  75) = (  0.7999839  0.7999959  0.1876160  )
        76           Si  tau(  76) = ( -0.0003746  0.0001688  0.6878110  )
        77           Si  tau(  77) = (  0.0002980  0.2005150  0.6884235  )
        78           Si  tau(  78) = ( -0.0001117  0.4000756  0.6878110  )
        79           Si  tau(  79) = ( -0.0000625  0.5999988  0.6876477  )
        80           Si  tau(  80) = ( -0.0000699  0.8000704  0.6876274  )
        81           Si  tau(  81) = (  0.2001436  0.0004416  0.6880173  )
        82           Si  tau(  82) = (  0.2002787  0.2017460  0.6886363  )
        83           Si  tau(  83) = (  0.2036011  0.4015444  0.6899689  )
        84           Si  tau(  84) = (  0.2002986  0.5996913  0.6881483  )
        85           Si  tau(  85) = (  0.2000355  0.8000287  0.6876488  )
        86           Si  tau(  86) = (  0.4003037 -0.0001388  0.6877738  )
        87           Si  tau(  87) = (  0.4008842  0.2007328  0.6882631  )
        88           Si  tau(  88) = (  0.3984843  0.5964642  0.6899503  )
        89           Si  tau(  89) = (  0.3999838  0.8000834  0.6878290  )
        90           Si  tau(  90) = (  0.6001150 -0.0000744  0.6879258  )
        91           Si  tau(  91) = (  0.6001693  0.1997781  0.6882481  )
        92           Si  tau(  92) = (  0.5990974  0.3990071  0.6881995  )
        93           Si  tau(  93) = (  0.5981505  0.5996668  0.6886032  )
        94           Si  tau(  94) = (  0.5995764  0.7997507  0.6884194  )
        95           Si  tau(  95) = (  0.7999619  0.0001075  0.6879540  )
        96           Si  tau(  96) = (  0.8000692  0.1999396  0.6879258  )
        97           Si  tau(  97) = (  0.8000492  0.3996984  0.6877386  )
        98           Si  tau(  98) = (  0.7994605  0.5998295  0.6879904  )
        99           Si  tau(  99) = (  0.7998027  0.8003516  0.6878112  )
       100           C   tau( 100) = (  0.0666779  0.1334842  0.2501287  )
       101           C   tau( 101) = (  0.0667083  0.3333750  0.2499288  )
       102           C   tau( 102) = (  0.0667466  0.5333916  0.2493987  )
       103           C   tau( 103) = (  0.0666751  0.7333377  0.2494388  )
       104           C   tau( 104) = (  0.0667124  0.9333927  0.2495258  )
       105           C   tau( 105) = (  0.2666617  0.1333190  0.2500102  )
       106           C   tau( 106) = (  0.2669677  0.3335942  0.2490376  )
       107           C   tau( 107) = (  0.2666259  0.5334437  0.2495404  )
       108           C   tau( 108) = (  0.2666601  0.7333172  0.2494019  )
       109           C   tau( 109) = (  0.2666561  0.9333798  0.2495028  )
       110           C   tau( 110) = (  0.4667900  0.1333442  0.2500325  )
       111           C   tau( 111) = (  0.4665872  0.3333351  0.2487723  )
       112           C   tau( 112) = (  0.4663991  0.5329713  0.2489909  )
       113           C   tau( 113) = (  0.4666916  0.7333136  0.2499249  )
       114           C   tau( 114) = (  0.4667208  0.9333411  0.2495682  )
       115           C   tau( 115) = (  0.6666751  0.1333176  0.2497940  )
       116           C   tau( 116) = (  0.6666119  0.3332004  0.2499667  )
       117           C   tau( 117) = (  0.6666869  0.5333309  0.2499658  )
       118           C   tau( 118) = (  0.6665584  0.7333244  0.2500980  )
       119           C   tau( 119) = (  0.6666568  0.9332869  0.2498460  )
       120           C   tau( 120) = (  0.8667291  0.1333801  0.2498413  )
       121           C   tau( 121) = (  0.8666430  0.3333046  0.2495422  )
       122           C   tau( 122) = (  0.8666387  0.5333401  0.2494955  )
       123           C   tau( 123) = (  0.8666296  0.7332876  0.2495218  )
       124           C   tau( 124) = (  0.8666620  0.9333673  0.2496540  )
       125           C   tau( 125) = (  0.1326189  0.0664440  0.7493651  )
       126           C   tau( 126) = (  0.1330425  0.2670212  0.7500922  )
       127           C   tau( 127) = (  0.1319583  0.4660499  0.7486102  )
       128           C   tau( 128) = (  0.1332496  0.6667179  0.7492350  )
       129           C   tau( 129) = (  0.1333217  0.8668475  0.7493319  )
       130           C   tau( 130) = (  0.3337330  0.0661254  0.7493314  )
       131           C   tau( 131) = (  0.3266692  0.2524905  0.7571378  )
       132           C   tau( 132) = (  0.3294626  0.4705763  0.7533561  )
       133           C   tau( 133) = (  0.3339470  0.6680099  0.7486334  )
       134           C   tau( 134) = (  0.3333628  0.8669357  0.7494567  )
       135           C   tau( 135) = (  0.5335380  0.0665870  0.7497103  )
       136           C   tau( 136) = (  0.5336262  0.2662458  0.7501164  )
       137           C   tau( 137) = (  0.5473448  0.4732504  0.7570613  )
       138           C   tau( 138) = (  0.5330230  0.6670147  0.7500882  )
       139           C   tau( 139) = (  0.5334158  0.8669349  0.7497057  )
       140           C   tau( 140) = (  0.7333442  0.0667047  0.7497270  )
       141           C   tau( 141) = (  0.7333528  0.2664692  0.7497184  )
       142           C   tau( 142) = (  0.7337072  0.4662127  0.7492741  )
       143           C   tau( 143) = (  0.7334336  0.6673373  0.7493203  )
       144           C   tau( 144) = (  0.7332191  0.8668963  0.7496762  )
       145           C   tau( 145) = (  0.9331691  0.0668527  0.7496673  )
       146           C   tau( 146) = (  0.9330620  0.2666490  0.7496825  )
       147           C   tau( 147) = (  0.9329682  0.4666687  0.7494310  )
       148           C   tau( 148) = (  0.9330768  0.6666778  0.7493121  )
       149           C   tau( 149) = (  0.9332369  0.8667386  0.7495294  )
       150           C   tau( 150) = (  0.0000838  0.0001346  0.0006538  )
       151           C   tau( 151) = ( -0.0000156  0.2000237  0.0007100  )
       152           C   tau( 152) = (  0.0001474  0.4000800  0.0004935  )
       153           C   tau( 153) = (  0.0000239  0.6000178  0.0003119  )
       154           C   tau( 154) = ( -0.0000071  0.8000170  0.0003745  )
       155           C   tau( 155) = (  0.2000994  0.0001891  0.0002567  )
       156           C   tau( 156) = (  0.1998301  0.2001241  0.0018787  )
       157           C   tau( 157) = (  0.2002084  0.3997367  0.0011776  )
       158           C   tau( 158) = (  0.2001608  0.5998821 -0.0000308  )
       159           C   tau( 159) = (  0.2000081  0.8000052  0.0003235  )
       160           C   tau( 160) = (  0.4000239 -0.0000060  0.0006374  )
       161           C   tau( 161) = (  0.4003058  0.1999273  0.0018177  )
       162           C   tau( 162) = (  0.3998728  0.3999818 -0.0004167  )
       163           C   tau( 163) = (  0.4002759  0.5997403  0.0011933  )
       164           C   tau( 164) = (  0.3999884  0.7997883  0.0005319  )
       165           C   tau( 165) = (  0.6000576 -0.0000111  0.0007424  )
       166           C   tau( 166) = (  0.6000575  0.1998950  0.0007189  )
       167           C   tau( 167) = (  0.5999085  0.3996178  0.0017818  )
       168           C   tau( 168) = (  0.5997672  0.6000536  0.0017970  )
       169           C   tau( 169) = (  0.6000246  0.8000125  0.0007067  )
       170           C   tau( 170) = (  0.8000211  0.0000223  0.0007116  )
       171           C   tau( 171) = (  0.8000045  0.1999759  0.0007345  )
       172           C   tau( 172) = (  0.7998783  0.3999723  0.0006003  )
       173           C   tau( 173) = (  0.7997788  0.5998767  0.0002080  )
       174           C   tau( 174) = (  0.7998660  0.7998868  0.0006271  )
       175           C   tau( 175) = (  0.0005129  0.0005787  0.5006284  )
       176           C   tau( 176) = (  0.0003169  0.2003795  0.5010481  )
       177           C   tau( 177) = (  0.0002566  0.4001481  0.5004961  )
       178           C   tau( 178) = ( -0.0000909  0.5999980  0.5004328  )
       179           C   tau( 179) = ( -0.0000465  0.8001172  0.5004530  )
       180           C   tau( 180) = (  0.2001670  0.0004347  0.5007752  )
       181           C   tau( 181) = (  0.2024744  0.2022468  0.5009836  )
       182           C   tau( 182) = (  0.2019992  0.4007578  0.5009237  )
       183           C   tau( 183) = (  0.2000757  0.6000275  0.5005834  )
       184           C   tau( 184) = (  0.2000808  0.8001729  0.5004333  )
       185           C   tau( 185) = (  0.4000060  0.0004977  0.5005815  )
       186           C   tau( 186) = (  0.3996416  0.2018788  0.5007929  )
       187           C   tau( 187) = (  0.3993276  0.5980534  0.5008848  )
       188           C   tau( 188) = (  0.3999529  0.7997504  0.5005141  )
       189           C   tau( 189) = (  0.6000208  0.0000366  0.5007343  )
       190           C   tau( 190) = (  0.5999028  0.2001238  0.5009839  )
       191           C   tau( 191) = (  0.5980501  0.4003261  0.5007441  )
       192           C   tau( 192) = (  0.5977583  0.5975291  0.5009840  )
       193           C   tau( 193) = (  0.5997330  0.7997463  0.5010479  )
       194           C   tau( 194) = (  0.8000126  0.0000763  0.5007718  )
       195           C   tau( 195) = (  0.7999884  0.2000395  0.5007298  )
       196           C   tau( 196) = (  0.7994521  0.4000242  0.5005460  )
       197           C   tau( 197) = (  0.7995882  0.5998561  0.5007472  )
       198           C   tau( 198) = (  0.7994942  0.7995324  0.5006336  )

     number of k points=     1
                       cart. coord. in units 2pi/alat
        k(    1) = (   0.0000000   0.0000000   0.0000000), wk =   1.0000000

                       cryst. coord.
        k(    1) = (   0.0000000   0.0000000   0.0000000), wk =   1.0000000

     Dense  grid:   685522 G-vectors     FFT dimensions: ( 180, 180, 120)

     Dynamical RAM for                 wfc:      37.35 MB

     Dynamical RAM for     wfc (w. buffer):      37.35 MB

     Dynamical RAM for           str. fact:       1.49 MB

     Dynamical RAM for           local pot:       0.00 MB

     Dynamical RAM for          nlocal pot:     147.92 MB

     Dynamical RAM for                qrad:       0.82 MB

     Dynamical RAM for          rho,v,vnew:      17.83 MB

     Dynamical RAM for               rhoin:       5.94 MB

     Dynamical RAM for            rho*nmix:      23.91 MB

     Dynamical RAM for           G-vectors:       3.18 MB

     Dynamical RAM for          h,s,v(r/c):       1.62 MB

     Dynamical RAM for          <psi|beta>:       4.83 MB

     Dynamical RAM for                 psi:      74.71 MB

     Dynamical RAM for                hpsi:      74.71 MB

     Dynamical RAM for      wfcinit/wfcrot:      78.37 MB

     Estimated static dynamical RAM per process >     230.13 MB

     Estimated max dynamical RAM per process >     409.91 MB

     Estimated total dynamical RAM >      43.53 GB
     Generating pointlists ...
     new r_m :   0.0482 (alat units)  1.4090 (a.u.) for type    1
     new r_m :   0.0482 (alat units)  1.4090 (a.u.) for type    2

     Initial potential from superposition of free atoms

     starting charge     786.7340, renormalised to     792.0000
     Starting wfcs are random

     total cpu time spent up to now is        4.3 secs

     Self-consistent Calculation

     iteration #  1     ecut=    80.00 Ry     beta= 0.30
     Davidson diagonalization with overlap

---- Real-time Memory Report at c_bands before calling an iterative solver
           496 MiB given to the printing process from OS
             0 MiB allocation reported by mallinfo(arena+hblkhd)
         40751 MiB available memory on the node where the printing process lives
------------------
     ethr =  1.00E-02,  avg # of iterations = 13.0

     total cpu time spent up to now is       28.5 secs

     total energy              =   -1909.91374871 Ry
     estimated scf accuracy    <      34.80647720 Ry

     total magnetization       =     2.00 Bohr mag/cell
     absolute magnetization    =     2.00 Bohr mag/cell

     iteration #  2     ecut=    80.00 Ry     beta= 0.30
     Davidson diagonalization with overlap

---- Real-time Memory Report at c_bands before calling an iterative solver
           698 MiB given to the printing process from OS
             0 MiB allocation reported by mallinfo(arena+hblkhd)
         39715 MiB available memory on the node where the printing process lives
------------------
     ethr =  4.39E-03,  avg # of iterations =  8.0

     total cpu time spent up to now is       35.3 secs

     total energy              =   -1909.13950741 Ry
     estimated scf accuracy    <       7.71879381 Ry

     total magnetization       =     2.00 Bohr mag/cell
     absolute magnetization    =     2.03 Bohr mag/cell

     iteration #  3     ecut=    80.00 Ry     beta= 0.30
     Davidson diagonalization with overlap

---- Real-time Memory Report at c_bands before calling an iterative solver
           771 MiB given to the printing process from OS
             0 MiB allocation reported by mallinfo(arena+hblkhd)
         39771 MiB available memory on the node where the printing process lives
------------------
     ethr =  9.75E-04,  avg # of iterations =  3.0

     total cpu time spent up to now is       43.8 secs

     total energy              =   -1911.56733309 Ry
     estimated scf accuracy    <       0.97387772 Ry

     total magnetization       =     2.00 Bohr mag/cell
     absolute magnetization    =     2.07 Bohr mag/cell

     iteration #  4     ecut=    80.00 Ry     beta= 0.30
     Davidson diagonalization with overlap

---- Real-time Memory Report at c_bands before calling an iterative solver
           794 MiB given to the printing process from OS
             0 MiB allocation reported by mallinfo(arena+hblkhd)
         39349 MiB available memory on the node where the printing process lives
------------------
     ethr =  1.23E-04,  avg # of iterations = 14.5

     total cpu time spent up to now is       53.2 secs

     total energy              =   -1911.58516966 Ry
     estimated scf accuracy    <       0.46095316 Ry

     total magnetization       =     2.00 Bohr mag/cell
     absolute magnetization    =     2.09 Bohr mag/cell

     iteration #  5     ecut=    80.00 Ry     beta= 0.30
     Davidson diagonalization with overlap

---- Real-time Memory Report at c_bands before calling an iterative solver
           814 MiB given to the printing process from OS
             0 MiB allocation reported by mallinfo(arena+hblkhd)
         39148 MiB available memory on the node where the printing process lives
------------------
     ethr =  5.82E-05,  avg # of iterations = 18.0

     total cpu time spent up to now is       62.5 secs

     total energy              =   -1911.64370329 Ry
     estimated scf accuracy    <       0.15525051 Ry

     total magnetization       =     2.00 Bohr mag/cell
     absolute magnetization    =     2.10 Bohr mag/cell

     iteration #  6     ecut=    80.00 Ry     beta= 0.30
     Davidson diagonalization with overlap

---- Real-time Memory Report at c_bands before calling an iterative solver
           826 MiB given to the printing process from OS
             0 MiB allocation reported by mallinfo(arena+hblkhd)
         39075 MiB available memory on the node where the printing process lives
------------------
     ethr =  1.96E-05,  avg # of iterations = 14.5

     total cpu time spent up to now is       72.9 secs

     total energy              =   -1911.62971366 Ry
     estimated scf accuracy    <       0.15029158 Ry

     total magnetization       =     2.00 Bohr mag/cell
     absolute magnetization    =     2.16 Bohr mag/cell

     iteration #  7     ecut=    80.00 Ry     beta= 0.30
     Davidson diagonalization with overlap

---- Real-time Memory Report at c_bands before calling an iterative solver
           840 MiB given to the printing process from OS
             0 MiB allocation reported by mallinfo(arena+hblkhd)
         38986 MiB available memory on the node where the printing process lives
------------------
     ethr =  1.90E-05,  avg # of iterations =  2.0

     total cpu time spent up to now is       79.1 secs

     total energy              =   -1911.63670413 Ry
     estimated scf accuracy    <       0.01378335 Ry

     total magnetization       =     2.00 Bohr mag/cell
     absolute magnetization    =     2.18 Bohr mag/cell

     iteration #  8     ecut=    80.00 Ry     beta= 0.30
     Davidson diagonalization with overlap

---- Real-time Memory Report at c_bands before calling an iterative solver
           845 MiB given to the printing process from OS
             0 MiB allocation reported by mallinfo(arena+hblkhd)
         38861 MiB available memory on the node where the printing process lives
------------------
     c_bands:  1 eigenvalues not converged
     ethr =  1.74E-06,  avg # of iterations = 20.0

     total cpu time spent up to now is       91.3 secs

     total energy              =   -1911.64320031 Ry
     estimated scf accuracy    <       0.00087045 Ry

     total magnetization       =     2.00 Bohr mag/cell
     absolute magnetization    =     2.19 Bohr mag/cell

     iteration #  9     ecut=    80.00 Ry     beta= 0.30
     Davidson diagonalization with overlap

---- Real-time Memory Report at c_bands before calling an iterative solver
           852 MiB given to the printing process from OS
             0 MiB allocation reported by mallinfo(arena+hblkhd)
         38732 MiB available memory on the node where the printing process lives
------------------
     c_bands:  1 eigenvalues not converged
     ethr =  1.10E-07,  avg # of iterations = 20.0

     total cpu time spent up to now is      102.5 secs

     total energy              =   -1911.64354824 Ry
     estimated scf accuracy    <       0.00010949 Ry

     total magnetization       =     2.00 Bohr mag/cell
     absolute magnetization    =     2.20 Bohr mag/cell

     iteration # 10     ecut=    80.00 Ry     beta= 0.30
     Davidson diagonalization with overlap

---- Real-time Memory Report at c_bands before calling an iterative solver
           861 MiB given to the printing process from OS
             0 MiB allocation reported by mallinfo(arena+hblkhd)
         38614 MiB available memory on the node where the printing process lives
------------------
     c_bands:  1 eigenvalues not converged
     ethr =  1.38E-08,  avg # of iterations = 20.0

     total cpu time spent up to now is      114.4 secs

     total energy              =   -1911.64357440 Ry
     estimated scf accuracy    <       0.00013455 Ry

     total magnetization       =     2.00 Bohr mag/cell
     absolute magnetization    =     2.21 Bohr mag/cell

     iteration # 11     ecut=    80.00 Ry     beta= 0.30
     Davidson diagonalization with overlap

---- Real-time Memory Report at c_bands before calling an iterative solver
           871 MiB given to the printing process from OS
             0 MiB allocation reported by mallinfo(arena+hblkhd)
         38608 MiB available memory on the node where the printing process lives
------------------
     c_bands:  1 eigenvalues not converged
     ethr =  1.38E-08,  avg # of iterations = 20.0

     total cpu time spent up to now is      125.7 secs

     total energy              =   -1911.64362412 Ry
     estimated scf accuracy    <       0.00001749 Ry

     total magnetization       =     2.00 Bohr mag/cell
     absolute magnetization    =     2.21 Bohr mag/cell

     iteration # 12     ecut=    80.00 Ry     beta= 0.30
     Davidson diagonalization with overlap

---- Real-time Memory Report at c_bands before calling an iterative solver
           873 MiB given to the printing process from OS
             0 MiB allocation reported by mallinfo(arena+hblkhd)
         38619 MiB available memory on the node where the printing process lives
------------------
     c_bands:  1 eigenvalues not converged
     ethr =  2.21E-09,  avg # of iterations = 20.0

     total cpu time spent up to now is      136.8 secs

     total energy              =   -1911.64363702 Ry
     estimated scf accuracy    <       0.00000379 Ry

     total magnetization       =     2.00 Bohr mag/cell
     absolute magnetization    =     2.22 Bohr mag/cell

     iteration # 13     ecut=    80.00 Ry     beta= 0.30
     Davidson diagonalization with overlap

---- Real-time Memory Report at c_bands before calling an iterative solver
           876 MiB given to the printing process from OS
             0 MiB allocation reported by mallinfo(arena+hblkhd)
         38567 MiB available memory on the node where the printing process lives
------------------
     c_bands:  1 eigenvalues not converged
     ethr =  4.78E-10,  avg # of iterations = 20.0

     total cpu time spent up to now is      148.4 secs

     total energy              =   -1911.64364288 Ry
     estimated scf accuracy    <       0.00000218 Ry

     total magnetization       =     2.00 Bohr mag/cell
     absolute magnetization    =     2.22 Bohr mag/cell

     iteration # 14     ecut=    80.00 Ry     beta= 0.30
     Davidson diagonalization with overlap

---- Real-time Memory Report at c_bands before calling an iterative solver
           884 MiB given to the printing process from OS
             0 MiB allocation reported by mallinfo(arena+hblkhd)
         38585 MiB available memory on the node where the printing process lives
------------------
     c_bands:  1 eigenvalues not converged
     ethr =  2.75E-10,  avg # of iterations = 20.0

     total cpu time spent up to now is      160.3 secs

     total energy              =   -1911.64364510 Ry
     estimated scf accuracy    <       0.00000040 Ry

     total magnetization       =     2.00 Bohr mag/cell
     absolute magnetization    =     2.22 Bohr mag/cell

     iteration # 15     ecut=    80.00 Ry     beta= 0.30
     Davidson diagonalization with overlap

---- Real-time Memory Report at c_bands before calling an iterative solver
           886 MiB given to the printing process from OS
             0 MiB allocation reported by mallinfo(arena+hblkhd)
         38571 MiB available memory on the node where the printing process lives
------------------
     c_bands:  1 eigenvalues not converged
     ethr =  5.09E-11,  avg # of iterations = 20.0

     total cpu time spent up to now is      172.0 secs

     total energy              =   -1911.64364553 Ry
     estimated scf accuracy    <       0.00000008 Ry

     total magnetization       =     2.00 Bohr mag/cell
     absolute magnetization    =     2.22 Bohr mag/cell

     iteration # 16     ecut=    80.00 Ry     beta= 0.30
     Davidson diagonalization with overlap

---- Real-time Memory Report at c_bands before calling an iterative solver
           888 MiB given to the printing process from OS
             0 MiB allocation reported by mallinfo(arena+hblkhd)
         38488 MiB available memory on the node where the printing process lives
------------------
     c_bands:  1 eigenvalues not converged
     ethr =  9.55E-12,  avg # of iterations = 20.0

     total cpu time spent up to now is      183.5 secs

     total energy              =   -1911.64364558 Ry
     estimated scf accuracy    <       0.00000004 Ry

     total magnetization       =     2.00 Bohr mag/cell
     absolute magnetization    =     2.22 Bohr mag/cell

     iteration # 17     ecut=    80.00 Ry     beta= 0.30
     Davidson diagonalization with overlap

---- Real-time Memory Report at c_bands before calling an iterative solver
           891 MiB given to the printing process from OS
             0 MiB allocation reported by mallinfo(arena+hblkhd)
         38509 MiB available memory on the node where the printing process lives
------------------
     c_bands:  1 eigenvalues not converged
     ethr =  4.73E-12,  avg # of iterations = 20.0

     total cpu time spent up to now is      194.9 secs

     total energy              =   -1911.64364561 Ry
     estimated scf accuracy    <       0.00000001 Ry

     total magnetization       =     2.00 Bohr mag/cell
     absolute magnetization    =     2.22 Bohr mag/cell

     iteration # 18     ecut=    80.00 Ry     beta= 0.30
     Davidson diagonalization with overlap

---- Real-time Memory Report at c_bands before calling an iterative solver
           891 MiB given to the printing process from OS
             0 MiB allocation reported by mallinfo(arena+hblkhd)
         38522 MiB available memory on the node where the printing process lives
------------------
     c_bands:  1 eigenvalues not converged
     ethr =  1.37E-12,  avg # of iterations = 20.0
 
     Magnetic moment per site  (integrated on atomic sphere of radius R)
     atom   1 (R=0.048)  charge=  0.8103  magn=  0.0002
     atom   2 (R=0.048)  charge=  0.8106  magn=  0.0002
     atom   3 (R=0.048)  charge=  0.8139  magn= -0.0000
     atom   4 (R=0.048)  charge=  0.8137  magn= -0.0000
     atom   5 (R=0.048)  charge=  0.8137  magn= -0.0000
     atom   6 (R=0.048)  charge=  0.8167  magn= -0.0000
     atom   7 (R=0.048)  charge=  0.7904  magn=  0.0005
     atom   8 (R=0.048)  charge=  0.8173  magn= -0.0000
     atom   9 (R=0.048)  charge=  0.8139  magn= -0.0000
     atom  10 (R=0.048)  charge=  0.8138  magn= -0.0000
     atom  11 (R=0.048)  charge=  0.8109  magn=  0.0002
     atom  12 (R=0.048)  charge=  0.7906  magn=  0.0004
     atom  13 (R=0.048)  charge=  0.7905  magn=  0.0005
     atom  14 (R=0.048)  charge=  0.8106  magn=  0.0002
     atom  15 (R=0.048)  charge=  0.8124  magn= -0.0000
     atom  16 (R=0.048)  charge=  0.8137  magn=  0.0000
     atom  17 (R=0.048)  charge=  0.8109  magn=  0.0002
     atom  18 (R=0.048)  charge=  0.8165  magn= -0.0000
     atom  19 (R=0.048)  charge=  0.8102  magn=  0.0002
     atom  20 (R=0.048)  charge=  0.8135  magn=  0.0000
     atom  21 (R=0.048)  charge=  0.8135  magn=  0.0000
     atom  22 (R=0.048)  charge=  0.8123  magn= -0.0000
     atom  23 (R=0.048)  charge=  0.8137  magn= -0.0000
     atom  24 (R=0.048)  charge=  0.8137  magn= -0.0000
     atom  25 (R=0.048)  charge=  0.8120  magn= -0.0000
     atom  26 (R=0.048)  charge=  0.8129  magn= -0.0001
     atom  27 (R=0.048)  charge=  0.8148  magn= -0.0002
     atom  28 (R=0.048)  charge=  0.8122  magn= -0.0002
     atom  29 (R=0.048)  charge=  0.8137  magn=  0.0000
     atom  30 (R=0.048)  charge=  0.8137  magn=  0.0000
     atom  31 (R=0.048)  charge=  0.8131  magn= -0.0001
     atom  32 (R=0.048)  charge=  0.8220  magn= -0.0004
     atom  33 (R=0.048)  charge=  0.8198  magn= -0.0001
     atom  34 (R=0.048)  charge=  0.8123  magn= -0.0002
     atom  35 (R=0.048)  charge=  0.8138  magn= -0.0000
     atom  36 (R=0.048)  charge=  0.8145  magn=  0.0000
     atom  37 (R=0.048)  charge=  0.8143  magn= -0.0002
     atom  38 (R=0.048)  charge=  0.8220  magn= -0.0004
     atom  39 (R=0.048)  charge=  0.8149  magn= -0.0002
     atom  40 (R=0.048)  charge=  0.8145  magn=  0.0000
     atom  41 (R=0.048)  charge=  0.8145  magn= -0.0000
     atom  42 (R=0.048)  charge=  0.8145  magn=  0.0000
     atom  43 (R=0.048)  charge=  0.8130  magn= -0.0001
     atom  44 (R=0.048)  charge=  0.8128  magn= -0.0001
     atom  45 (R=0.048)  charge=  0.8143  magn= -0.0000
     atom  46 (R=0.048)  charge=  0.8143  magn= -0.0000
     atom  47 (R=0.048)  charge=  0.8144  magn=  0.0000
     atom  48 (R=0.048)  charge=  0.8137  magn= -0.0000
     atom  49 (R=0.048)  charge=  0.8136  magn=  0.0000
     atom  50 (R=0.048)  charge=  0.8137  magn= -0.0000
     atom  51 (R=0.048)  charge=  0.8148  magn= -0.0000
     atom  52 (R=0.048)  charge=  0.8153  magn= -0.0000
     atom  53 (R=0.048)  charge=  0.8149  magn= -0.0000
     atom  54 (R=0.048)  charge=  0.8150  magn=  0.0000
     atom  55 (R=0.048)  charge=  0.8149  magn=  0.0000
     atom  56 (R=0.048)  charge=  0.8149  magn=  0.0000
     atom  57 (R=0.048)  charge=  0.8170  magn=  0.0003
     atom  58 (R=0.048)  charge=  0.8162  magn=  0.0002
     atom  59 (R=0.048)  charge=  0.8152  magn=  0.0000
     atom  60 (R=0.048)  charge=  0.8150  magn=  0.0000
     atom  61 (R=0.048)  charge=  0.8151  magn= -0.0000
     atom  62 (R=0.048)  charge=  0.8174  magn=  0.0003
     atom  63 (R=0.048)  charge=  0.8169  magn= -0.0006
     atom  64 (R=0.048)  charge=  0.8163  magn=  0.0002
     atom  65 (R=0.048)  charge=  0.8150  magn= -0.0000
     atom  66 (R=0.048)  charge=  0.8155  magn=  0.0000
     atom  67 (R=0.048)  charge=  0.8155  magn=  0.0000
     atom  68 (R=0.048)  charge=  0.8173  magn=  0.0003
     atom  69 (R=0.048)  charge=  0.8169  magn=  0.0003
     atom  70 (R=0.048)  charge=  0.8153  magn= -0.0000
     atom  71 (R=0.048)  charge=  0.8152  magn=  0.0000
     atom  72 (R=0.048)  charge=  0.8155  magn=  0.0000
     atom  73 (R=0.048)  charge=  0.8151  magn= -0.0000
     atom  74 (R=0.048)  charge=  0.8148  magn=  0.0000
     atom  75 (R=0.048)  charge=  0.8147  magn= -0.0000
     atom  76 (R=0.048)  charge=  0.8175  magn=  0.0023
     atom  77 (R=0.048)  charge=  0.8163  magn= -0.0003
     atom  78 (R=0.048)  charge=  0.8185  magn=  0.0014
     atom  79 (R=0.048)  charge=  0.8151  magn= -0.0001
     atom  80 (R=0.048)  charge=  0.8151  magn= -0.0001
     atom  81 (R=0.048)  charge=  0.8144  magn= -0.0000
     atom  82 (R=0.048)  charge=  0.8208  magn= -0.0004
     atom  83 (R=0.048)  charge=  0.8208  magn=  0.0007
     atom  84 (R=0.048)  charge=  0.8140  magn= -0.0001
     atom  85 (R=0.048)  charge=  0.8151  magn= -0.0001
     atom  86 (R=0.048)  charge=  0.8185  magn=  0.0024
     atom  87 (R=0.048)  charge=  0.8227  magn=  0.0001
     atom  88 (R=0.048)  charge=  0.8207  magn=  0.0007
     atom  89 (R=0.048)  charge=  0.8186  magn=  0.0014
     atom  90 (R=0.048)  charge=  0.8166  magn=  0.0000
     atom  91 (R=0.048)  charge=  0.8172  magn= -0.0002
     atom  92 (R=0.048)  charge=  0.8225  magn=  0.0001
     atom  93 (R=0.048)  charge=  0.8210  magn= -0.0004
     atom  94 (R=0.048)  charge=  0.8164  magn= -0.0003
     atom  95 (R=0.048)  charge=  0.8164  magn=  0.0000
     atom  96 (R=0.048)  charge=  0.8166  magn=  0.0000
     atom  97 (R=0.048)  charge=  0.8185  magn=  0.0024
     atom  98 (R=0.048)  charge=  0.8143  magn= -0.0000
     atom  99 (R=0.048)  charge=  0.8175  magn=  0.0023
     atom 100 (R=0.048)  charge=  2.7091  magn=  0.0004
     atom 101 (R=0.048)  charge=  2.7085  magn=  0.0003
     atom 102 (R=0.048)  charge=  2.7075  magn=  0.0000
     atom 103 (R=0.048)  charge=  2.7075  magn= -0.0000
     atom 104 (R=0.048)  charge=  2.7072  magn=  0.0000
     atom 105 (R=0.048)  charge=  2.7088  magn=  0.0007
     atom 106 (R=0.048)  charge=  2.7057  magn=  0.0005
     atom 107 (R=0.048)  charge=  2.7100  magn=  0.0007
     atom 108 (R=0.048)  charge=  2.7076  magn=  0.0000
     atom 109 (R=0.048)  charge=  2.7073  magn=  0.0000
     atom 110 (R=0.048)  charge=  2.7101  magn=  0.0005
     atom 111 (R=0.048)  charge=  2.7078  magn=  0.0001
     atom 112 (R=0.048)  charge=  2.7057  magn=  0.0005
     atom 113 (R=0.048)  charge=  2.7086  magn=  0.0003
     atom 114 (R=0.048)  charge=  2.7087  magn= -0.0000
     atom 115 (R=0.048)  charge=  2.7081  magn= -0.0000
     atom 116 (R=0.048)  charge=  2.7101  magn=  0.0005
     atom 117 (R=0.048)  charge=  2.7086  magn=  0.0007
     atom 118 (R=0.048)  charge=  2.7087  magn=  0.0004
     atom 119 (R=0.048)  charge=  2.7076  magn= -0.0000
     atom 120 (R=0.048)  charge=  2.7075  magn= -0.0000
     atom 121 (R=0.048)  charge=  2.7085  magn= -0.0000
     atom 122 (R=0.048)  charge=  2.7072  magn=  0.0000
     atom 123 (R=0.048)  charge=  2.7072  magn=  0.0000
     atom 124 (R=0.048)  charge=  2.7081  magn=  0.0000
     atom 125 (R=0.048)  charge=  2.6992  magn=  0.0249
     atom 126 (R=0.048)  charge=  2.7120  magn=  0.0031
     atom 127 (R=0.048)  charge=  2.7051  magn=  0.0202
     atom 128 (R=0.048)  charge=  2.7065  magn=  0.0006
     atom 129 (R=0.048)  charge=  2.7065  magn=  0.0005
     atom 130 (R=0.048)  charge=  2.7025  magn=  0.0265
     atom 131 (R=0.048)  charge=  2.6408  magn=  0.3134
     atom 132 (R=0.048)  charge=  2.6848  magn=  0.2190
     atom 133 (R=0.048)  charge=  2.7052  magn=  0.0202
     atom 134 (R=0.048)  charge=  2.7091  magn=  0.0084
     atom 135 (R=0.048)  charge=  2.7103  magn= -0.0003
     atom 136 (R=0.048)  charge=  2.7137  magn=  0.0036
     atom 137 (R=0.048)  charge=  2.6404  magn=  0.3134
     atom 138 (R=0.048)  charge=  2.7121  magn=  0.0031
     atom 139 (R=0.048)  charge=  2.7103  magn= -0.0002
     atom 140 (R=0.048)  charge=  2.7104  magn= -0.0001
     atom 141 (R=0.048)  charge=  2.7103  magn= -0.0003
     atom 142 (R=0.048)  charge=  2.7022  magn=  0.0265
     atom 143 (R=0.048)  charge=  2.6992  magn=  0.0248
     atom 144 (R=0.048)  charge=  2.7090  magn= -0.0002
     atom 145 (R=0.048)  charge=  2.7089  magn= -0.0002
     atom 146 (R=0.048)  charge=  2.7102  magn= -0.0002
     atom 147 (R=0.048)  charge=  2.7090  magn=  0.0084
     atom 148 (R=0.048)  charge=  2.7063  magn=  0.0005
     atom 149 (R=0.048)  charge=  2.7060  magn=  0.0083
     atom 150 (R=0.048)  charge=  2.7080  magn=  0.0000
     atom 151 (R=0.048)  charge=  2.7098  magn=  0.0001
     atom 152 (R=0.048)  charge=  2.7074  magn=  0.0002
     atom 153 (R=0.048)  charge=  2.7083  magn=  0.0000
     atom 154 (R=0.048)  charge=  2.7084  magn=  0.0000
     atom 155 (R=0.048)  charge=  2.7081  magn=  0.0000
     atom 156 (R=0.048)  charge=  2.7122  magn=  0.0059
     atom 157 (R=0.048)  charge=  2.7111  magn=  0.0053
     atom 158 (R=0.048)  charge=  2.7076  magn=  0.0000
     atom 159 (R=0.048)  charge=  2.7084  magn=  0.0000
     atom 160 (R=0.048)  charge=  2.7087  magn=  0.0001
     atom 161 (R=0.048)  charge=  2.7133  magn=  0.0066
     atom 162 (R=0.048)  charge=  2.7102  magn=  0.0263
     atom 163 (R=0.048)  charge=  2.7113  magn=  0.0053
     atom 164 (R=0.048)  charge=  2.7076  magn=  0.0002
     atom 165 (R=0.048)  charge=  2.7102  magn=  0.0001
     atom 166 (R=0.048)  charge=  2.7105  magn=  0.0002
     atom 167 (R=0.048)  charge=  2.7133  magn=  0.0066
     atom 168 (R=0.048)  charge=  2.7119  magn=  0.0059
     atom 169 (R=0.048)  charge=  2.7099  magn=  0.0001
     atom 170 (R=0.048)  charge=  2.7097  magn=  0.0001
     atom 171 (R=0.048)  charge=  2.7102  magn=  0.0001
     atom 172 (R=0.048)  charge=  2.7087  magn=  0.0001
     atom 173 (R=0.048)  charge=  2.7078  magn=  0.0000
     atom 174 (R=0.048)  charge=  2.7078  magn=  0.0000
     atom 175 (R=0.048)  charge=  2.7005  magn= -0.0001
     atom 176 (R=0.048)  charge=  2.7103  magn=  0.0003
     atom 177 (R=0.048)  charge=  2.7020  magn= -0.0000
     atom 178 (R=0.048)  charge=  2.7080  magn=  0.0000
     atom 179 (R=0.048)  charge=  2.7077  magn=  0.0000
     atom 180 (R=0.048)  charge=  2.7091  magn=  0.0001
     atom 181 (R=0.048)  charge=  2.6901  magn=  0.0025
     atom 182 (R=0.048)  charge=  2.6924  magn=  0.0021
     atom 183 (R=0.048)  charge=  2.7098  magn=  0.0000
     atom 184 (R=0.048)  charge=  2.7081  magn=  0.0000
     atom 185 (R=0.048)  charge=  2.7014  magn= -0.0001
     atom 186 (R=0.048)  charge=  2.6915  magn=  0.0027
     atom 187 (R=0.048)  charge=  2.6925  magn=  0.0021
     atom 188 (R=0.048)  charge=  2.7022  magn= -0.0000
     atom 189 (R=0.048)  charge=  2.7094  magn=  0.0000
     atom 190 (R=0.048)  charge=  2.7106  magn=  0.0004
     atom 191 (R=0.048)  charge=  2.6915  magn=  0.0027
     atom 192 (R=0.048)  charge=  2.6901  magn=  0.0025
     atom 193 (R=0.048)  charge=  2.7103  magn=  0.0003
     atom 194 (R=0.048)  charge=  2.7090  magn=  0.0000
     atom 195 (R=0.048)  charge=  2.7094  magn=  0.0000
     atom 196 (R=0.048)  charge=  2.7014  magn= -0.0001
     atom 197 (R=0.048)  charge=  2.7088  magn=  0.0001
     atom 198 (R=0.048)  charge=  2.7004  magn= -0.0001

     total cpu time spent up to now is      207.2 secs

     End of self-consistent calculation

 ------ SPIN UP ------------


          k = 0.0000 0.0000 0.0000 ( 85720 PWs)   bands (ev):

    -6.1181  -5.4718  -5.4659  -5.4618  -5.4573  -5.4561  -5.3327  -4.9592
    -4.9016  -4.3454  -4.3376  -4.3260  -4.3247  -4.3209  -4.2910  -4.2907
    -4.2858  -4.2774  -4.2733  -4.2344  -4.1799  -4.1737  -4.1729  -4.1633
    -4.1555  -4.1506  -3.9259  -3.6028  -3.6021  -3.5962  -3.5804  -3.5790
    -3.4183  -3.1249  -3.1239  -3.1207  -3.1201  -3.1106  -3.0677  -3.0658
    -3.0549  -3.0433  -3.0368  -2.9976  -2.8699  -2.6558  -2.6526  -2.6435
    -2.6324  -2.6301  -2.6268  -2.5753  -2.5697  -2.5678  -2.5381  -2.5359
    -2.4926  -2.4534  -2.3633  -2.3627  -2.3495  -2.3286  -2.3248  -2.0769
    -2.0756  -2.0723  -2.0647  -2.0611  -1.9656  -1.9163  -1.9014  -1.8992
    -1.8807  -1.8250  -1.8149  -1.7329  -1.7165  -1.7126  -1.7100  -1.6948
    -1.6920  -1.3069  -1.2420  -1.2377  -1.2141  -1.2131  -1.2112  -1.2057
    -1.2014  -1.1998  -1.1636  -1.1610  -1.1541  -1.1337  -1.1322  -1.1284
    -1.0593  -0.9903  -0.9597   0.6991   1.1684   1.1759   1.1815   1.1824
     1.2113   1.2162   1.2752   1.2823   1.2876   1.2910   1.2929   1.3091
     1.3856   1.4118   1.4148   1.4308   1.4380   1.4439   1.4595   1.4630
     1.4699   1.5083   1.5562   1.5585   1.6881   1.7772   1.7775   1.8499
     1.8539   1.8553   1.9962   2.0825   2.0827   2.0893   2.0915   2.0950
     2.1958   2.2224   2.2250   2.2831   2.3014   2.3109   2.5550   2.5901
     2.6084   2.6098   2.6160   2.6161   2.6176   2.6520   2.6522   2.6990
     2.7075   2.8668   3.0110   3.0268   3.0294   3.0355   3.0502   3.0508
     3.3082   3.3095   3.3162   3.3813   3.3854   3.4739   3.6223   3.6230
     3.6306   3.6399   3.6679   3.6710   3.7211   3.7229   3.7274   3.7277
     3.7424   3.7426   3.7818   3.7871   3.8077   3.8105   3.8563   3.9281
     3.9293   3.9547   3.9564   4.0378   4.0389   4.0622   4.2079   4.2576
     4.2598   4.2760   4.2920   4.2927   4.4608   4.4988   4.4990   4.5153
     4.5227   4.5632   4.5893   4.6716   4.6731   4.6838   4.6901   4.6968
     4.7889   4.7904   4.7931   4.8065   4.8162   4.8409   4.8420   4.8706
     4.8733   4.8800   4.8806   4.8825   4.9140   5.0478   5.0560   5.0575
     5.0762   5.1165   5.1177   5.1357   5.1695   5.2290   5.2311   5.2986
     5.3063   5.3281   5.3920   5.3947   5.4645   5.4943   5.5028   5.5384
     5.5901   5.6225   5.6294   5.6912   5.6915   5.7685   5.8236   5.8393
     5.8414   5.8921   5.8935   6.0488   6.0501   6.0605   6.0665   6.0730
     6.0835   6.0899   6.1183   6.1238   6.1258   6.1365   6.2043   6.2070
     6.2123   6.2682   6.2749   6.2801   6.2814   6.3060   6.3902   6.3945
     6.3996   6.4172   6.4222   6.4244   6.4653   6.4750   6.4784   6.4816
     6.4865   6.4900   6.4992   6.5029   6.5037   6.5075   6.5354   6.5387
     6.5792   6.6372   6.6393   6.6660   6.6671   6.8005   6.8059   6.8111
     6.8183   6.8187   6.8336   6.8590   6.8626   6.8677   6.8698   6.8739
     6.9426   6.9562   6.9582   6.9640   6.9714   6.9770   6.9861   6.9873
     6.9987   7.0025   7.0084   7.0157   7.0212   7.0328   7.0340   7.0578
     7.0599   7.0654   7.0837   7.0901   7.0945   7.0997   7.1017   7.1026
     7.1146   7.1304   7.1338   7.1387   7.1781   7.1884   7.2092   7.2163
     7.2591   7.3879   7.4014   7.4027   7.4124   7.4126   7.4618   7.4683
     7.5042   7.5508   7.5529   7.6244   7.6292   7.6378   7.6760   7.6850
     7.7858   7.7869   7.7974   7.7987   7.8149   7.8257   7.8294   7.8329
     7.8494   7.8563   7.8579   7.8678   7.8801   7.8822   7.9729   7.9763
     7.9904   8.0049   8.0223   8.1777   8.1836   8.1856   8.2122   8.3945
     8.4003   8.4534   8.4833   8.4861   8.5765   8.5997   8.6021   8.6293
     8.6305   8.6699   8.6707   8.7095   8.8122   8.8178   8.8259   8.8394
     9.1141   9.1142   9.1211   9.5513   9.5805  11.2868  11.3244  11.7592

     occupation numbers 
     1.0000   1.0000   1.0000   1.0000   1.0000   1.0000   1.0000   1.0000
     1.0000   1.0000   1.0000   1.0000   1.0000   1.0000   1.0000   1.0000
     1.0000   1.0000   1.0000   1.0000   1.0000   1.0000   1.0000   1.0000
     1.0000   1.0000   1.0000   1.0000   1.0000   1.0000   1.0000   1.0000
     1.0000   1.0000   1.0000   1.0000   1.0000   1.0000   1.0000   1.0000
     1.0000   1.0000   1.0000   1.0000   1.0000   1.0000   1.0000   1.0000
     1.0000   1.0000   1.0000   1.0000   1.0000   1.0000   1.0000   1.0000
     1.0000   1.0000   1.0000   1.0000   1.0000   1.0000   1.0000   1.0000
     1.0000   1.0000   1.0000   1.0000   1.0000   1.0000   1.0000   1.0000
     1.0000   1.0000   1.0000   1.0000   1.0000   1.0000   1.0000   1.0000
     1.0000   1.0000   1.0000   1.0000   1.0000   1.0000   1.0000   1.0000
     1.0000   1.0000   1.0000   1.0000   1.0000   1.0000   1.0000   1.0000
     1.0000   1.0000   1.0000   1.0000   1.0000   1.0000   1.0000   1.0000
     1.0000   1.0000   1.0000   1.0000   1.0000   1.0000   1.0000   1.0000
     1.0000   1.0000   1.0000   1.0000   1.0000   1.0000   1.0000   1.0000
     1.0000   1.0000   1.0000   1.0000   1.0000   1.0000   1.0000   1.0000
     1.0000   1.0000   1.0000   1.0000   1.0000   1.0000   1.0000   1.0000
     1.0000   1.0000   1.0000   1.0000   1.0000   1.0000   1.0000   1.0000
     1.0000   1.0000   1.0000   1.0000   1.0000   1.0000   1.0000   1.0000
     1.0000   1.0000   1.0000   1.0000   1.0000   1.0000   1.0000   1.0000
     1.0000   1.0000   1.0000   1.0000   1.0000   1.0000   1.0000   1.0000
     1.0000   1.0000   1.0000   1.0000   1.0000   1.0000   1.0000   1.0000
     1.0000   1.0000   1.0000   1.0000   1.0000   1.0000   1.0000   1.0000
     1.0000   1.0000   1.0000   1.0000   1.0000   1.0000   1.0000   1.0000
     1.0000   1.0000   1.0000   1.0000   1.0000   1.0000   1.0000   1.0000
     1.0000   1.0000   1.0000   1.0000   1.0000   1.0000   1.0000   1.0000
     1.0000   1.0000   1.0000   1.0000   1.0000   1.0000   1.0000   1.0000
     1.0000   1.0000   1.0000   1.0000   1.0000   1.0000   1.0000   1.0000
     1.0000   1.0000   1.0000   1.0000   1.0000   1.0000   1.0000   1.0000
     1.0000   1.0000   1.0000   1.0000   1.0000   1.0000   1.0000   1.0000
     1.0000   1.0000   1.0000   1.0000   1.0000   1.0000   1.0000   1.0000
     1.0000   1.0000   1.0000   1.0000   1.0000   1.0000   1.0000   1.0000
     1.0000   1.0000   1.0000   1.0000   1.0000   1.0000   1.0000   1.0000
     1.0000   1.0000   1.0000   1.0000   1.0000   1.0000   1.0000   1.0000
     1.0000   1.0000   1.0000   1.0000   1.0000   1.0000   1.0000   1.0000
     1.0000   1.0000   1.0000   1.0000   1.0000   1.0000   1.0000   1.0000
     1.0000   1.0000   1.0000   1.0000   1.0000   1.0000   1.0000   1.0000
     1.0000   1.0000   1.0000   1.0000   1.0000   1.0000   1.0000   1.0000
     1.0000   1.0000   1.0000   1.0000   1.0000   1.0000   1.0000   1.0000
     1.0000   1.0000   1.0000   1.0000   1.0000   1.0000   1.0000   1.0000
     1.0000   1.0000   1.0000   1.0000   1.0000   1.0000   1.0000   1.0000
     1.0000   1.0000   1.0000   1.0000   1.0000   1.0000   1.0000   1.0000
     1.0000   1.0000   1.0000   1.0000   1.0000   1.0000   1.0000   1.0000
     1.0000   1.0000   1.0000   1.0000   1.0000   1.0000   1.0000   1.0000
     1.0000   1.0000   1.0000   1.0000   1.0000   1.0000   1.0000   1.0000
     1.0000   1.0000   1.0000   1.0000   1.0000   1.0000   1.0000   1.0000
     1.0000   1.0000   1.0000   1.0000   1.0000   1.0000   1.0000   1.0000
     1.0000   1.0000   1.0000   1.0000   1.0000   1.0000   1.0000   1.0000
     1.0000   1.0000   1.0000   1.0000   1.0000   1.0000   1.0000   1.0000
     1.0000   1.0000   1.0000   1.0000   1.0000   0.0000   0.0000   0.0000

 ------ SPIN DOWN ----------


          k = 0.0000 0.0000 0.0000 ( 85720 PWs)   bands (ev):

    -6.1122  -5.4660  -5.4637  -5.4610  -5.4492  -5.4446  -5.3193  -4.9564
    -4.8859  -4.3410  -4.3344  -4.3258  -4.3223  -4.3195  -4.2863  -4.2861
    -4.2838  -4.2652  -4.2592  -4.2255  -4.1689  -4.1664  -4.1579  -4.1570
    -4.1344  -4.1252  -3.8983  -3.6000  -3.5988  -3.5925  -3.5644  -3.5617
    -3.4041  -3.1213  -3.1193  -3.1134  -3.1119  -3.1075  -3.0609  -3.0558
    -3.0448  -3.0198  -3.0085  -2.9899  -2.8543  -2.6526  -2.6495  -2.6391
    -2.6233  -2.6184  -2.6183  -2.5718  -2.5658  -2.5619  -2.5104  -2.5051
    -2.4738  -2.4434  -2.3591  -2.3584  -2.3440  -2.3128  -2.3041  -2.0722
    -2.0721  -2.0699  -2.0495  -2.0411  -1.9595  -1.9029  -1.8940  -1.8910
    -1.8748  -1.7811  -1.7650  -1.7120  -1.7114  -1.7076  -1.6884  -1.6750
    -1.6449  -1.2616  -1.2369  -1.2326  -1.2072  -1.2062  -1.2054  -1.1998
    -1.1967  -1.1899  -1.1525  -1.1470  -1.1459  -1.1277  -1.1218  -1.1144
    -0.9341  -0.7701  -0.7155   0.7022   1.1751   1.1836   1.1838   1.1886
     1.2159   1.2204   1.2788   1.2837   1.2879   1.2960   1.2976   1.3137
     1.3898   1.4193   1.4226   1.4360   1.4421   1.4454   1.4609   1.4684
     1.4762   1.5176   1.5621   1.5663   1.6934   1.7802   1.7808   1.8597
     1.8608   1.8625   1.9988   2.0861   2.0871   2.0932   2.0973   2.1005
     2.2028   2.2301   2.2328   2.2854   2.3120   2.3197   2.5600   2.5921
     2.6145   2.6156   2.6187   2.6208   2.6366   2.6598   2.6610   2.7180
     2.7254   2.8820   3.0166   3.0377   3.0387   3.0496   3.0653   3.0703
     3.3118   3.3134   3.3205   3.3936   3.3957   3.4908   3.6271   3.6314
     3.6402   3.6539   3.6754   3.6785   3.7248   3.7262   3.7321   3.7331
     3.7465   3.7473   3.7937   3.8020   3.8202   3.8207   3.8678   3.9341
     3.9363   3.9595   3.9614   4.0458   4.0494   4.0781   4.2133   4.2708
     4.2747   4.2824   4.3004   4.3006   4.4674   4.5093   4.5111   4.5308
     4.5425   4.5861   4.6178   4.6798   4.6843   4.6939   4.7125   4.7241
     4.7916   4.7918   4.7953   4.8159   4.8266   4.8483   4.8563   4.8744
     4.8760   4.8844   4.8861   4.8873   4.9596   5.0541   5.0589   5.0604
     5.0847   5.1262   5.1265   5.1429   5.1768   5.2375   5.2403   5.3108
     5.3174   5.3323   5.4033   5.4066   5.4716   5.5198   5.5337   5.5640
     5.5928   5.6353   5.6397   5.6959   5.6965   5.7808   5.8368   5.8420
     5.8444   5.9047   5.9070   6.0512   6.0535   6.0709   6.0762   6.0929
     6.1017   6.1077   6.1219   6.1289   6.1296   6.1490   6.2166   6.2176
     6.2238   6.2794   6.2850   6.2937   6.2943   6.3154   6.3970   6.4010
     6.4055   6.4314   6.4331   6.4353   6.4764   6.4809   6.4822   6.4911
     6.4963   6.4996   6.5040   6.5090   6.5112   6.5118   6.5503   6.5536
     6.6052   6.6441   6.6467   6.6880   6.6937   6.8102   6.8124   6.8132
     6.8253   6.8264   6.8419   6.8654   6.8689   6.8757   6.8799   6.8824
     6.9450   6.9572   6.9590   6.9671   6.9788   6.9813   6.9925   6.9952
     7.0072   7.0104   7.0169   7.0281   7.0372   7.0386   7.0427   7.0630
     7.0655   7.0772   7.0963   7.0988   7.1034   7.1096   7.1150   7.1194
     7.1390   7.1391   7.1438   7.1491   7.1962   7.2100   7.2378   7.2502
     7.2669   7.4022   7.4054   7.4089   7.4160   7.4169   7.4892   7.4919
     7.5388   7.5827   7.5865   7.6285   7.6325   7.6434   7.6958   7.7085
     7.7894   7.7987   7.8017   7.8036   7.8180   7.8283   7.8328   7.8393
     7.8613   7.8700   7.8797   7.8846   7.9074   7.9094   7.9901   7.9919
     8.0120   8.0246   8.0763   8.1826   8.1892   8.1914   8.2443   8.4123
     8.4161   8.5111   8.5125   8.5814   8.6245   8.6276   8.6346   8.6383
     8.6865   8.6917   8.6941   8.8221   8.8276   8.8385   8.8521   9.1086
     9.1338   9.1388   9.2919  10.4766  10.6825  11.3189  11.3639  11.7630

     occupation numbers 
     1.0000   1.0000   1.0000   1.0000   1.0000   1.0000   1.0000   1.0000
     1.0000   1.0000   1.0000   1.0000   1.0000   1.0000   1.0000   1.0000
     1.0000   1.0000   1.0000   1.0000   1.0000   1.0000   1.0000   1.0000
     1.0000   1.0000   1.0000   1.0000   1.0000   1.0000   1.0000   1.0000
     1.0000   1.0000   1.0000   1.0000   1.0000   1.0000   1.0000   1.0000
     1.0000   1.0000   1.0000   1.0000   1.0000   1.0000   1.0000   1.0000
     1.0000   1.0000   1.0000   1.0000   1.0000   1.0000   1.0000   1.0000
     1.0000   1.0000   1.0000   1.0000   1.0000   1.0000   1.0000   1.0000
     1.0000   1.0000   1.0000   1.0000   1.0000   1.0000   1.0000   1.0000
     1.0000   1.0000   1.0000   1.0000   1.0000   1.0000   1.0000   1.0000
     1.0000   1.0000   1.0000   1.0000   1.0000   1.0000   1.0000   1.0000
     1.0000   1.0000   1.0000   1.0000   1.0000   1.0000   1.0000   1.0000
     1.0000   1.0000   1.0000   1.0000   1.0000   1.0000   1.0000   1.0000
     1.0000   1.0000   1.0000   1.0000   1.0000   1.0000   1.0000   1.0000
     1.0000   1.0000   1.0000   1.0000   1.0000   1.0000   1.0000   1.0000
     1.0000   1.0000   1.0000   1.0000   1.0000   1.0000   1.0000   1.0000
     1.0000   1.0000   1.0000   1.0000   1.0000   1.0000   1.0000   1.0000
     1.0000   1.0000   1.0000   1.0000   1.0000   1.0000   1.0000   1.0000
     1.0000   1.0000   1.0000   1.0000   1.0000   1.0000   1.0000   1.0000
     1.0000   1.0000   1.0000   1.0000   1.0000   1.0000   1.0000   1.0000
     1.0000   1.0000   1.0000   1.0000   1.0000   1.0000   1.0000   1.0000
     1.0000   1.0000   1.0000   1.0000   1.0000   1.0000   1.0000   1.0000
     1.0000   1.0000   1.0000   1.0000   1.0000   1.0000   1.0000   1.0000
     1.0000   1.0000   1.0000   1.0000   1.0000   1.0000   1.0000   1.0000
     1.0000   1.0000   1.0000   1.0000   1.0000   1.0000   1.0000   1.0000
     1.0000   1.0000   1.0000   1.0000   1.0000   1.0000   1.0000   1.0000
     1.0000   1.0000   1.0000   1.0000   1.0000   1.0000   1.0000   1.0000
     1.0000   1.0000   1.0000   1.0000   1.0000   1.0000   1.0000   1.0000
     1.0000   1.0000   1.0000   1.0000   1.0000   1.0000   1.0000   1.0000
     1.0000   1.0000   1.0000   1.0000   1.0000   1.0000   1.0000   1.0000
     1.0000   1.0000   1.0000   1.0000   1.0000   1.0000   1.0000   1.0000
     1.0000   1.0000   1.0000   1.0000   1.0000   1.0000   1.0000   1.0000
     1.0000   1.0000   1.0000   1.0000   1.0000   1.0000   1.0000   1.0000
     1.0000   1.0000   1.0000   1.0000   1.0000   1.0000   1.0000   1.0000
     1.0000   1.0000   1.0000   1.0000   1.0000   1.0000   1.0000   1.0000
     1.0000   1.0000   1.0000   1.0000   1.0000   1.0000   1.0000   1.0000
     1.0000   1.0000   1.0000   1.0000   1.0000   1.0000   1.0000   1.0000
     1.0000   1.0000   1.0000   1.0000   1.0000   1.0000   1.0000   1.0000
     1.0000   1.0000   1.0000   1.0000   1.0000   1.0000   1.0000   1.0000
     1.0000   1.0000   1.0000   1.0000   1.0000   1.0000   1.0000   1.0000
     1.0000   1.0000   1.0000   1.0000   1.0000   1.0000   1.0000   1.0000
     1.0000   1.0000   1.0000   1.0000   1.0000   1.0000   1.0000   1.0000
     1.0000   1.0000   1.0000   1.0000   1.0000   1.0000   1.0000   1.0000
     1.0000   1.0000   1.0000   1.0000   1.0000   1.0000   1.0000   1.0000
     1.0000   1.0000   1.0000   1.0000   1.0000   1.0000   1.0000   1.0000
     1.0000   1.0000   1.0000   1.0000   1.0000   1.0000   1.0000   1.0000
     1.0000   1.0000   1.0000   1.0000   1.0000   1.0000   1.0000   1.0000
     1.0000   1.0000   1.0000   1.0000   1.0000   1.0000   1.0000   1.0000
     1.0000   1.0000   1.0000   1.0000   1.0000   1.0000   1.0000   1.0000
     1.0000   1.0000   1.0000   0.0000   0.0000   0.0000   0.0000   0.0000

     highest occupied, lowest unoccupied level (ev):     9.5805   10.4766

!    total energy              =   -1911.64364561 Ry
     estimated scf accuracy    <          6.3E-09 Ry

     The total energy is the sum of the following terms:
     one-electron contribution =     471.73528229 Ry
     hartree contribution      =     251.76563265 Ry
     xc contribution           =    -600.60101900 Ry
     ewald contribution        =   -2034.54354155 Ry

     total magnetization       =     2.00 Bohr mag/cell
     absolute magnetization    =     2.22 Bohr mag/cell

     convergence has been achieved in  18 iterations

     Forces acting on atoms (cartesian axes, Ry/au):

     atom    1 type  1   force =     0.00118895   -0.00065929   -0.00060572
     atom    2 type  1   force =    -0.00130125   -0.00193094    0.00039820
     atom    3 type  1   force =    -0.00165079    0.00016590   -0.00032010
     atom    4 type  1   force =    -0.00086326    0.00043870    0.00000914
     atom    5 type  1   force =    -0.00001940    0.00029012    0.00026830
     atom    6 type  1   force =     0.00037049    0.00023090    0.00044343
     atom    7 type  1   force =     0.00264666   -0.00279414   -0.00287691
     atom    8 type  1   force =    -0.00095127    0.00054364   -0.00170419
     atom    9 type  1   force =    -0.00098483    0.00108135   -0.00028166
     atom   10 type  1   force =    -0.00041792    0.00090008    0.00010496
     atom   11 type  1   force =    -0.00028636    0.00063150   -0.00024885
     atom   12 type  1   force =     0.00222375   -0.00127156    0.00225843
     atom   13 type  1   force =     0.00377394   -0.00091453   -0.00263426
     atom   14 type  1   force =     0.00092476    0.00202537    0.00048825
     atom   15 type  1   force =    -0.00041658    0.00151680    0.00001896
     atom   16 type  1   force =    -0.00081167    0.00040998    0.00012633
     atom   17 type  1   force =    -0.00062601   -0.00001494   -0.00010707
     atom   18 type  1   force =    -0.00007824   -0.00050054    0.00047252
     atom   19 type  1   force =     0.00110296   -0.00075002   -0.00073055
     atom   20 type  1   force =     0.00013820    0.00042318   -0.00009710
     atom   21 type  1   force =    -0.00037347   -0.00035482   -0.00005859
     atom   22 type  1   force =    -0.00140901   -0.00040536   -0.00001129
     atom   23 type  1   force =    -0.00120169   -0.00007159   -0.00000390
     atom   24 type  1   force =    -0.00036897   -0.00025451    0.00023101
     atom   25 type  1   force =     0.00055104   -0.00035089   -0.00009549
     atom   26 type  1   force =     0.00043364    0.00087344   -0.00226710
     atom   27 type  1   force =     0.00167199   -0.00438928    0.00076704
     atom   28 type  1   force =    -0.00332720   -0.00025380    0.00402363
     atom   29 type  1   force =    -0.00165517    0.00077903    0.00035159
     atom   30 type  1   force =    -0.00085978    0.00079049   -0.00028542
     atom   31 type  1   force =    -0.00104891    0.00159260   -0.00175852
     atom   32 type  1   force =     0.00018572   -0.00290300   -0.00958314
     atom   33 type  1   force =     0.00811441   -0.00470712    0.02584635
     atom   34 type  1   force =    -0.00153845    0.00304809    0.00391524
     atom   35 type  1   force =    -0.00082654    0.00116568    0.00039465
     atom   36 type  1   force =    -0.00030508    0.00074617   -0.00023947
     atom   37 type  1   force =    -0.00127073    0.00070128   -0.00138908
     atom   38 type  1   force =     0.00292933    0.00172259   -0.00977583
     atom   39 type  1   force =     0.00486384    0.00076043    0.00070688
     atom   40 type  1   force =     0.00068919    0.00079616    0.00013009
     atom   41 type  1   force =     0.00016290   -0.00009352    0.00000571
     atom   42 type  1   force =    -0.00086721   -0.00005422   -0.00028195
     atom   43 type  1   force =    -0.00169024    0.00012313   -0.00175856
     atom   44 type  1   force =    -0.00044360   -0.00068979   -0.00223280
     atom   45 type  1   force =     0.00124622   -0.00018880    0.00000988
     atom   46 type  1   force =     0.00072923   -0.00105155    0.00007210
     atom   47 type  1   force =    -0.00034687   -0.00107861    0.00018548
     atom   48 type  1   force =    -0.00120304    0.00017222    0.00037585
     atom   49 type  1   force =    -0.00136500    0.00028706   -0.00029232
     atom   50 type  1   force =    -0.00043059    0.00016573   -0.00102399
     atom   51 type  1   force =    -0.00005890   -0.00005635   -0.00032883
     atom   52 type  1   force =     0.00071586   -0.00175767    0.00012175
     atom   53 type  1   force =    -0.00098099    0.00007962    0.00028427
     atom   54 type  1   force =    -0.00121050    0.00042862    0.00005086
     atom   55 type  1   force =    -0.00063391    0.00038254   -0.00019568
     atom   56 type  1   force =    -0.00033124    0.00035030   -0.00043958
     atom   57 type  1   force =    -0.00018219   -0.00082741   -0.00124201
     atom   58 type  1   force =     0.00145648   -0.00073545    0.00225672
     atom   59 type  1   force =    -0.00087099    0.00045060    0.00078807
     atom   60 type  1   force =    -0.00090324    0.00081911    0.00005218
     atom   61 type  1   force =    -0.00046344    0.00071669   -0.00018976
     atom   62 type  1   force =     0.00006027   -0.00065734   -0.00109186
     atom   63 type  1   force =     0.00005987    0.00011931    0.00028139
     atom   64 type  1   force =     0.00132007   -0.00095088    0.00215261
     atom   65 type  1   force =    -0.00048043    0.00075516    0.00023249
     atom   66 type  1   force =     0.00023334    0.00046527   -0.00001801
     atom   67 type  1   force =    -0.00048313    0.00028387   -0.00035300
     atom   68 type  1   force =     0.00075442    0.00027003   -0.00122916
     atom   69 type  1   force =     0.00065146    0.00056470   -0.00116115
     atom   70 type  1   force =     0.00201746    0.00022476    0.00018622
     atom   71 type  1   force =     0.00070228   -0.00039573   -0.00001564
     atom   72 type  1   force =    -0.00022327   -0.00035634   -0.00002323
     atom   73 type  1   force =    -0.00094801    0.00004118   -0.00010007
     atom   74 type  1   force =    -0.00063612    0.00006089   -0.00040428
     atom   75 type  1   force =    -0.00012877   -0.00003119   -0.00027150
     atom   76 type  1   force =     0.00378630   -0.00114090    0.00196571
     atom   77 type  1   force =    -0.00107282   -0.00085392   -0.00040116
     atom   78 type  1   force =    -0.00344032   -0.00362247   -0.00179684
     atom   79 type  1   force =    -0.00174467    0.00047297   -0.00014048
     atom   80 type  1   force =    -0.00098823    0.00052059    0.00062903
     atom   81 type  1   force =    -0.00041061    0.00221478    0.00112373
     atom   82 type  1   force =     0.01170583   -0.00261132    0.00487924
     atom   83 type  1   force =    -0.01605096   -0.01895806   -0.01060176
     atom   84 type  1   force =    -0.00423014    0.00253459   -0.00193242
     atom   85 type  1   force =    -0.00139700    0.00127233   -0.00010856
     atom   86 type  1   force =    -0.00165605    0.00179899    0.00055749
     atom   87 type  1   force =    -0.00650590    0.00327285    0.00474189
     atom   88 type  1   force =     0.00871387    0.02296081   -0.01052941
     atom   89 type  1   force =     0.00145701    0.00473011   -0.00181415
     atom   90 type  1   force =    -0.00086670    0.00108584    0.00010291
     atom   91 type  1   force =    -0.00172105    0.00107643    0.00092852
     atom   92 type  1   force =    -0.00602058    0.00417886    0.00493293
     atom   93 type  1   force =     0.00837115   -0.00876855    0.00500529
     atom   94 type  1   force =     0.00009877    0.00125340   -0.00036098
     atom   95 type  1   force =    -0.00010035    0.00003236    0.00002892
     atom   96 type  1   force =    -0.00132120    0.00011555    0.00007066
     atom   97 type  1   force =    -0.00246484    0.00053895    0.00062982
     atom   98 type  1   force =    -0.00199514   -0.00073522    0.00116155
     atom   99 type  1   force =     0.00302211   -0.00261558    0.00199129
     atom  100 type  2   force =    -0.00091491    0.00025624    0.00044460
     atom  101 type  2   force =     0.00111574    0.00123966   -0.00063751
     atom  102 type  2   force =     0.00077370   -0.00002613   -0.00013356
     atom  103 type  2   force =     0.00056636   -0.00025209    0.00002867
     atom  104 type  2   force =     0.00002401   -0.00011760    0.00016728
     atom  105 type  2   force =    -0.00020344    0.00002396    0.00014738
     atom  106 type  2   force =    -0.00166897    0.00071005    0.00044909
     atom  107 type  2   force =    -0.00003298   -0.00010677   -0.00019473
     atom  108 type  2   force =     0.00045104   -0.00073361   -0.00011507
     atom  109 type  2   force =     0.00047102   -0.00055142    0.00013451
     atom  110 type  2   force =     0.00063079   -0.00064413    0.00035539
     atom  111 type  2   force =    -0.00181603    0.00106713   -0.00023206
     atom  112 type  2   force =    -0.00145671    0.00122555    0.00048818
     atom  113 type  2   force =    -0.00052909   -0.00169272   -0.00061163
     atom  114 type  2   force =     0.00030248   -0.00098643   -0.00001247
     atom  115 type  2   force =     0.00043243   -0.00019104    0.00011607
     atom  116 type  2   force =     0.00089106   -0.00024012    0.00050790
     atom  117 type  2   force =    -0.00018483    0.00007189    0.00019711
     atom  118 type  2   force =    -0.00075406    0.00053064    0.00045510
     atom  119 type  2   force =    -0.00030384   -0.00026842   -0.00005511
     atom  120 type  2   force =     0.00010637    0.00044679   -0.00002203
     atom  121 type  2   force =     0.00104444    0.00027043   -0.00003483
     atom  122 type  2   force =     0.00070848   -0.00002602    0.00006113
     atom  123 type  2   force =     0.00013834    0.00008027    0.00012966
     atom  124 type  2   force =    -0.00041677    0.00017472    0.00014189
     atom  125 type  2   force =    -0.00478632   -0.00122646   -0.00196877
     atom  126 type  2   force =    -0.00053542    0.00478169   -0.00004419
     atom  127 type  2   force =     0.00963408    0.00416894    0.00272843
     atom  128 type  2   force =     0.00212720   -0.00111909   -0.00002307
     atom  129 type  2   force =     0.00071877   -0.00108818   -0.00005884
     atom  130 type  2   force =     0.00308499   -0.00282870   -0.00121597
     atom  131 type  2   force =    -0.00517150    0.00527386   -0.00111424
     atom  132 type  2   force =     0.00058732   -0.00016895    0.00120574
     atom  133 type  2   force =     0.00115009   -0.01019639    0.00269138
     atom  134 type  2   force =     0.00162189   -0.00383880    0.00015941
     atom  135 type  2   force =     0.00089540   -0.00122178   -0.00009323
     atom  136 type  2   force =     0.00313516   -0.00160670   -0.00045727
     atom  137 type  2   force =    -0.00708697    0.00167159   -0.00098611
     atom  138 type  2   force =    -0.00473468   -0.00210895   -0.00012445
     atom  139 type  2   force =    -0.00067209   -0.00128774   -0.00005263
     atom  140 type  2   force =     0.00011057   -0.00009755   -0.00001074
     atom  141 type  2   force =     0.00164538   -0.00019734   -0.00015450
     atom  142 type  2   force =     0.00421718   -0.00118469   -0.00117192
     atom  143 type  2   force =    -0.00098259    0.00485092   -0.00190539
     atom  144 type  2   force =    -0.00123111   -0.00018094    0.00002809
     atom  145 type  2   force =    -0.00045702    0.00116655    0.00006012
     atom  146 type  2   force =     0.00086244    0.00116340    0.00001136
     atom  147 type  2   force =     0.00435702    0.00044101    0.00012088
     atom  148 type  2   force =     0.00142977   -0.00014778   -0.00005873
     atom  149 type  2   force =    -0.00099894    0.00062533   -0.00062616
     atom  150 type  2   force =    -0.00043261    0.00008723    0.00065095
     atom  151 type  2   force =    -0.00028265    0.00144064   -0.00019527
     atom  152 type  2   force =     0.00151172    0.00044189   -0.00084592
     atom  153 type  2   force =     0.00092806   -0.00033607   -0.00011753
     atom  154 type  2   force =     0.00043296   -0.00028590    0.00036119
     atom  155 type  2   force =     0.00025702   -0.00070157    0.00079740
     atom  156 type  2   force =    -0.00126517    0.00163820    0.00205225
     atom  157 type  2   force =     0.00006694    0.00345370   -0.00559848
     atom  158 type  2   force =     0.00135112   -0.00086534   -0.00159588
     atom  159 type  2   force =     0.00086968   -0.00087685   -0.00011344
     atom  160 type  2   force =     0.00057465   -0.00083943    0.00034734
     atom  161 type  2   force =     0.00060861    0.00060152    0.00257545
     atom  162 type  2   force =    -0.00307544    0.00164287   -0.00014095
     atom  163 type  2   force =    -0.00308080   -0.00168337   -0.00562889
     atom  164 type  2   force =     0.00012076   -0.00136842   -0.00092892
     atom  165 type  2   force =     0.00003504   -0.00059573   -0.00004244
     atom  166 type  2   force =     0.00075282   -0.00046620    0.00049234
     atom  167 type  2   force =     0.00009596   -0.00078132    0.00267079
     atom  168 type  2   force =    -0.00186478    0.00059148    0.00232252
     atom  169 type  2   force =    -0.00135078   -0.00049237   -0.00016217
     atom  170 type  2   force =    -0.00045126    0.00020408    0.00009629
     atom  171 type  2   force =     0.00056181    0.00023575   -0.00004396
     atom  172 type  2   force =     0.00130931   -0.00000521    0.00035747
     atom  173 type  2   force =     0.00067945    0.00014608    0.00086067
     atom  174 type  2   force =    -0.00039611    0.00030832    0.00068206
     atom  175 type  2   force =    -0.00061943    0.00025274   -0.00032468
     atom  176 type  2   force =     0.00001529    0.00099901    0.00009030
     atom  177 type  2   force =     0.00159552    0.00067338    0.00041445
     atom  178 type  2   force =     0.00082817   -0.00026138    0.00004611
     atom  179 type  2   force =     0.00022384   -0.00022321   -0.00019696
     atom  180 type  2   force =     0.00007960   -0.00056770   -0.00055095
     atom  181 type  2   force =    -0.00203025    0.00042854   -0.00098839
     atom  182 type  2   force =     0.00238759    0.00233739    0.00369329
     atom  183 type  2   force =     0.00114031   -0.00078314    0.00095355
     atom  184 type  2   force =     0.00068427   -0.00084804    0.00008905
     atom  185 type  2   force =     0.00039185   -0.00085383   -0.00017809
     atom  186 type  2   force =     0.00030979    0.00013562   -0.00179381
     atom  187 type  2   force =    -0.00097195   -0.00330637    0.00384055
     atom  188 type  2   force =     0.00008074   -0.00164522    0.00039993
     atom  189 type  2   force =     0.00019307   -0.00060266    0.00000370
     atom  190 type  2   force =     0.00056632   -0.00048257   -0.00025027
     atom  191 type  2   force =     0.00014161   -0.00024880   -0.00184031
     atom  192 type  2   force =    -0.00133315    0.00156536   -0.00132343
     atom  193 type  2   force =    -0.00090035   -0.00060164    0.00008357
     atom  194 type  2   force =    -0.00028083    0.00010988    0.00000316
     atom  195 type  2   force =     0.00067445    0.00019504   -0.00000311
     atom  196 type  2   force =     0.00115320    0.00009893   -0.00016996
     atom  197 type  2   force =     0.00047150    0.00019518   -0.00053238
     atom  198 type  2   force =    -0.00066567    0.00033905   -0.00037851
     The non-local contrib.  to forces
     atom    1 type  1   force =     0.05096350    0.01843561    0.01681635
     atom    2 type  1   force =     0.03456967    0.02578601    0.01201705
     atom    3 type  1   force =    -0.00244558    0.00016839   -0.00991073
     atom    4 type  1   force =    -0.00117375    0.00082605   -0.00873342
     atom    5 type  1   force =     0.00061993    0.00104923   -0.00800664
     atom    6 type  1   force =    -0.00108529    0.00237349   -0.00952136
     atom    7 type  1   force =     0.22568251    0.12047819    0.11027175
     atom    8 type  1   force =    -0.00302811    0.00164226   -0.01628712
     atom    9 type  1   force =    -0.00137286    0.00221790   -0.00986276
     atom   10 type  1   force =    -0.00146844    0.00326948   -0.00817683
     atom   11 type  1   force =    -0.04819815    0.02165439    0.01649980
     atom   12 type  1   force =    -0.21619421    0.12453735    0.11918588
     atom   13 type  1   force =     0.00849851   -0.25587174    0.11054510
     atom   14 type  1   force =    -0.00480741   -0.04271003    0.01212115
     atom   15 type  1   force =    -0.01113950   -0.00109899   -0.00040335
     atom   16 type  1   force =    -0.00969851    0.00541942   -0.00459190
     atom   17 type  1   force =    -0.04272604    0.03089005    0.01655246
     atom   18 type  1   force =    -0.00240329   -0.00064573   -0.00926336
     atom   19 type  1   force =     0.00957609   -0.05376602    0.01661506
     atom   20 type  1   force =     0.00097512   -0.00803025   -0.00485711
     atom   21 type  1   force =     0.00734486    0.00330293   -0.00479052
     atom   22 type  1   force =    -0.00425523    0.01028072   -0.00030789
     atom   23 type  1   force =    -0.00311379   -0.00004185   -0.00810062
     atom   24 type  1   force =    -0.00044659   -0.00123309   -0.00802626
     atom   25 type  1   force =     0.01208026   -0.00720542    0.00123205
     atom   26 type  1   force =     0.00409978   -0.00163704   -0.01149286
     atom   27 type  1   force =    -0.00132179   -0.01355948   -0.01421878
     atom   28 type  1   force =    -0.00195009    0.00239594   -0.00493958
     atom   29 type  1   force =    -0.00299938    0.00154206   -0.00800676
     atom   30 type  1   force =    -0.00066036    0.00030315   -0.00959001
     atom   31 type  1   force =    -0.00398249    0.00018267   -0.01358927
     atom   32 type  1   force =    -0.00032519    0.03168729    0.09170864
     atom   33 type  1   force =     0.03318779   -0.01926044    0.15439135
     atom   34 type  1   force =    -0.00312386    0.00045282   -0.00542199
     atom   35 type  1   force =    -0.00110431    0.00102119   -0.01285598
     atom   36 type  1   force =    -0.00063435    0.00084608   -0.01405294
     atom   37 type  1   force =     0.00070251   -0.00034057   -0.02174632
     atom   38 type  1   force =    -0.02735260   -0.01454790    0.09092604
     atom   39 type  1   force =     0.01093872    0.00865249   -0.01422353
     atom   40 type  1   force =     0.00138595    0.00269067   -0.01276492
     atom   41 type  1   force =    -0.00025560    0.00016778   -0.01264803
     atom   42 type  1   force =    -0.00099725    0.00005564   -0.01394079
     atom   43 type  1   force =    -0.00248077    0.00346921   -0.01350955
     atom   44 type  1   force =     0.00332603   -0.00215460   -0.01111073
     atom   45 type  1   force =     0.00217481    0.00142679   -0.01317104
     atom   46 type  1   force =     0.00013217   -0.00257281   -0.01320054
     atom   47 type  1   force =    -0.00125762   -0.00288035   -0.01265563
     atom   48 type  1   force =    -0.00186078    0.00031423   -0.01267324
     atom   49 type  1   force =    -0.00098078    0.00030556   -0.00936780
     atom   50 type  1   force =     0.00008427    0.00013057   -0.01236071
     atom   51 type  1   force =    -0.00074750    0.00553275    0.01609439
     atom   52 type  1   force =     0.00353577   -0.00146433    0.01720254
     atom   53 type  1   force =     0.00062560   -0.00431135    0.01621045
     atom   54 type  1   force =    -0.00295623   -0.00061182    0.01218665
     atom   55 type  1   force =    -0.00221920    0.00152017    0.01251070
     atom   56 type  1   force =    -0.00033333    0.00727724    0.01351666
     atom   57 type  1   force =     0.00539051    0.01600295    0.04390509
     atom   58 type  1   force =     0.01464119   -0.00970161    0.04472563
     atom   59 type  1   force =     0.00110262   -0.00057060    0.01421201
     atom   60 type  1   force =    -0.00083329    0.00272270    0.01219966
     atom   61 type  1   force =    -0.00012858    0.00694081    0.01566058
     atom   62 type  1   force =    -0.00472450    0.01657394    0.04375615
     atom   63 type  1   force =     0.00582133   -0.00287436    0.06293181
     atom   64 type  1   force =     0.01600432   -0.00740476    0.04469120
     atom   65 type  1   force =     0.00417904    0.00136896    0.01625400
     atom   66 type  1   force =     0.00085421    0.00151360    0.01326162
     atom   67 type  1   force =    -0.00408166    0.00232794    0.01637677
     atom   68 type  1   force =    -0.01666557   -0.00396809    0.04357219
     atom   69 type  1   force =    -0.01134257   -0.01202683    0.04406935
     atom   70 type  1   force =     0.00318542   -0.00215416    0.01730883
     atom   71 type  1   force =    -0.00049296    0.00034367    0.01325866
     atom   72 type  1   force =    -0.00080598   -0.00152794    0.01329414
     atom   73 type  1   force =    -0.00619467   -0.00341429    0.01580995
     atom   74 type  1   force =    -0.00660627   -0.00322111    0.01354281
     atom   75 type  1   force =    -0.00517993   -0.00169098    0.01620833
     atom   76 type  1   force =    -0.02037501   -0.00664094   -0.00708381
     atom   77 type  1   force =    -0.01065877   -0.01075338   -0.00452360
     atom   78 type  1   force =    -0.02849775   -0.02368550   -0.01073894
     atom   79 type  1   force =    -0.00198537   -0.00100699    0.00602564
     atom   80 type  1   force =    -0.00084240    0.00062245    0.00613026
     atom   81 type  1   force =     0.00172384   -0.00019116    0.00334498
     atom   82 type  1   force =    -0.08663484   -0.03556205   -0.06557622
     atom   83 type  1   force =    -0.12687607   -0.09569762   -0.08017574
     atom   84 type  1   force =    -0.00574925    0.00359878    0.00145902
     atom   85 type  1   force =     0.00001579    0.00241340    0.00595814
     atom   86 type  1   force =     0.02334291    0.00015245   -0.00970704
     atom   87 type  1   force =     0.09823201   -0.03148425   -0.06811217
     atom   88 type  1   force =     0.02018969    0.15669810   -0.08050996
     atom   89 type  1   force =     0.00699029    0.03623427   -0.01099863
     atom   90 type  1   force =     0.00150452    0.00398679    0.00117699
     atom   91 type  1   force =     0.00631491   -0.00377783   -0.00513365
     atom   92 type  1   force =     0.07603586   -0.06992916   -0.06744872
     atom   93 type  1   force =    -0.01244769    0.09200004   -0.06534842
     atom   94 type  1   force =     0.00410259    0.01437829   -0.00483130
     atom   95 type  1   force =    -0.00067198    0.00022608    0.00265835
     atom   96 type  1   force =    -0.00291714   -0.00333621    0.00121278
     atom   97 type  1   force =     0.01141529   -0.02033024   -0.00961762
     atom   98 type  1   force =     0.00152637   -0.00148132    0.00373726
     atom   99 type  1   force =    -0.00421308    0.02061395   -0.00694500
     atom  100 type  2   force =     0.00288526    0.00396469    0.01355175
     atom  101 type  2   force =     0.00617335    0.00417658    0.00960042
     atom  102 type  2   force =     0.00104582   -0.00023987    0.00671797
     atom  103 type  2   force =     0.00086033   -0.00019090    0.00724525
     atom  104 type  2   force =     0.00058622    0.00079498    0.00811385
     atom  105 type  2   force =     0.00052154    0.00217073    0.00985974
     atom  106 type  2   force =     0.02694100    0.01760207    0.04649913
     atom  107 type  2   force =     0.00082191   -0.00079664    0.00511721
     atom  108 type  2   force =     0.00097234   -0.00104414    0.00680029
     atom  109 type  2   force =     0.00100097    0.00029407    0.00801359
     atom  110 type  2   force =    -0.00336464    0.00248307    0.01402123
     atom  111 type  2   force =    -0.03291716    0.01918430    0.05070236
     atom  112 type  2   force =    -0.00204327   -0.03140407    0.04704218
     atom  113 type  2   force =    -0.00050968   -0.00771583    0.00973833
     atom  114 type  2   force =    -0.00028850   -0.00116118    0.00871747
     atom  115 type  2   force =    -0.00018823    0.00030896    0.00879612
     atom  116 type  2   force =    -0.00383004    0.00152390    0.01462748
     atom  117 type  2   force =    -0.00195559   -0.00188263    0.01007667
     atom  118 type  2   force =    -0.00225887   -0.00475125    0.01361843
     atom  119 type  2   force =    -0.00114198   -0.00011408    0.00794713
     atom  120 type  2   force =    -0.00034734    0.00119703    0.00806165
     atom  121 type  2   force =     0.00087998    0.00094857    0.00869549
     atom  122 type  2   force =     0.00013387   -0.00064502    0.00771851
     atom  123 type  2   force =    -0.00028699   -0.00064223    0.00794718
     atom  124 type  2   force =    -0.00050612    0.00020327    0.00920043
     atom  125 type  2   force =    -0.00829380   -0.01717431    0.01164758
     atom  126 type  2   force =    -0.00174378   -0.01239088    0.01160874
     atom  127 type  2   force =     0.00298340    0.02719393    0.02725615
     atom  128 type  2   force =     0.00052620    0.00012030    0.01087676
     atom  129 type  2   force =     0.00117560   -0.00387009    0.00979291
     atom  130 type  2   force =     0.00543011   -0.01501551    0.01061217
     atom  131 type  2   force =    -0.00925289   -0.03447324    0.01580352
     atom  132 type  2   force =    -0.11011271    0.06349091    0.05063106
     atom  133 type  2   force =    -0.02161631   -0.01573262    0.02697761
     atom  134 type  2   force =     0.00341531   -0.00792119    0.01092554
     atom  135 type  2   force =     0.00068003   -0.00203103    0.00793597
     atom  136 type  2   force =     0.01175757   -0.00629076    0.00484892
     atom  137 type  2   force =     0.02525324    0.02482646    0.01590904
     atom  138 type  2   force =     0.00914472    0.00696424    0.01138027
     atom  139 type  2   force =    -0.00072743   -0.00182882    0.00872001
     atom  140 type  2   force =     0.00023028   -0.00032924    0.00835312
     atom  141 type  2   force =     0.00261940    0.00023104    0.00772501
     atom  142 type  2   force =     0.01646824    0.00316186    0.01082928
     atom  143 type  2   force =     0.01199725    0.01618652    0.01188944
     atom  144 type  2   force =     0.00034926   -0.00038335    0.00864463
     atom  145 type  2   force =     0.00031167   -0.00036413    0.00882231
     atom  146 type  2   force =     0.00147357    0.00134309    0.00893520
     atom  147 type  2   force =     0.00921826    0.00080581    0.01089825
     atom  148 type  2   force =     0.00471820    0.00082632    0.00983963
     atom  149 type  2   force =    -0.00147451    0.00114417    0.00981324
     atom  150 type  2   force =    -0.00568750   -0.00278274   -0.01513990
     atom  151 type  2   force =    -0.00649025   -0.00012057   -0.01461798
     atom  152 type  2   force =    -0.00446421   -0.00379762   -0.01851733
     atom  153 type  2   force =     0.00112676   -0.00154326   -0.01875076
     atom  154 type  2   force =     0.00061826   -0.00043695   -0.01764787
     atom  155 type  2   force =     0.00162765   -0.00376429   -0.01353365
     atom  156 type  2   force =    -0.01961458   -0.01120889   -0.00059251
     atom  157 type  2   force =    -0.03225122   -0.00649723   -0.01848906
     atom  158 type  2   force =    -0.00083828    0.00025122   -0.01932277
     atom  159 type  2   force =     0.00232357   -0.00106314   -0.01876011
     atom  160 type  2   force =     0.00607451   -0.00353132   -0.01603810
     atom  161 type  2   force =     0.02127817   -0.01147104    0.00094089
     atom  162 type  2   force =     0.01832624   -0.01045751    0.04637827
     atom  163 type  2   force =    -0.01086814    0.03165781   -0.01868439
     atom  164 type  2   force =     0.00008987    0.00629854   -0.01878606
     atom  165 type  2   force =     0.00015397    0.00027743   -0.01869788
     atom  166 type  2   force =     0.00498852   -0.00296263   -0.01330453
     atom  167 type  2   force =     0.02150317   -0.01263125    0.00100944
     atom  168 type  2   force =     0.00045951    0.02381189    0.00025007
     atom  169 type  2   force =    -0.00328105    0.00570256   -0.01449554
     atom  170 type  2   force =    -0.00259649    0.00127047   -0.01827485
     atom  171 type  2   force =    -0.00018648   -0.00043686   -0.01871343
     atom  172 type  2   force =     0.00726810   -0.00337004   -0.01591030
     atom  173 type  2   force =     0.00376012    0.00042921   -0.01325238
     atom  174 type  2   force =    -0.00076537    0.00651207   -0.01493565
     atom  175 type  2   force =    -0.00334577    0.00831020   -0.02881995
     atom  176 type  2   force =     0.00617673    0.00292351   -0.03213986
     atom  177 type  2   force =     0.00966447   -0.00353214   -0.02859977
     atom  178 type  2   force =     0.00051543   -0.00109924   -0.02519514
     atom  179 type  2   force =    -0.00090812    0.00017367   -0.02565676
     atom  180 type  2   force =    -0.00003831    0.00696344   -0.03264015
     atom  181 type  2   force =    -0.00830292    0.04734743   -0.05756726
     atom  182 type  2   force =     0.04838237   -0.01874724   -0.06414699
     atom  183 type  2   force =     0.00759905   -0.00492003   -0.03119141
     atom  184 type  2   force =     0.00134688   -0.00079242   -0.02506475
     atom  185 type  2   force =     0.00204015    0.00684698   -0.02830477
     atom  186 type  2   force =     0.00341441    0.04615041   -0.05705837
     atom  187 type  2   force =     0.04002282   -0.03264333   -0.06377277
     atom  188 type  2   force =     0.00731249   -0.00631891   -0.02872083
     atom  189 type  2   force =     0.00028398   -0.00134383   -0.02627877
     atom  190 type  2   force =    -0.00424153    0.00197324   -0.03171344
     atom  191 type  2   force =    -0.03801111   -0.02592837   -0.05704714
     atom  192 type  2   force =    -0.04503067   -0.01638968   -0.05838205
     atom  193 type  2   force =     0.00027772   -0.00713169   -0.03217501
     atom  194 type  2   force =     0.00020886   -0.00035937   -0.02628754
     atom  195 type  2   force =     0.00132274    0.00047465   -0.02632130
     atom  196 type  2   force =    -0.00414250   -0.00514541   -0.02824006
     atom  197 type  2   force =    -0.00636569   -0.00354132   -0.03254003
     atom  198 type  2   force =    -0.00936597   -0.00151724   -0.02898064
     The ionic contribution  to forces
     atom    1 type  1   force =     0.46750680    0.43335692    0.13655566
     atom    2 type  1   force =     0.60334661    0.15609447    0.13003160
     atom    3 type  1   force =     0.19571926   -0.08258833   -0.01677574
     atom    4 type  1   force =    -0.01078967    0.00491260   -0.03199680
     atom    5 type  1   force =     0.02297428    0.22388620   -0.00691034
     atom    6 type  1   force =    -0.01255702    0.97846575    0.25862172
     atom    7 type  1   force =     2.51400822    1.39882904    1.51580506
     atom    8 type  1   force =     0.82795304   -0.47963013    0.21368251
     atom    9 type  1   force =     0.16828766   -0.12910421   -0.01662924
     atom   10 type  1   force =    -0.04154894    0.22788537   -0.01063617
     atom   11 type  1   force =    -0.46534372    0.44777553    0.13513777
     atom   12 type  1   force =    -2.49949031    1.44414156    1.57476000
     atom   13 type  1   force =     0.04659018   -2.87643371    1.51475538
     atom   14 type  1   force =     0.16838262   -0.60098316    0.12983707
     atom   15 type  1   force =    -0.05760170   -0.02651796   -0.00583121
     atom   16 type  1   force =    -0.14195555    0.08296321   -0.01926240
     atom   17 type  1   force =    -0.61956872    0.18123545    0.13469538
     atom   18 type  1   force =    -0.85122260   -0.47845526    0.25800693
     atom   19 type  1   force =    -0.13904156   -0.62324831    0.13446439
     atom   20 type  1   force =     0.01192807   -0.17000378   -0.01879024
     atom   21 type  1   force =     0.15299106    0.07700833   -0.01837329
     atom   22 type  1   force =    -0.00489941    0.06457236   -0.00577410
     atom   23 type  1   force =    -0.21692034   -0.07751757   -0.01028883
     atom   24 type  1   force =    -0.18212234   -0.13422095   -0.00710493
     atom   25 type  1   force =     0.06757044   -0.04005886   -0.00037853
     atom   26 type  1   force =     0.09938687    0.33599627   -0.16362185
     atom   27 type  1   force =     0.48803743    0.24268146   -0.31229708
     atom   28 type  1   force =     0.34595392   -0.08093333   -0.13631716
     atom   29 type  1   force =     0.09017110   -0.05399762   -0.07282304
     atom   30 type  1   force =    -0.01054634    0.11242925   -0.07943697
     atom   31 type  1   force =    -0.11412871    0.34213535   -0.16183214
     atom   32 type  1   force =     0.00875425    0.93848093   -0.75829146
     atom   33 type  1   force =     0.81728207   -0.47325906   -0.63077563
     atom   34 type  1   force =     0.24247405   -0.26169395   -0.13718981
     atom   35 type  1   force =     0.01343062    0.00612130   -0.07521123
     atom   36 type  1   force =    -0.14282611    0.10756344   -0.09541305
     atom   37 type  1   force =    -0.50224072    0.29200820   -0.34231633
     atom   38 type  1   force =    -0.80655344   -0.47488010   -0.76052577
     atom   39 type  1   force =     0.03553552   -0.54277865   -0.31125773
     atom   40 type  1   force =     0.03004449   -0.17263097   -0.09081884
     atom   41 type  1   force =     0.00815068   -0.00356050   -0.07149055
     atom   42 type  1   force =    -0.16329348    0.07151813   -0.09521538
     atom   43 type  1   force =    -0.35454565   -0.07065496   -0.16195717
     atom   44 type  1   force =    -0.24030508   -0.25439745   -0.16162104
     atom   45 type  1   force =    -0.00695945   -0.17628041   -0.09538952
     atom   46 type  1   force =     0.14872614    0.09560561   -0.09641635
     atom   47 type  1   force =     0.16556809    0.06110977   -0.09059638
     atom   48 type  1   force =    -0.00117908   -0.01522505   -0.07491029
     atom   49 type  1   force =    -0.10456412   -0.04971707   -0.07882984
     atom   50 type  1   force =    -0.02028648    0.01059326   -0.08430007
     atom   51 type  1   force =     0.08967255    0.14889242    0.04249505
     atom   52 type  1   force =     0.25430080    0.13439004    0.05760252
     atom   53 type  1   force =     0.17363014    0.00269623    0.03979992
     atom   54 type  1   force =    -0.00911811   -0.04089000    0.01526953
     atom   55 type  1   force =    -0.04718194    0.02592095    0.01657259
     atom   56 type  1   force =    -0.00931405    0.27948061    0.05521128
     atom   57 type  1   force =     0.25515160    0.44325335    0.26450514
     atom   58 type  1   force =     0.51930163   -0.00774422    0.24831985
     atom   59 type  1   force =     0.23439391   -0.13681651    0.04772688
     atom   60 type  1   force =     0.02982184    0.02574401    0.01547141
     atom   61 type  1   force =    -0.09768141    0.14917814    0.04233551
     atom   62 type  1   force =    -0.26626114    0.44291706    0.26119807
     atom   63 type  1   force =     0.00016219    0.00148267    0.73616997
     atom   64 type  1   force =     0.26770564   -0.44620719    0.24877094
     atom   65 type  1   force =     0.08450692   -0.15292572    0.04004617
     atom   66 type  1   force =    -0.03444940   -0.02548787    0.02036966
     atom   67 type  1   force =    -0.24909315    0.14516203    0.05503623
     atom   68 type  1   force =    -0.51578649    0.01217927    0.26125831
     atom   69 type  1   force =    -0.25407716   -0.44055855    0.26455153
     atom   70 type  1   force =     0.01389100   -0.28769471    0.05804104
     atom   71 type  1   force =     0.04965035   -0.02827444    0.01980706
     atom   72 type  1   force =     0.00567365    0.04437276    0.02058811
     atom   73 type  1   force =    -0.17781542    0.01124529    0.04250910
     atom   74 type  1   force =    -0.24689246   -0.13227998    0.05470489
     atom   75 type  1   force =    -0.08388288   -0.15307432    0.04253100
     atom   76 type  1   force =     0.12284225    0.21173971   -0.08712847
     atom   77 type  1   force =     0.40842124    0.22290164   -0.11209121
     atom   78 type  1   force =     0.22642483   -0.02908763   -0.09908427
     atom   79 type  1   force =    -0.00990969   -0.04300793   -0.04454085
     atom   80 type  1   force =    -0.05439484    0.02996704   -0.04393100
     atom   81 type  1   force =    -0.01430254    0.43594111   -0.10073365
     atom   82 type  1   force =     0.60839225    1.36606181   -0.50539616
     atom   83 type  1   force =     1.36906329   -0.25373609   -0.53255580
     atom   84 type  1   force =     0.35840502   -0.20827988   -0.09234056
     atom   85 type  1   force =     0.03199655    0.02794290   -0.04491882
     atom   86 type  1   force =    -0.11642698    0.22880216   -0.09665739
     atom   87 type  1   force =    -0.59104699    1.40705455   -0.50802204
     atom   88 type  1   force =     0.90450409   -1.06107873   -0.53347838
     atom   89 type  1   force =     0.14027980   -0.18296228   -0.09963194
     atom   90 type  1   force =    -0.04607419   -0.03059664   -0.06021058
     atom   91 type  1   force =    -0.40632224    0.23568694   -0.11046403
     atom   92 type  1   force =    -1.51436153   -0.19169732   -0.50691290
     atom   93 type  1   force =    -0.87678772   -1.21339434   -0.50525369
     atom   94 type  1   force =     0.01302258   -0.46529718   -0.11300652
     atom   95 type  1   force =     0.06685790   -0.03795860   -0.05658014
     atom   96 type  1   force =     0.00349466    0.05705430   -0.06017548
     atom   97 type  1   force =    -0.25670238   -0.01249902   -0.09646522
     atom   98 type  1   force =    -0.38347971   -0.20716963   -0.09959540
     atom   99 type  1   force =    -0.12058430   -0.21476950   -0.08665400
     atom  100 type  2   force =     0.25232047    0.27072929    0.19204530
     atom  101 type  2   force =     0.38285850    0.08136665    0.19532095
     atom  102 type  2   force =     0.16137785   -0.06074831    0.11731638
     atom  103 type  2   force =    -0.00625294    0.00140384    0.08925686
     atom  104 type  2   force =     0.01891203    0.16629406    0.11817101
     atom  105 type  2   force =    -0.01077171    0.54540746    0.33738096
     atom  106 type  2   force =     0.62216308    0.35848012    0.78997607
     atom  107 type  2   force =     0.48082714   -0.27946759    0.33245485
     atom  108 type  2   force =     0.13137361   -0.11129734    0.11740671
     atom  109 type  2   force =    -0.03423854    0.16483888    0.11826120
     atom  110 type  2   force =    -0.25718745    0.27459910    0.19009699
     atom  111 type  2   force =    -0.63987010    0.37110019    0.77393554
     atom  112 type  2   force =     0.00351075   -0.71998432    0.78848166
     atom  113 type  2   force =     0.12197952   -0.37387384    0.19494592
     atom  114 type  2   force =    -0.03203565   -0.02765451    0.10001170
     atom  115 type  2   force =    -0.09999416    0.05886603    0.10093610
     atom  116 type  2   force =    -0.36531603    0.08792982    0.18909850
     atom  117 type  2   force =    -0.47538027   -0.26278779    0.33703272
     atom  118 type  2   force =    -0.10622481   -0.35669522    0.19201840
     atom  119 type  2   force =     0.01240179   -0.13029259    0.10278132
     atom  120 type  2   force =     0.11823558    0.05580113    0.10264407
     atom  121 type  2   force =     0.00907983    0.04263793    0.09996471
     atom  122 type  2   force =    -0.16009077   -0.05346799    0.11861756
     atom  123 type  2   force =    -0.13598425   -0.10304415    0.11835232
     atom  124 type  2   force =     0.03799192   -0.02371013    0.09992053
     atom  125 type  2   force =     0.13560349    0.52420684   -0.13700900
     atom  126 type  2   force =     0.84865100    0.52573799   -0.30696151
     atom  127 type  2   force =     0.53807113   -0.16370135   -0.14348764
     atom  128 type  2   force =     0.12082856   -0.07235834    0.00463029
     atom  129 type  2   force =    -0.01051027    0.14039492    0.00727250
     atom  130 type  2   force =    -0.15482158    0.51299381   -0.12301533
     atom  131 type  2   force =     0.01279850    2.95662314   -1.38796995
     atom  132 type  2   force =     2.77888306   -1.60436893   -1.47605541
     atom  133 type  2   force =     0.40727151   -0.38578613   -0.14277503
     atom  134 type  2   force =     0.00828035    0.00215777    0.01638309
     atom  135 type  2   force =    -0.18066388    0.13930827    0.00077517
     atom  136 type  2   force =    -0.90493570    0.52547454   -0.26578292
     atom  137 type  2   force =    -2.55189414   -1.48953881   -1.38836463
     atom  138 type  2   force =    -0.03102265   -0.99647729   -0.30638020
     atom  139 type  2   force =     0.03475799   -0.23103431   -0.00623330
     atom  140 type  2   force =     0.00593801   -0.00173002    0.02935705
     atom  141 type  2   force =    -0.21018616    0.08916417    0.00058469
     atom  142 type  2   force =    -0.52218411   -0.12157780   -0.12337378
     atom  143 type  2   force =    -0.38451349   -0.38019289   -0.13652231
     atom  144 type  2   force =    -0.03364094   -0.22961571   -0.00558576
     atom  145 type  2   force =     0.18301375    0.14679182   -0.00630009
     atom  146 type  2   force =     0.21825123    0.08561390   -0.00649764
     atom  147 type  2   force =     0.00171900   -0.00950695    0.01592269
     atom  148 type  2   force =    -0.13047868   -0.06428732    0.00720350
     atom  149 type  2   force =    -0.01814428    0.00899283    0.00979430
     atom  150 type  2   force =     0.09448602    0.13788671   -0.02081811
     atom  151 type  2   force =     0.25739209    0.13771809   -0.04248192
     atom  152 type  2   force =     0.18875939    0.02752397   -0.01267063
     atom  153 type  2   force =    -0.00085325   -0.03103014   -0.00348510
     atom  154 type  2   force =    -0.03945206    0.02046964   -0.00629362
     atom  155 type  2   force =    -0.01224878    0.25718148   -0.03090254
     atom  156 type  2   force =     0.22938080    0.45529918   -0.19333838
     atom  157 type  2   force =     0.55898621    0.02079472   -0.15453071
     atom  158 type  2   force =     0.23114758   -0.13553382   -0.02338912
     atom  159 type  2   force =     0.02508453    0.01518274   -0.00337270
     atom  160 type  2   force =    -0.10094149    0.13756472   -0.01596039
     atom  161 type  2   force =    -0.24778861    0.46403204   -0.20357189
     atom  162 type  2   force =    -0.04750566    0.02564746   -0.89111279
     atom  163 type  2   force =     0.26232794   -0.49757040   -0.15366163
     atom  164 type  2   force =     0.07172807   -0.17768049   -0.01286520
     atom  165 type  2   force =    -0.03435944   -0.03120451   -0.00042855
     atom  166 type  2   force =    -0.24494933    0.14252575   -0.04698878
     atom  167 type  2   force =    -0.52394205   -0.01566983   -0.20305888
     atom  168 type  2   force =    -0.27592044   -0.42865698   -0.19307274
     atom  169 type  2   force =     0.01314124   -0.29345814   -0.04219337
     atom  170 type  2   force =     0.05604698   -0.03219213   -0.00093869
     atom  171 type  2   force =     0.01078357    0.04732347   -0.00043853
     atom  172 type  2   force =    -0.17012916    0.02060621   -0.01660409
     atom  173 type  2   force =    -0.22752200   -0.11841222   -0.03129525
     atom  174 type  2   force =    -0.07169116   -0.15525889   -0.02091182
     atom  175 type  2   force =     0.13548093    0.23858545    0.02748468
     atom  176 type  2   force =     0.39458006    0.22819553    0.09370069
     atom  177 type  2   force =     0.27207502   -0.01311464    0.03048934
     atom  178 type  2   force =    -0.00557319   -0.05744681    0.02101117
     atom  179 type  2   force =    -0.05959501    0.03309936    0.02170412
     atom  180 type  2   force =    -0.00819193    0.44719776    0.06581705
     atom  181 type  2   force =     0.72795778    1.28730246    0.37072918
     atom  182 type  2   force =     1.42379669   -0.06664312    0.39700729
     atom  183 type  2   force =     0.37431215   -0.21702597    0.07108798
     atom  184 type  2   force =     0.04598779    0.03105933    0.02137064
     atom  185 type  2   force =    -0.13753360    0.23756911    0.02612772
     atom  186 type  2   force =    -0.72344397    1.31255398    0.37740637
     atom  187 type  2   force =     0.76946834   -1.20157032    0.39803085
     atom  188 type  2   force =     0.14768216   -0.23121698    0.03133994
     atom  189 type  2   force =    -0.05551026   -0.03619500    0.02587044
     atom  190 type  2   force =    -0.39665342    0.23095939    0.09016730
     atom  191 type  2   force =    -1.49701957   -0.02605231    0.37649459
     atom  192 type  2   force =    -0.74773613   -1.27330408    0.36806324
     atom  193 type  2   force =     0.00172897   -0.45555530    0.09289248
     atom  194 type  2   force =     0.06417808   -0.03607985    0.02471961
     atom  195 type  2   force =     0.00527825    0.06827081    0.02597288
     atom  196 type  2   force =    -0.27519212    0.00145233    0.02602821
     atom  197 type  2   force =    -0.39093034   -0.21721818    0.06459568
     atom  198 type  2   force =    -0.13776766   -0.23680353    0.02642666
     The local contribution  to forces
     atom    1 type  1   force =    -0.51730196   -0.45245278   -0.15395950
     atom    2 type  1   force =    -0.63923965   -0.18380958   -0.14163436
     atom    3 type  1   force =    -0.19494203    0.08259429    0.02638227
     atom    4 type  1   force =     0.01108762   -0.00528905    0.04075786
     atom    5 type  1   force =    -0.02362770   -0.22464038    0.01520450
     atom    6 type  1   force =     0.01399975   -0.98061204   -0.24863583
     atom    7 type  1   force =    -2.73705866   -1.52209622   -1.62893062
     atom    8 type  1   force =    -0.82589548    0.47854368   -0.19908215
     atom    9 type  1   force =    -0.16791534    0.12798142    0.02622651
     atom   10 type  1   force =     0.04258818   -0.23024976    0.01893663
     atom   11 type  1   force =     0.51325226   -0.46880095   -0.15186532
     atom   12 type  1   force =     2.71789556   -1.56994633   -1.69166143
     atom   13 type  1   force =    -0.05132929    3.13140130   -1.62791039
     atom   14 type  1   force =    -0.16266496    0.64573880   -0.14145168
     atom   15 type  1   force =     0.06831518    0.02914558    0.00627197
     atom   16 type  1   force =     0.15083495   -0.08796845    0.02400091
     atom   17 type  1   force =     0.66166905   -0.21213762   -0.15133287
     atom   18 type  1   force =     0.85354479    0.47861507   -0.24824915
     atom   19 type  1   force =     0.13055919    0.67628493   -0.15179022
     atom   20 type  1   force =    -0.01277715    0.17847199    0.02356977
     atom   21 type  1   force =    -0.16072593   -0.08066155    0.02312346
     atom   22 type  1   force =     0.00773290   -0.07525603    0.00608935
     atom   23 type  1   force =     0.21882514    0.07749589    0.01840486
     atom   24 type  1   force =     0.18219045    0.13521390    0.01538221
     atom   25 type  1   force =    -0.07911388    0.04692452   -0.00092942
     atom   26 type  1   force =    -0.10306515   -0.33348449    0.17287932
     atom   27 type  1   force =    -0.48505726   -0.23350836    0.32731689
     atom   28 type  1   force =    -0.34734897    0.07829126    0.14531581
     atom   29 type  1   force =    -0.08884356    0.05324749    0.08121579
     atom   30 type  1   force =     0.01033498   -0.11193310    0.08877414
     atom   31 type  1   force =     0.11705181   -0.34072276    0.17369348
     atom   32 type  1   force =    -0.00825452   -0.97306922    0.65702221
     atom   33 type  1   force =    -0.84236833    0.48781783    0.50225469
     atom   34 type  1   force =    -0.24090542    0.26430353    0.14656095
     atom   35 type  1   force =    -0.01316702   -0.00596395    0.08849511
     atom   36 type  1   force =     0.14314714   -0.10765662    0.10925796
     atom   37 type  1   force =     0.50025953   -0.29096487    0.36270308
     atom   38 type  1   force =     0.83682462    0.49115541    0.65984922
     atom   39 type  1   force =    -0.04162256    0.53490009    0.32622018
     atom   40 type  1   force =    -0.03075428    0.17075505    0.10374680
     atom   41 type  1   force =    -0.00774645    0.00330836    0.08417639
     atom   42 type  1   force =     0.16341424   -0.07162597    0.10890589
     atom   43 type  1   force =     0.35533079    0.06731481    0.17373823
     atom   44 type  1   force =     0.23652896    0.25587655    0.17053002
     atom   45 type  1   force =     0.00601935    0.17468155    0.10860232
     atom   46 type  1   force =    -0.14814518   -0.09408011    0.10972269
     atom   47 type  1   force =    -0.16467670   -0.05930618    0.10347233
     atom   48 type  1   force =     0.00182211    0.01508904    0.08799262
     atom   49 type  1   force =     0.10417068    0.04971037    0.08793689
     atom   50 type  1   force =     0.01976105   -0.01054719    0.09566843
     atom   51 type  1   force =    -0.08899882   -0.15447588   -0.05888640
     atom   52 type  1   force =    -0.25714035   -0.13468105   -0.07464989
     atom   53 type  1   force =    -0.17525406    0.00169931   -0.05569298
     atom   54 type  1   force =     0.01085262    0.04193975   -0.02737342
     atom   55 type  1   force =     0.04875691   -0.02704745   -0.02924772
     atom   56 type  1   force =     0.00930400   -0.28640537   -0.06913818
     atom   57 type  1   force =    -0.26074181   -0.46008561   -0.30962429
     atom   58 type  1   force =    -0.53250777    0.01671596   -0.29075883
     atom   59 type  1   force =    -0.23638541    0.13784898   -0.06111810
     atom   60 type  1   force =    -0.02990478   -0.02763702   -0.02758779
     atom   61 type  1   force =     0.09733751   -0.15539768   -0.05815520
     atom   62 type  1   force =     0.27103747   -0.46015181   -0.30602066
     atom   63 type  1   force =    -0.00593775    0.00151712   -0.79879485
     atom   64 type  1   force =    -0.28240706    0.45267564   -0.29127908
     atom   65 type  1   force =    -0.08918189    0.15232822   -0.05603452
     atom   66 type  1   force =     0.03381770    0.02445083   -0.03361657
     atom   67 type  1   force =     0.25268836   -0.14720557   -0.07173676
     atom   68 type  1   force =     0.53320375   -0.00793580   -0.30603342
     atom   69 type  1   force =     0.26606227    0.45316673   -0.30975237
     atom   70 type  1   force =    -0.01507104    0.29009327   -0.07512993
     atom   71 type  1   force =    -0.04846967    0.02754620   -0.03304742
     atom   72 type  1   force =    -0.00510350   -0.04319749   -0.03387259
     atom   73 type  1   force =     0.18305657   -0.00778593   -0.05838784
     atom   74 type  1   force =     0.25285667    0.13557393   -0.06862055
     atom   75 type  1   force =     0.08892358    0.15475031   -0.05897771
     atom   76 type  1   force =    -0.09869515   -0.20623657    0.09619711
     atom   77 type  1   force =    -0.39885572   -0.21300271    0.11623032
     atom   78 type  1   force =    -0.20138836    0.04915505    0.10804409
     atom   79 type  1   force =     0.01013520    0.04449843    0.03839453
     atom   80 type  1   force =     0.05423757   -0.03005844    0.03845001
     atom   81 type  1   force =     0.01215591   -0.43353211    0.09853484
     atom   82 type  1   force =    -0.51005969   -1.33310773    0.57587646
     atom   83 type  1   force =    -1.25824778    0.33048364    0.60215267
     atom   84 type  1   force =    -0.35690399    0.20722845    0.08896807
     atom   85 type  1   force =    -0.03342449   -0.02907189    0.03887253
     atom   86 type  1   force =     0.09141868   -0.22714877    0.10694335
     atom   87 type  1   force =     0.48629530   -1.37229436    0.58090328
     atom   88 type  1   force =    -0.91599300    0.92734783    0.60348092
     atom   89 type  1   force =    -0.14582768    0.15147573    0.10883525
     atom   90 type  1   force =     0.04369237    0.02770833    0.05915490
     atom   91 type  1   force =     0.39828219   -0.23083125    0.11654712
     atom   92 type  1   force =     1.43229670    0.26581094    0.57931924
     atom   93 type  1   force =     0.89759691    1.11263629    0.57562847
     atom   94 type  1   force =    -0.01703712    0.45219243    0.11749385
     atom   95 type  1   force =    -0.06630138    0.03777473    0.05396820
     atom   96 type  1   force =    -0.00191372   -0.05359976    0.05905149
     atom   97 type  1   force =     0.24281406    0.03337203    0.10673265
     atom   98 type  1   force =     0.37995239    0.20792770    0.09703986
     atom   99 type  1   force =     0.12781017    0.19155605    0.09560849
     atom  100 type  2   force =    -0.25614053   -0.27443828   -0.20512305
     atom  101 type  2   force =    -0.38793769   -0.08430152   -0.20552902
     atom  102 type  2   force =    -0.16166693    0.06097122   -0.12413828
     atom  103 type  2   force =     0.00594782   -0.00145365   -0.09644437
     atom  104 type  2   force =    -0.01948753   -0.16720125   -0.12608868
     atom  105 type  2   force =     0.01003326   -0.54756118   -0.34706882
     atom  106 type  2   force =    -0.65079473   -0.37537060   -0.83600091
     atom  107 type  2   force =    -0.48170536    0.28017031   -0.33773981
     atom  108 type  2   force =    -0.13191200    0.11162237   -0.12429281
     atom  109 type  2   force =     0.03369762   -0.16568015   -0.12611292
     atom  110 type  2   force =     0.26117892   -0.27773008   -0.20373612
     atom  111 type  2   force =     0.67096397   -0.38921655   -0.82484693
     atom  112 type  2   force =    -0.00293927    0.75263046   -0.83501070
     atom  113 type  2   force =    -0.12201461    0.37991774   -0.20526432
     atom  114 type  2   force =     0.03261578    0.02784060   -0.10871144
     atom  115 type  2   force =     0.10060755   -0.05936171   -0.10958557
     atom  116 type  2   force =     0.37003730   -0.08969200   -0.20319083
     atom  117 type  2   force =     0.47714929    0.26475763   -0.34688475
     atom  118 type  2   force =     0.10772005    0.36199808   -0.20514984
     atom  119 type  2   force =    -0.01157560    0.13015407   -0.11075145
     atom  120 type  2   force =    -0.11779848   -0.05654642   -0.11069552
     atom  121 type  2   force =    -0.00892730   -0.04331345   -0.10866416
     atom  122 type  2   force =     0.16066020    0.05409545   -0.12624518
     atom  123 type  2   force =     0.13640146    0.10378229   -0.12613934
     atom  124 type  2   force =    -0.03791653    0.02369371   -0.10894723
     atom  125 type  2   force =    -0.13210778   -0.50825944    0.12341596
     atom  126 type  2   force =    -0.84745251   -0.50856275    0.29532973
     atom  127 type  2   force =    -0.53143991    0.14068387    0.11898119
     atom  128 type  2   force =    -0.11924586    0.07113298   -0.01550828
     atom  129 type  2   force =     0.01004045   -0.13760430   -0.01710187
     atom  130 type  2   force =     0.15246688   -0.50080465    0.11121190
     atom  131 type  2   force =    -0.00872761   -2.91687647    1.37108013
     atom  132 type  2   force =    -2.66819812    1.54071697    1.42665772
     atom  133 type  2   force =    -0.38452132    0.39133904    0.11850996
     atom  134 type  2   force =    -0.01008728    0.00193878   -0.02712742
     atom  135 type  2   force =     0.18087285   -0.13849296   -0.00878313
     atom  136 type  2   force =     0.89630411   -0.52078846    0.26050136
     atom  137 type  2   force =     2.51954576    1.46638931    1.37149608
     atom  138 type  2   force =     0.01713274    0.98741678    0.29489517
     atom  139 type  2   force =    -0.03471467    0.23159684   -0.00252039
     atom  140 type  2   force =    -0.00607238    0.00197012   -0.03770236
     atom  141 type  2   force =     0.20920331   -0.08959168   -0.00844364
     atom  142 type  2   force =     0.50992909    0.11723682    0.11139542
     atom  143 type  2   force =     0.37152818    0.36887317    0.12274807
     atom  144 type  2   force =     0.03204910    0.22983625   -0.00301160
     atom  145 type  2   force =    -0.18380099   -0.14525908   -0.00244309
     atom  146 type  2   force =    -0.21888501   -0.08579437   -0.00240742
     atom  147 type  2   force =    -0.00659712    0.00914701   -0.02668009
     atom  148 type  2   force =     0.12718046    0.06332525   -0.01708090
     atom  149 type  2   force =     0.01860855   -0.00950092   -0.02021362
     atom  150 type  2   force =    -0.08924433   -0.13501166    0.03664418
     atom  151 type  2   force =    -0.25120430   -0.13615636    0.05694308
     atom  152 type  2   force =    -0.18280274   -0.02328003    0.03038083
     atom  153 type  2   force =     0.00064112    0.03224847    0.02215448
     atom  154 type  2   force =     0.03925705   -0.02030784    0.02433674
     atom  155 type  2   force =     0.01086706   -0.25411680    0.04526743
     atom  156 type  2   force =    -0.21104408   -0.44245110    0.19601497
     atom  157 type  2   force =    -0.52668311   -0.01083999    0.16745689
     atom  158 type  2   force =    -0.22897741    0.13442997    0.04115529
     atom  159 type  2   force =    -0.02655364   -0.01498402    0.02205600
     atom  160 type  2   force =     0.09543108   -0.13486640    0.03237937
     atom  161 type  2   force =     0.22711001   -0.45195941    0.20523440
     atom  162 type  2   force =     0.02609155   -0.01354319    0.84461715
     atom  163 type  2   force =    -0.25455372    0.46424129    0.16675166
     atom  164 type  2   force =    -0.07171382    0.17003141    0.03075928
     atom  165 type  2   force =     0.03422845    0.03034443    0.01911877
     atom  166 type  2   force =     0.24070908   -0.14002792    0.06081858
     atom  167 type  2   force =     0.50252843    0.02752247    0.20474971
     atom  168 type  2   force =     0.27358616    0.40544854    0.19517804
     atom  169 type  2   force =    -0.01122251    0.28728389    0.05656272
     atom  170 type  2   force =    -0.05391643    0.03113630    0.01934549
     atom  171 type  2   force =    -0.01005017   -0.04664766    0.01914371
     atom  172 type  2   force =     0.16416273   -0.01723798    0.03290540
     atom  173 type  2   force =     0.22443628    0.11814103    0.04544093
     atom  174 type  2   force =     0.07205159    0.14907167    0.03656367
     atom  175 type  2   force =    -0.13277182   -0.24663934    0.00102564
     atom  176 type  2   force =    -0.40076378   -0.23012092   -0.06145842
     atom  177 type  2   force =    -0.28016484    0.01732284   -0.00146279
     atom  178 type  2   force =     0.00587269    0.05829465    0.00424454
     atom  179 type  2   force =     0.06071555   -0.03348502    0.00377192
     atom  180 type  2   force =     0.00829722   -0.45472812   -0.03371112
     atom  181 type  2   force =    -0.72170172   -1.33422340   -0.31412858
     atom  182 type  2   force =    -1.46981192    0.08773392   -0.32914938
     atom  183 type  2   force =    -0.38078917    0.22117579   -0.03893165
     atom  184 type  2   force =    -0.04666495   -0.03110364    0.00379770
     atom  185 type  2   force =     0.13587778   -0.24526418    0.00201498
     atom  186 type  2   force =     0.72032939   -1.35857092   -0.32211669
     atom  187 type  2   force =    -0.81047889    1.23092123   -0.33039913
     atom  188 type  2   force =    -0.15492650    0.23590829   -0.00220654
     atom  189 type  2   force =     0.05540985    0.03694841    0.00042829
     atom  190 type  2   force =     0.40146024   -0.23341601   -0.05868570
     atom  191 type  2   force =     1.53517236    0.05173877   -0.32126287
     atom  192 type  2   force =     0.79142672    1.29127785   -0.31098277
     atom  193 type  2   force =    -0.00291855    0.46210801   -0.06061967
     atom  194 type  2   force =    -0.06468247    0.03655966    0.00158601
     atom  195 type  2   force =    -0.00593999   -0.06854779    0.00036045
     atom  196 type  2   force =     0.28048167    0.00379448    0.00205825
     atom  197 type  2   force =     0.39776059    0.22096734   -0.03257122
     atom  198 type  2   force =     0.14645708    0.23867694    0.00219119
     The core correction contribution to forces
     atom    1 type  1   force =     0.00000000    0.00000000    0.00000000
     atom    2 type  1   force =     0.00000000    0.00000000    0.00000000
     atom    3 type  1   force =     0.00000000    0.00000000    0.00000000
     atom    4 type  1   force =     0.00000000    0.00000000    0.00000000
     atom    5 type  1   force =     0.00000000    0.00000000    0.00000000
     atom    6 type  1   force =     0.00000000    0.00000000    0.00000000
     atom    7 type  1   force =     0.00000000    0.00000000    0.00000000
     atom    8 type  1   force =     0.00000000    0.00000000    0.00000000
     atom    9 type  1   force =     0.00000000    0.00000000    0.00000000
     atom   10 type  1   force =     0.00000000    0.00000000    0.00000000
     atom   11 type  1   force =     0.00000000    0.00000000    0.00000000
     atom   12 type  1   force =     0.00000000    0.00000000    0.00000000
     atom   13 type  1   force =     0.00000000    0.00000000    0.00000000
     atom   14 type  1   force =     0.00000000    0.00000000    0.00000000
     atom   15 type  1   force =     0.00000000    0.00000000    0.00000000
     atom   16 type  1   force =     0.00000000    0.00000000    0.00000000
     atom   17 type  1   force =     0.00000000    0.00000000    0.00000000
     atom   18 type  1   force =     0.00000000    0.00000000    0.00000000
     atom   19 type  1   force =     0.00000000    0.00000000    0.00000000
     atom   20 type  1   force =     0.00000000    0.00000000    0.00000000
     atom   21 type  1   force =     0.00000000    0.00000000    0.00000000
     atom   22 type  1   force =     0.00000000    0.00000000    0.00000000
     atom   23 type  1   force =     0.00000000    0.00000000    0.00000000
     atom   24 type  1   force =     0.00000000    0.00000000    0.00000000
     atom   25 type  1   force =     0.00000000    0.00000000    0.00000000
     atom   26 type  1   force =     0.00000000    0.00000000    0.00000000
     atom   27 type  1   force =     0.00000000    0.00000000    0.00000000
     atom   28 type  1   force =     0.00000000    0.00000000    0.00000000
     atom   29 type  1   force =     0.00000000    0.00000000    0.00000000
     atom   30 type  1   force =     0.00000000    0.00000000    0.00000000
     atom   31 type  1   force =     0.00000000    0.00000000    0.00000000
     atom   32 type  1   force =     0.00000000    0.00000000    0.00000000
     atom   33 type  1   force =     0.00000000    0.00000000    0.00000000
     atom   34 type  1   force =     0.00000000    0.00000000    0.00000000
     atom   35 type  1   force =     0.00000000    0.00000000    0.00000000
     atom   36 type  1   force =     0.00000000    0.00000000    0.00000000
     atom   37 type  1   force =     0.00000000    0.00000000    0.00000000
     atom   38 type  1   force =     0.00000000    0.00000000    0.00000000
     atom   39 type  1   force =     0.00000000    0.00000000    0.00000000
     atom   40 type  1   force =     0.00000000    0.00000000    0.00000000
     atom   41 type  1   force =     0.00000000    0.00000000    0.00000000
     atom   42 type  1   force =     0.00000000    0.00000000    0.00000000
     atom   43 type  1   force =     0.00000000    0.00000000    0.00000000
     atom   44 type  1   force =     0.00000000    0.00000000    0.00000000
     atom   45 type  1   force =     0.00000000    0.00000000    0.00000000
     atom   46 type  1   force =     0.00000000    0.00000000    0.00000000
     atom   47 type  1   force =     0.00000000    0.00000000    0.00000000
     atom   48 type  1   force =     0.00000000    0.00000000    0.00000000
     atom   49 type  1   force =     0.00000000    0.00000000    0.00000000
     atom   50 type  1   force =     0.00000000    0.00000000    0.00000000
     atom   51 type  1   force =     0.00000000    0.00000000    0.00000000
     atom   52 type  1   force =     0.00000000    0.00000000    0.00000000
     atom   53 type  1   force =     0.00000000    0.00000000    0.00000000
     atom   54 type  1   force =     0.00000000    0.00000000    0.00000000
     atom   55 type  1   force =     0.00000000    0.00000000    0.00000000
     atom   56 type  1   force =     0.00000000    0.00000000    0.00000000
     atom   57 type  1   force =     0.00000000    0.00000000    0.00000000
     atom   58 type  1   force =     0.00000000    0.00000000    0.00000000
     atom   59 type  1   force =     0.00000000    0.00000000    0.00000000
     atom   60 type  1   force =     0.00000000    0.00000000    0.00000000
     atom   61 type  1   force =     0.00000000    0.00000000    0.00000000
     atom   62 type  1   force =     0.00000000    0.00000000    0.00000000
     atom   63 type  1   force =     0.00000000    0.00000000    0.00000000
     atom   64 type  1   force =     0.00000000    0.00000000    0.00000000
     atom   65 type  1   force =     0.00000000    0.00000000    0.00000000
     atom   66 type  1   force =     0.00000000    0.00000000    0.00000000
     atom   67 type  1   force =     0.00000000    0.00000000    0.00000000
     atom   68 type  1   force =     0.00000000    0.00000000    0.00000000
     atom   69 type  1   force =     0.00000000    0.00000000    0.00000000
     atom   70 type  1   force =     0.00000000    0.00000000    0.00000000
     atom   71 type  1   force =     0.00000000    0.00000000    0.00000000
     atom   72 type  1   force =     0.00000000    0.00000000    0.00000000
     atom   73 type  1   force =     0.00000000    0.00000000    0.00000000
     atom   74 type  1   force =     0.00000000    0.00000000    0.00000000
     atom   75 type  1   force =     0.00000000    0.00000000    0.00000000
     atom   76 type  1   force =     0.00000000    0.00000000    0.00000000
     atom   77 type  1   force =     0.00000000    0.00000000    0.00000000
     atom   78 type  1   force =     0.00000000    0.00000000    0.00000000
     atom   79 type  1   force =     0.00000000    0.00000000    0.00000000
     atom   80 type  1   force =     0.00000000    0.00000000    0.00000000
     atom   81 type  1   force =     0.00000000    0.00000000    0.00000000
     atom   82 type  1   force =     0.00000000    0.00000000    0.00000000
     atom   83 type  1   force =     0.00000000    0.00000000    0.00000000
     atom   84 type  1   force =     0.00000000    0.00000000    0.00000000
     atom   85 type  1   force =     0.00000000    0.00000000    0.00000000
     atom   86 type  1   force =     0.00000000    0.00000000    0.00000000
     atom   87 type  1   force =     0.00000000    0.00000000    0.00000000
     atom   88 type  1   force =     0.00000000    0.00000000    0.00000000
     atom   89 type  1   force =     0.00000000    0.00000000    0.00000000
     atom   90 type  1   force =     0.00000000    0.00000000    0.00000000
     atom   91 type  1   force =     0.00000000    0.00000000    0.00000000
     atom   92 type  1   force =     0.00000000    0.00000000    0.00000000
     atom   93 type  1   force =     0.00000000    0.00000000    0.00000000
     atom   94 type  1   force =     0.00000000    0.00000000    0.00000000
     atom   95 type  1   force =     0.00000000    0.00000000    0.00000000
     atom   96 type  1   force =     0.00000000    0.00000000    0.00000000
     atom   97 type  1   force =     0.00000000    0.00000000    0.00000000
     atom   98 type  1   force =     0.00000000    0.00000000    0.00000000
     atom   99 type  1   force =     0.00000000    0.00000000    0.00000000
     atom  100 type  2   force =     0.00000000    0.00000000    0.00000000
     atom  101 type  2   force =     0.00000000    0.00000000    0.00000000
     atom  102 type  2   force =     0.00000000    0.00000000    0.00000000
     atom  103 type  2   force =     0.00000000    0.00000000    0.00000000
     atom  104 type  2   force =     0.00000000    0.00000000    0.00000000
     atom  105 type  2   force =     0.00000000    0.00000000    0.00000000
     atom  106 type  2   force =     0.00000000    0.00000000    0.00000000
     atom  107 type  2   force =     0.00000000    0.00000000    0.00000000
     atom  108 type  2   force =     0.00000000    0.00000000    0.00000000
     atom  109 type  2   force =     0.00000000    0.00000000    0.00000000
     atom  110 type  2   force =     0.00000000    0.00000000    0.00000000
     atom  111 type  2   force =     0.00000000    0.00000000    0.00000000
     atom  112 type  2   force =     0.00000000    0.00000000    0.00000000
     atom  113 type  2   force =     0.00000000    0.00000000    0.00000000
     atom  114 type  2   force =     0.00000000    0.00000000    0.00000000
     atom  115 type  2   force =     0.00000000    0.00000000    0.00000000
     atom  116 type  2   force =     0.00000000    0.00000000    0.00000000
     atom  117 type  2   force =     0.00000000    0.00000000    0.00000000
     atom  118 type  2   force =     0.00000000    0.00000000    0.00000000
     atom  119 type  2   force =     0.00000000    0.00000000    0.00000000
     atom  120 type  2   force =     0.00000000    0.00000000    0.00000000
     atom  121 type  2   force =     0.00000000    0.00000000    0.00000000
     atom  122 type  2   force =     0.00000000    0.00000000    0.00000000
     atom  123 type  2   force =     0.00000000    0.00000000    0.00000000
     atom  124 type  2   force =     0.00000000    0.00000000    0.00000000
     atom  125 type  2   force =     0.00000000    0.00000000    0.00000000
     atom  126 type  2   force =     0.00000000    0.00000000    0.00000000
     atom  127 type  2   force =     0.00000000    0.00000000    0.00000000
     atom  128 type  2   force =     0.00000000    0.00000000    0.00000000
     atom  129 type  2   force =     0.00000000    0.00000000    0.00000000
     atom  130 type  2   force =     0.00000000    0.00000000    0.00000000
     atom  131 type  2   force =     0.00000000    0.00000000    0.00000000
     atom  132 type  2   force =     0.00000000    0.00000000    0.00000000
     atom  133 type  2   force =     0.00000000    0.00000000    0.00000000
     atom  134 type  2   force =     0.00000000    0.00000000    0.00000000
     atom  135 type  2   force =     0.00000000    0.00000000    0.00000000
     atom  136 type  2   force =     0.00000000    0.00000000    0.00000000
     atom  137 type  2   force =     0.00000000    0.00000000    0.00000000
     atom  138 type  2   force =     0.00000000    0.00000000    0.00000000
     atom  139 type  2   force =     0.00000000    0.00000000    0.00000000
     atom  140 type  2   force =     0.00000000    0.00000000    0.00000000
     atom  141 type  2   force =     0.00000000    0.00000000    0.00000000
     atom  142 type  2   force =     0.00000000    0.00000000    0.00000000
     atom  143 type  2   force =     0.00000000    0.00000000    0.00000000
     atom  144 type  2   force =     0.00000000    0.00000000    0.00000000
     atom  145 type  2   force =     0.00000000    0.00000000    0.00000000
     atom  146 type  2   force =     0.00000000    0.00000000    0.00000000
     atom  147 type  2   force =     0.00000000    0.00000000    0.00000000
     atom  148 type  2   force =     0.00000000    0.00000000    0.00000000
     atom  149 type  2   force =     0.00000000    0.00000000    0.00000000
     atom  150 type  2   force =     0.00000000    0.00000000    0.00000000
     atom  151 type  2   force =     0.00000000    0.00000000    0.00000000
     atom  152 type  2   force =     0.00000000    0.00000000    0.00000000
     atom  153 type  2   force =     0.00000000    0.00000000    0.00000000
     atom  154 type  2   force =     0.00000000    0.00000000    0.00000000
     atom  155 type  2   force =     0.00000000    0.00000000    0.00000000
     atom  156 type  2   force =     0.00000000    0.00000000    0.00000000
     atom  157 type  2   force =     0.00000000    0.00000000    0.00000000
     atom  158 type  2   force =     0.00000000    0.00000000    0.00000000
     atom  159 type  2   force =     0.00000000    0.00000000    0.00000000
     atom  160 type  2   force =     0.00000000    0.00000000    0.00000000
     atom  161 type  2   force =     0.00000000    0.00000000    0.00000000
     atom  162 type  2   force =     0.00000000    0.00000000    0.00000000
     atom  163 type  2   force =     0.00000000    0.00000000    0.00000000
     atom  164 type  2   force =     0.00000000    0.00000000    0.00000000
     atom  165 type  2   force =     0.00000000    0.00000000    0.00000000
     atom  166 type  2   force =     0.00000000    0.00000000    0.00000000
     atom  167 type  2   force =     0.00000000    0.00000000    0.00000000
     atom  168 type  2   force =     0.00000000    0.00000000    0.00000000
     atom  169 type  2   force =     0.00000000    0.00000000    0.00000000
     atom  170 type  2   force =     0.00000000    0.00000000    0.00000000
     atom  171 type  2   force =     0.00000000    0.00000000    0.00000000
     atom  172 type  2   force =     0.00000000    0.00000000    0.00000000
     atom  173 type  2   force =     0.00000000    0.00000000    0.00000000
     atom  174 type  2   force =     0.00000000    0.00000000    0.00000000
     atom  175 type  2   force =     0.00000000    0.00000000    0.00000000
     atom  176 type  2   force =     0.00000000    0.00000000    0.00000000
     atom  177 type  2   force =     0.00000000    0.00000000    0.00000000
     atom  178 type  2   force =     0.00000000    0.00000000    0.00000000
     atom  179 type  2   force =     0.00000000    0.00000000    0.00000000
     atom  180 type  2   force =     0.00000000    0.00000000    0.00000000
     atom  181 type  2   force =     0.00000000    0.00000000    0.00000000
     atom  182 type  2   force =     0.00000000    0.00000000    0.00000000
     atom  183 type  2   force =     0.00000000    0.00000000    0.00000000
     atom  184 type  2   force =     0.00000000    0.00000000    0.00000000
     atom  185 type  2   force =     0.00000000    0.00000000    0.00000000
     atom  186 type  2   force =     0.00000000    0.00000000    0.00000000
     atom  187 type  2   force =     0.00000000    0.00000000    0.00000000
     atom  188 type  2   force =     0.00000000    0.00000000    0.00000000
     atom  189 type  2   force =     0.00000000    0.00000000    0.00000000
     atom  190 type  2   force =     0.00000000    0.00000000    0.00000000
     atom  191 type  2   force =     0.00000000    0.00000000    0.00000000
     atom  192 type  2   force =     0.00000000    0.00000000    0.00000000
     atom  193 type  2   force =     0.00000000    0.00000000    0.00000000
     atom  194 type  2   force =     0.00000000    0.00000000    0.00000000
     atom  195 type  2   force =     0.00000000    0.00000000    0.00000000
     atom  196 type  2   force =     0.00000000    0.00000000    0.00000000
     atom  197 type  2   force =     0.00000000    0.00000000    0.00000000
     atom  198 type  2   force =     0.00000000    0.00000000    0.00000000
     The Hubbard contrib.    to forces
     atom    1 type  1   force =     0.00000000    0.00000000    0.00000000
     atom    2 type  1   force =     0.00000000    0.00000000    0.00000000
     atom    3 type  1   force =     0.00000000    0.00000000    0.00000000
     atom    4 type  1   force =     0.00000000    0.00000000    0.00000000
     atom    5 type  1   force =     0.00000000    0.00000000    0.00000000
     atom    6 type  1   force =     0.00000000    0.00000000    0.00000000
     atom    7 type  1   force =     0.00000000    0.00000000    0.00000000
     atom    8 type  1   force =     0.00000000    0.00000000    0.00000000
     atom    9 type  1   force =     0.00000000    0.00000000    0.00000000
     atom   10 type  1   force =     0.00000000    0.00000000    0.00000000
     atom   11 type  1   force =     0.00000000    0.00000000    0.00000000
     atom   12 type  1   force =     0.00000000    0.00000000    0.00000000
     atom   13 type  1   force =     0.00000000    0.00000000    0.00000000
     atom   14 type  1   force =     0.00000000    0.00000000    0.00000000
     atom   15 type  1   force =     0.00000000    0.00000000    0.00000000
     atom   16 type  1   force =     0.00000000    0.00000000    0.00000000
     atom   17 type  1   force =     0.00000000    0.00000000    0.00000000
     atom   18 type  1   force =     0.00000000    0.00000000    0.00000000
     atom   19 type  1   force =     0.00000000    0.00000000    0.00000000
     atom   20 type  1   force =     0.00000000    0.00000000    0.00000000
     atom   21 type  1   force =     0.00000000    0.00000000    0.00000000
     atom   22 type  1   force =     0.00000000    0.00000000    0.00000000
     atom   23 type  1   force =     0.00000000    0.00000000    0.00000000
     atom   24 type  1   force =     0.00000000    0.00000000    0.00000000
     atom   25 type  1   force =     0.00000000    0.00000000    0.00000000
     atom   26 type  1   force =     0.00000000    0.00000000    0.00000000
     atom   27 type  1   force =     0.00000000    0.00000000    0.00000000
     atom   28 type  1   force =     0.00000000    0.00000000    0.00000000
     atom   29 type  1   force =     0.00000000    0.00000000    0.00000000
     atom   30 type  1   force =     0.00000000    0.00000000    0.00000000
     atom   31 type  1   force =     0.00000000    0.00000000    0.00000000
     atom   32 type  1   force =     0.00000000    0.00000000    0.00000000
     atom   33 type  1   force =     0.00000000    0.00000000    0.00000000
     atom   34 type  1   force =     0.00000000    0.00000000    0.00000000
     atom   35 type  1   force =     0.00000000    0.00000000    0.00000000
     atom   36 type  1   force =     0.00000000    0.00000000    0.00000000
     atom   37 type  1   force =     0.00000000    0.00000000    0.00000000
     atom   38 type  1   force =     0.00000000    0.00000000    0.00000000
     atom   39 type  1   force =     0.00000000    0.00000000    0.00000000
     atom   40 type  1   force =     0.00000000    0.00000000    0.00000000
     atom   41 type  1   force =     0.00000000    0.00000000    0.00000000
     atom   42 type  1   force =     0.00000000    0.00000000    0.00000000
     atom   43 type  1   force =     0.00000000    0.00000000    0.00000000
     atom   44 type  1   force =     0.00000000    0.00000000    0.00000000
     atom   45 type  1   force =     0.00000000    0.00000000    0.00000000
     atom   46 type  1   force =     0.00000000    0.00000000    0.00000000
     atom   47 type  1   force =     0.00000000    0.00000000    0.00000000
     atom   48 type  1   force =     0.00000000    0.00000000    0.00000000
     atom   49 type  1   force =     0.00000000    0.00000000    0.00000000
     atom   50 type  1   force =     0.00000000    0.00000000    0.00000000
     atom   51 type  1   force =     0.00000000    0.00000000    0.00000000
     atom   52 type  1   force =     0.00000000    0.00000000    0.00000000
     atom   53 type  1   force =     0.00000000    0.00000000    0.00000000
     atom   54 type  1   force =     0.00000000    0.00000000    0.00000000
     atom   55 type  1   force =     0.00000000    0.00000000    0.00000000
     atom   56 type  1   force =     0.00000000    0.00000000    0.00000000
     atom   57 type  1   force =     0.00000000    0.00000000    0.00000000
     atom   58 type  1   force =     0.00000000    0.00000000    0.00000000
     atom   59 type  1   force =     0.00000000    0.00000000    0.00000000
     atom   60 type  1   force =     0.00000000    0.00000000    0.00000000
     atom   61 type  1   force =     0.00000000    0.00000000    0.00000000
     atom   62 type  1   force =     0.00000000    0.00000000    0.00000000
     atom   63 type  1   force =     0.00000000    0.00000000    0.00000000
     atom   64 type  1   force =     0.00000000    0.00000000    0.00000000
     atom   65 type  1   force =     0.00000000    0.00000000    0.00000000
     atom   66 type  1   force =     0.00000000    0.00000000    0.00000000
     atom   67 type  1   force =     0.00000000    0.00000000    0.00000000
     atom   68 type  1   force =     0.00000000    0.00000000    0.00000000
     atom   69 type  1   force =     0.00000000    0.00000000    0.00000000
     atom   70 type  1   force =     0.00000000    0.00000000    0.00000000
     atom   71 type  1   force =     0.00000000    0.00000000    0.00000000
     atom   72 type  1   force =     0.00000000    0.00000000    0.00000000
     atom   73 type  1   force =     0.00000000    0.00000000    0.00000000
     atom   74 type  1   force =     0.00000000    0.00000000    0.00000000
     atom   75 type  1   force =     0.00000000    0.00000000    0.00000000
     atom   76 type  1   force =     0.00000000    0.00000000    0.00000000
     atom   77 type  1   force =     0.00000000    0.00000000    0.00000000
     atom   78 type  1   force =     0.00000000    0.00000000    0.00000000
     atom   79 type  1   force =     0.00000000    0.00000000    0.00000000
     atom   80 type  1   force =     0.00000000    0.00000000    0.00000000
     atom   81 type  1   force =     0.00000000    0.00000000    0.00000000
     atom   82 type  1   force =     0.00000000    0.00000000    0.00000000
     atom   83 type  1   force =     0.00000000    0.00000000    0.00000000
     atom   84 type  1   force =     0.00000000    0.00000000    0.00000000
     atom   85 type  1   force =     0.00000000    0.00000000    0.00000000
     atom   86 type  1   force =     0.00000000    0.00000000    0.00000000
     atom   87 type  1   force =     0.00000000    0.00000000    0.00000000
     atom   88 type  1   force =     0.00000000    0.00000000    0.00000000
     atom   89 type  1   force =     0.00000000    0.00000000    0.00000000
     atom   90 type  1   force =     0.00000000    0.00000000    0.00000000
     atom   91 type  1   force =     0.00000000    0.00000000    0.00000000
     atom   92 type  1   force =     0.00000000    0.00000000    0.00000000
     atom   93 type  1   force =     0.00000000    0.00000000    0.00000000
     atom   94 type  1   force =     0.00000000    0.00000000    0.00000000
     atom   95 type  1   force =     0.00000000    0.00000000    0.00000000
     atom   96 type  1   force =     0.00000000    0.00000000    0.00000000
     atom   97 type  1   force =     0.00000000    0.00000000    0.00000000
     atom   98 type  1   force =     0.00000000    0.00000000    0.00000000
     atom   99 type  1   force =     0.00000000    0.00000000    0.00000000
     atom  100 type  2   force =     0.00000000    0.00000000    0.00000000
     atom  101 type  2   force =     0.00000000    0.00000000    0.00000000
     atom  102 type  2   force =     0.00000000    0.00000000    0.00000000
     atom  103 type  2   force =     0.00000000    0.00000000    0.00000000
     atom  104 type  2   force =     0.00000000    0.00000000    0.00000000
     atom  105 type  2   force =     0.00000000    0.00000000    0.00000000
     atom  106 type  2   force =     0.00000000    0.00000000    0.00000000
     atom  107 type  2   force =     0.00000000    0.00000000    0.00000000
     atom  108 type  2   force =     0.00000000    0.00000000    0.00000000
     atom  109 type  2   force =     0.00000000    0.00000000    0.00000000
     atom  110 type  2   force =     0.00000000    0.00000000    0.00000000
     atom  111 type  2   force =     0.00000000    0.00000000    0.00000000
     atom  112 type  2   force =     0.00000000    0.00000000    0.00000000
     atom  113 type  2   force =     0.00000000    0.00000000    0.00000000
     atom  114 type  2   force =     0.00000000    0.00000000    0.00000000
     atom  115 type  2   force =     0.00000000    0.00000000    0.00000000
     atom  116 type  2   force =     0.00000000    0.00000000    0.00000000
     atom  117 type  2   force =     0.00000000    0.00000000    0.00000000
     atom  118 type  2   force =     0.00000000    0.00000000    0.00000000
     atom  119 type  2   force =     0.00000000    0.00000000    0.00000000
     atom  120 type  2   force =     0.00000000    0.00000000    0.00000000
     atom  121 type  2   force =     0.00000000    0.00000000    0.00000000
     atom  122 type  2   force =     0.00000000    0.00000000    0.00000000
     atom  123 type  2   force =     0.00000000    0.00000000    0.00000000
     atom  124 type  2   force =     0.00000000    0.00000000    0.00000000
     atom  125 type  2   force =     0.00000000    0.00000000    0.00000000
     atom  126 type  2   force =     0.00000000    0.00000000    0.00000000
     atom  127 type  2   force =     0.00000000    0.00000000    0.00000000
     atom  128 type  2   force =     0.00000000    0.00000000    0.00000000
     atom  129 type  2   force =     0.00000000    0.00000000    0.00000000
     atom  130 type  2   force =     0.00000000    0.00000000    0.00000000
     atom  131 type  2   force =     0.00000000    0.00000000    0.00000000
     atom  132 type  2   force =     0.00000000    0.00000000    0.00000000
     atom  133 type  2   force =     0.00000000    0.00000000    0.00000000
     atom  134 type  2   force =     0.00000000    0.00000000    0.00000000
     atom  135 type  2   force =     0.00000000    0.00000000    0.00000000
     atom  136 type  2   force =     0.00000000    0.00000000    0.00000000
     atom  137 type  2   force =     0.00000000    0.00000000    0.00000000
     atom  138 type  2   force =     0.00000000    0.00000000    0.00000000
     atom  139 type  2   force =     0.00000000    0.00000000    0.00000000
     atom  140 type  2   force =     0.00000000    0.00000000    0.00000000
     atom  141 type  2   force =     0.00000000    0.00000000    0.00000000
     atom  142 type  2   force =     0.00000000    0.00000000    0.00000000
     atom  143 type  2   force =     0.00000000    0.00000000    0.00000000
     atom  144 type  2   force =     0.00000000    0.00000000    0.00000000
     atom  145 type  2   force =     0.00000000    0.00000000    0.00000000
     atom  146 type  2   force =     0.00000000    0.00000000    0.00000000
     atom  147 type  2   force =     0.00000000    0.00000000    0.00000000
     atom  148 type  2   force =     0.00000000    0.00000000    0.00000000
     atom  149 type  2   force =     0.00000000    0.00000000    0.00000000
     atom  150 type  2   force =     0.00000000    0.00000000    0.00000000
     atom  151 type  2   force =     0.00000000    0.00000000    0.00000000
     atom  152 type  2   force =     0.00000000    0.00000000    0.00000000
     atom  153 type  2   force =     0.00000000    0.00000000    0.00000000
     atom  154 type  2   force =     0.00000000    0.00000000    0.00000000
     atom  155 type  2   force =     0.00000000    0.00000000    0.00000000
     atom  156 type  2   force =     0.00000000    0.00000000    0.00000000
     atom  157 type  2   force =     0.00000000    0.00000000    0.00000000
     atom  158 type  2   force =     0.00000000    0.00000000    0.00000000
     atom  159 type  2   force =     0.00000000    0.00000000    0.00000000
     atom  160 type  2   force =     0.00000000    0.00000000    0.00000000
     atom  161 type  2   force =     0.00000000    0.00000000    0.00000000
     atom  162 type  2   force =     0.00000000    0.00000000    0.00000000
     atom  163 type  2   force =     0.00000000    0.00000000    0.00000000
     atom  164 type  2   force =     0.00000000    0.00000000    0.00000000
     atom  165 type  2   force =     0.00000000    0.00000000    0.00000000
     atom  166 type  2   force =     0.00000000    0.00000000    0.00000000
     atom  167 type  2   force =     0.00000000    0.00000000    0.00000000
     atom  168 type  2   force =     0.00000000    0.00000000    0.00000000
     atom  169 type  2   force =     0.00000000    0.00000000    0.00000000
     atom  170 type  2   force =     0.00000000    0.00000000    0.00000000
     atom  171 type  2   force =     0.00000000    0.00000000    0.00000000
     atom  172 type  2   force =     0.00000000    0.00000000    0.00000000
     atom  173 type  2   force =     0.00000000    0.00000000    0.00000000
     atom  174 type  2   force =     0.00000000    0.00000000    0.00000000
     atom  175 type  2   force =     0.00000000    0.00000000    0.00000000
     atom  176 type  2   force =     0.00000000    0.00000000    0.00000000
     atom  177 type  2   force =     0.00000000    0.00000000    0.00000000
     atom  178 type  2   force =     0.00000000    0.00000000    0.00000000
     atom  179 type  2   force =     0.00000000    0.00000000    0.00000000
     atom  180 type  2   force =     0.00000000    0.00000000    0.00000000
     atom  181 type  2   force =     0.00000000    0.00000000    0.00000000
     atom  182 type  2   force =     0.00000000    0.00000000    0.00000000
     atom  183 type  2   force =     0.00000000    0.00000000    0.00000000
     atom  184 type  2   force =     0.00000000    0.00000000    0.00000000
     atom  185 type  2   force =     0.00000000    0.00000000    0.00000000
     atom  186 type  2   force =     0.00000000    0.00000000    0.00000000
     atom  187 type  2   force =     0.00000000    0.00000000    0.00000000
     atom  188 type  2   force =     0.00000000    0.00000000    0.00000000
     atom  189 type  2   force =     0.00000000    0.00000000    0.00000000
     atom  190 type  2   force =     0.00000000    0.00000000    0.00000000
     atom  191 type  2   force =     0.00000000    0.00000000    0.00000000
     atom  192 type  2   force =     0.00000000    0.00000000    0.00000000
     atom  193 type  2   force =     0.00000000    0.00000000    0.00000000
     atom  194 type  2   force =     0.00000000    0.00000000    0.00000000
     atom  195 type  2   force =     0.00000000    0.00000000    0.00000000
     atom  196 type  2   force =     0.00000000    0.00000000    0.00000000
     atom  197 type  2   force =     0.00000000    0.00000000    0.00000000
     atom  198 type  2   force =     0.00000000    0.00000000    0.00000000
     The SCF correction term to forces
     atom    1 type  1   force =     0.00000836    0.00000894    0.00000745
     atom    2 type  1   force =     0.00000986    0.00000613    0.00000958
     atom    3 type  1   force =     0.00000529   -0.00000048    0.00000978
     atom    4 type  1   force =     0.00000028   -0.00000292    0.00000718
     atom    5 type  1   force =     0.00000183    0.00000304    0.00000646
     atom    6 type  1   force =     0.00000078    0.00001166    0.00000459
     atom    7 type  1   force =     0.00000232    0.00000283    0.00000258
     atom    8 type  1   force =     0.00000701   -0.00000420    0.00000825
     atom    9 type  1   force =     0.00000345   -0.00000578    0.00000950
     atom   10 type  1   force =    -0.00000099    0.00000296    0.00000700
     atom   11 type  1   force =    -0.00000902    0.00001051    0.00000457
     atom   12 type  1   force =     0.00000045    0.00000384   -0.00000035
     atom   13 type  1   force =     0.00000227   -0.00000240    0.00000133
     atom   14 type  1   force =     0.00000224   -0.00001226    0.00000738
     atom   15 type  1   force =    -0.00000283   -0.00000386    0.00000724
     atom   16 type  1   force =    -0.00000483    0.00000377    0.00000540
     atom   17 type  1   force =    -0.00001256    0.00000514    0.00000364
     atom   18 type  1   force =    -0.00000939   -0.00000664    0.00000377
     atom   19 type  1   force =    -0.00000303   -0.00001265    0.00000590
     atom   20 type  1   force =    -0.00000011   -0.00000681    0.00000615
     atom   21 type  1   force =     0.00000427    0.00000344    0.00000744
     atom   22 type  1   force =     0.00000046    0.00000557    0.00000702
     atom   23 type  1   force =    -0.00000496   -0.00000007    0.00000637
     atom   24 type  1   force =    -0.00000277   -0.00000641    0.00000566
     atom   25 type  1   force =     0.00000195   -0.00000316    0.00000609
     atom   26 type  1   force =    -0.00000013    0.00000666   -0.00000603
     atom   27 type  1   force =     0.00000134    0.00000508   -0.00000832
     atom   28 type  1   force =     0.00000567    0.00000030   -0.00000977
     atom   29 type  1   force =     0.00000441   -0.00000493   -0.00000873
     atom   30 type  1   force =    -0.00000033   -0.00000084   -0.00000690
     atom   31 type  1   force =    -0.00000177    0.00000531   -0.00000491
     atom   32 type  1   force =    -0.00000108    0.00000597    0.00000314
     atom   33 type  1   force =     0.00000061    0.00000253    0.00000161
     atom   34 type  1   force =     0.00000453   -0.00000633   -0.00000824
     atom   35 type  1   force =     0.00000190   -0.00000487   -0.00000757
     atom   36 type  1   force =    -0.00000402    0.00000124   -0.00000576
     atom   37 type  1   force =    -0.00000433    0.00000649   -0.00000383
     atom   38 type  1   force =    -0.00000152    0.00000315    0.00000037
     atom   39 type  1   force =    -0.00000011   -0.00000553   -0.00000636
     atom   40 type  1   force =     0.00000077   -0.00001061   -0.00000728
     atom   41 type  1   force =     0.00000201   -0.00000120   -0.00000642
     atom   42 type  1   force =    -0.00000299    0.00000596   -0.00000599
     atom   43 type  1   force =    -0.00000688    0.00000205   -0.00000439
     atom   44 type  1   force =    -0.00000578   -0.00000632   -0.00000537
     atom   45 type  1   force =    -0.00000076   -0.00000876   -0.00000620
     atom   46 type  1   force =     0.00000382    0.00000373   -0.00000802
     atom   47 type  1   force =     0.00000709    0.00000613   -0.00000915
     atom   48 type  1   force =     0.00000244    0.00000198   -0.00000757
     atom   49 type  1   force =    -0.00000306   -0.00000382   -0.00000589
     atom   50 type  1   force =    -0.00000170   -0.00000294   -0.00000596
     atom   51 type  1   force =     0.00000261    0.00000234   -0.00000621
     atom   52 type  1   force =     0.00000737    0.00000563   -0.00000774
     atom   53 type  1   force =     0.00000505    0.00000340   -0.00000744
     atom   54 type  1   force =    -0.00000105   -0.00000134   -0.00000622
     atom   55 type  1   force =    -0.00000193   -0.00000315   -0.00000557
     atom   56 type  1   force =    -0.00000012    0.00000579   -0.00000367
     atom   57 type  1   force =     0.00000524    0.00000987   -0.00000228
     atom   58 type  1   force =     0.00000915    0.00000240   -0.00000424
     atom   59 type  1   force =     0.00000562   -0.00000330   -0.00000704
     atom   60 type  1   force =     0.00000072   -0.00000262   -0.00000543
     atom   61 type  1   force =    -0.00000323    0.00000339   -0.00000497
     atom   62 type  1   force =    -0.00000384    0.00001144    0.00000026
     atom   63 type  1   force =     0.00000183    0.00000186    0.00000014
     atom   64 type  1   force =     0.00000489   -0.00000660   -0.00000478
     atom   65 type  1   force =     0.00000323   -0.00000833   -0.00000749
     atom   66 type  1   force =    -0.00000144   -0.00000333   -0.00000704
     atom   67 type  1   force =    -0.00000895    0.00000744   -0.00000356
     atom   68 type  1   force =    -0.00000955    0.00000262   -0.00000056
     atom   69 type  1   force =    -0.00000335   -0.00000868   -0.00000398
     atom   70 type  1   force =    -0.00000018   -0.00001167   -0.00000804
     atom   71 type  1   force =     0.00000230   -0.00000318   -0.00000825
     atom   72 type  1   force =     0.00000029    0.00000430   -0.00000722
     atom   73 type  1   force =    -0.00000676    0.00000409   -0.00000560
     atom   74 type  1   force =    -0.00000632   -0.00000398   -0.00000575
     atom   75 type  1   force =    -0.00000181   -0.00000823   -0.00000744
     atom   76 type  1   force =     0.00000194    0.00000487    0.00000656
     atom   77 type  1   force =     0.00000817    0.00000850    0.00000901
     atom   78 type  1   force =     0.00000869    0.00000359    0.00000796
     atom   79 type  1   force =     0.00000291   -0.00000257    0.00000589
     atom   80 type  1   force =    -0.00000083   -0.00000248    0.00000543
     atom   81 type  1   force =    -0.00000009    0.00000492    0.00000324
     atom   82 type  1   force =    -0.00000415    0.00000463    0.00000083
     atom   83 type  1   force =    -0.00000267   -0.00000002    0.00000279
     atom   84 type  1   force =     0.00000581   -0.00000479    0.00000672
     atom   85 type  1   force =     0.00000289   -0.00000412    0.00000526
     atom   86 type  1   force =    -0.00000293    0.00000113    0.00000424
     atom   87 type  1   force =     0.00000152    0.00000489   -0.00000151
     atom   88 type  1   force =     0.00000082    0.00000159    0.00000368
     atom   89 type  1   force =     0.00000233   -0.00000964    0.00000685
     atom   90 type  1   force =    -0.00000167   -0.00000466    0.00000727
     atom   91 type  1   force =    -0.00000817    0.00000654    0.00000475
     atom   92 type  1   force =    -0.00000387    0.00000237    0.00000098
     atom   93 type  1   force =    -0.00000262   -0.00000257    0.00000461
     atom   94 type  1   force =    -0.00000155   -0.00001217    0.00000866
     atom   95 type  1   force =     0.00000284   -0.00000189    0.00000819
     atom   96 type  1   force =     0.00000273    0.00000519    0.00000755
     atom   97 type  1   force =    -0.00000408    0.00000415    0.00000569
     atom   98 type  1   force =    -0.00000647   -0.00000400    0.00000550
     atom   99 type  1   force =    -0.00000294   -0.00000811    0.00000748
     atom  100 type  2   force =     0.00000763    0.00000851   -0.00000372
     atom  101 type  2   force =     0.00000931    0.00000592   -0.00000419
     atom  102 type  2   force =     0.00000470   -0.00000120   -0.00000396
     atom  103 type  2   force =    -0.00000111   -0.00000341   -0.00000340
     atom  104 type  2   force =     0.00000102    0.00000258   -0.00000322
     atom  105 type  2   force =     0.00000120    0.00001493    0.00000117
     atom  106 type  2   force =     0.00000942    0.00000643    0.00000047
     atom  107 type  2   force =     0.00001107   -0.00000487   -0.00000129
     atom  108 type  2   force =     0.00000481   -0.00000652   -0.00000358
     atom  109 type  2   force =    -0.00000131    0.00000376   -0.00000169
     atom  110 type  2   force =    -0.00000830    0.00001175   -0.00000104
     atom  111 type  2   force =    -0.00000501    0.00000717    0.00000264
     atom  112 type  2   force =     0.00000281   -0.00000855    0.00000072
     atom  113 type  2   force =     0.00000341   -0.00001282   -0.00000589
     atom  114 type  2   force =    -0.00000142   -0.00000337   -0.00000453
     atom  115 type  2   force =    -0.00000500    0.00000365   -0.00000492
     atom  116 type  2   force =    -0.00001244    0.00000613   -0.00000158
     atom  117 type  2   force =    -0.00001052   -0.00000735   -0.00000186
     atom  118 type  2   force =    -0.00000270   -0.00001300   -0.00000622
     atom  119 type  2   force =    -0.00000032   -0.00000786   -0.00000644
     atom  120 type  2   force =     0.00000434    0.00000303   -0.00000655
     atom  121 type  2   force =    -0.00000033    0.00000535   -0.00000520
     atom  122 type  2   force =    -0.00000710   -0.00000049   -0.00000409
     atom  123 type  2   force =    -0.00000415   -0.00000767   -0.00000482
     atom  124 type  2   force =     0.00000169   -0.00000415   -0.00000616
     atom  125 type  2   force =    -0.00000051    0.00000842    0.00000236
     atom  126 type  2   force =    -0.00000239    0.00000530    0.00000453
     atom  127 type  2   force =     0.00000719    0.00000046    0.00000441
     atom  128 type  2   force =     0.00000604   -0.00000605    0.00000385
     atom  129 type  2   force =     0.00000073   -0.00000074    0.00000331
     atom  130 type  2   force =    -0.00000269    0.00000562    0.00000097
     atom  131 type  2   force =    -0.00000176    0.00000840   -0.00000226
     atom  132 type  2   force =     0.00000282    0.00000007   -0.00000196
     atom  133 type  2   force =     0.00000394   -0.00000870    0.00000452
     atom  134 type  2   force =     0.00000124   -0.00000619    0.00000388
     atom  135 type  2   force =    -0.00000587    0.00000192    0.00000444
     atom  136 type  2   force =    -0.00000310    0.00000595    0.00000106
     atom  137 type  2   force =    -0.00000410    0.00000261   -0.00000093
     atom  138 type  2   force =    -0.00000176   -0.00000471    0.00000600
     atom  139 type  2   force =    -0.00000026   -0.00001348    0.00000672
     atom  140 type  2   force =     0.00000238   -0.00000044    0.00000714
     atom  141 type  2   force =    -0.00000343    0.00000711    0.00000512
     atom  142 type  2   force =    -0.00000830    0.00000240    0.00000284
     atom  143 type  2   force =    -0.00000680   -0.00000791    0.00000509
     atom  144 type  2   force =    -0.00000081   -0.00001016    0.00000650
     atom  145 type  2   force =     0.00000628    0.00000590    0.00000666
     atom  146 type  2   force =     0.00001038    0.00000876    0.00000689
     atom  147 type  2   force =     0.00000461    0.00000311    0.00000571
     atom  148 type  2   force =    -0.00000249   -0.00000406    0.00000471
     atom  149 type  2   force =    -0.00000098   -0.00000278    0.00000560
     atom  150 type  2   force =     0.00000093    0.00000288   -0.00000955
     atom  151 type  2   force =     0.00000754    0.00000746   -0.00001279
     atom  152 type  2   force =     0.00000702    0.00000354   -0.00001311
     atom  153 type  2   force =     0.00000116   -0.00000316   -0.00001047
     atom  154 type  2   force =    -0.00000256   -0.00000277   -0.00000839
     atom  155 type  2   force =    -0.00000119    0.00000602   -0.00000817
     atom  156 type  2   force =     0.00000042    0.00000699   -0.00000615
     atom  157 type  2   force =     0.00000279    0.00000416   -0.00000992
     atom  158 type  2   force =     0.00000695   -0.00000474   -0.00001360
     atom  159 type  2   force =     0.00000295   -0.00000447   -0.00001094
     atom  160 type  2   force =    -0.00000171    0.00000154   -0.00000787
     atom  161 type  2   force =    -0.00000323    0.00000790   -0.00000227
     atom  162 type  2   force =     0.00000016    0.00000408    0.00000209
     atom  163 type  2   force =     0.00000086   -0.00000410   -0.00000885
     atom  164 type  2   force =     0.00000436   -0.00000991   -0.00001127
     atom  165 type  2   force =    -0.00000020   -0.00000511   -0.00000910
     atom  166 type  2   force =    -0.00000771    0.00000657   -0.00000726
     atom  167 type  2   force =    -0.00000585    0.00000526   -0.00000381
     atom  168 type  2   force =    -0.00000228   -0.00000400   -0.00000717
     atom  169 type  2   force =    -0.00000073   -0.00001272   -0.00001031
     atom  170 type  2   force =     0.00000241   -0.00000259   -0.00000999
     atom  171 type  2   force =     0.00000262    0.00000476   -0.00001003
     atom  172 type  2   force =    -0.00000463    0.00000458   -0.00000788
     atom  173 type  2   force =    -0.00000722   -0.00000397   -0.00000695
     atom  174 type  2   force =    -0.00000344   -0.00000857   -0.00000846
     atom  175 type  2   force =     0.00000496    0.00000440    0.00001064
     atom  176 type  2   force =     0.00001000    0.00000886    0.00001357
     atom  177 type  2   force =     0.00000860    0.00000529    0.00001335
     atom  178 type  2   force =     0.00000096   -0.00000200    0.00001122
     atom  179 type  2   force =    -0.00000085   -0.00000324    0.00000943
     atom  180 type  2   force =     0.00000035    0.00000719    0.00000895
     atom  181 type  2   force =     0.00000435    0.00001002    0.00000394
     atom  182 type  2   force =     0.00000819    0.00000180    0.00000804
     atom  183 type  2   force =     0.00000601   -0.00000495    0.00001430
     atom  184 type  2   force =     0.00000228   -0.00000334    0.00001114
     atom  185 type  2   force =    -0.00000475    0.00000223    0.00000967
     atom  186 type  2   force =    -0.00000231    0.00001012    0.00000056
     atom  187 type  2   force =     0.00000351   -0.00000597    0.00000729
     atom  188 type  2   force =     0.00000033   -0.00000966    0.00001303
     atom  189 type  2   force =    -0.00000277   -0.00000426    0.00000941
     atom  190 type  2   force =    -0.00001123    0.00000880    0.00000724
     atom  191 type  2   force =    -0.00001233    0.00000108    0.00000078
     atom  192 type  2   force =    -0.00000534   -0.00001076    0.00000383
     atom  193 type  2   force =    -0.00000075   -0.00001469    0.00001145
     atom  194 type  2   force =     0.00000243   -0.00000259    0.00001076
     atom  195 type  2   force =     0.00000118    0.00000534    0.00001054
     atom  196 type  2   force =    -0.00000612    0.00000550    0.00000931
     atom  197 type  2   force =    -0.00000532   -0.00000468    0.00000888
     atom  198 type  2   force =    -0.00000139   -0.00000915    0.00000995

     Total force =     0.064754     Total SCF correction =     0.000146

     Writing all to output data dir ./pwscf.save/
 
     init_run     :      3.98s CPU      4.16s WALL (       1 calls)
     electrons    :    199.88s CPU    203.00s WALL (       1 calls)
     forces       :      3.09s CPU      3.18s WALL (       1 calls)

     Called by init_run:
     wfcinit      :      1.76s CPU      1.88s WALL (       1 calls)
     wfcinit:wfcr :      1.51s CPU      1.57s WALL (       1 calls)
     potinit      :      0.70s CPU      0.74s WALL (       1 calls)
     hinit0       :      1.29s CPU      1.31s WALL (       1 calls)

     Called by electrons:
     c_bands      :    177.12s CPU    179.60s WALL (      18 calls)
     sum_band     :     12.74s CPU     12.88s WALL (      18 calls)
     v_of_rho     :      8.03s CPU      8.38s WALL (      19 calls)
     v_h          :      0.47s CPU      0.48s WALL (      19 calls)
     v_xc         :      7.56s CPU      7.90s WALL (      19 calls)
     mix_rho      :      1.58s CPU      1.66s WALL (      18 calls)

     Called by c_bands:
     init_us_2    :      2.67s CPU      2.75s WALL (      37 calls)
     init_us_2:cp :      2.67s CPU      2.75s WALL (      37 calls)
     regterg      :    166.90s CPU    169.32s WALL (      18 calls)

     Called by sum_band:
     sum_band:wei :      0.01s CPU      0.01s WALL (      18 calls)
     sum_band:loo :     11.23s CPU     11.32s WALL (      18 calls)
     sum_band:buf :      0.00s CPU      0.00s WALL (      18 calls)
     sum_band:ini :      1.30s CPU      1.32s WALL (      18 calls)

     Called by *egterg:
     rdiaghg      :     11.62s CPU     11.85s WALL (     308 calls)
     regterg:over :     23.11s CPU     23.21s WALL (     290 calls)
     regterg:upda :     17.18s CPU     17.56s WALL (     290 calls)
     regterg:last :     23.96s CPU     24.07s WALL (      55 calls)
     rdiaghg:chol :      0.76s CPU      0.77s WALL (     308 calls)
     rdiaghg:inve :      0.60s CPU      0.60s WALL (     308 calls)
     rdiaghg:para :      1.93s CPU      1.98s WALL (     616 calls)
     h_psi        :     82.18s CPU     82.84s WALL (     309 calls)
     g_psi        :      0.81s CPU      0.82s WALL (     290 calls)

     Called by h_psi:
     h_psi:calbec :     16.44s CPU     16.56s WALL (     309 calls)
     vloc_psi     :     49.30s CPU     49.76s WALL (     309 calls)
     add_vuspsi   :     16.06s CPU     16.15s WALL (     309 calls)

     General routines
     calbec       :     18.33s CPU     18.46s WALL (     313 calls)
     fft          :      3.24s CPU      3.30s WALL (     248 calls)
     ffts         :      0.22s CPU      0.23s WALL (      18 calls)
     fftw         :     38.73s CPU     39.06s WALL (    7234 calls)
 
     Parallel routines
 
     PWSCF        :   3m27.41s CPU   3m48.33s WALL

 
   This run was terminated on:   4: 3:38   2Sep2023            

=------------------------------------------------------------------------------=
   JOB DONE.
=------------------------------------------------------------------------------=
