
     Program PWSCF v.6.1 (svn rev. 13369) starts on  4May2023 at  7:57:31 

     This program is part of the open-source Quantum ESPRESSO suite
     for quantum simulation of materials; please cite
         "P. Giannozzi et al., J. Phys.:Condens. Matter 21 395502 (2009);
          URL http://www.quantum-espresso.org", 
     in publications or presentations arising from this work. More details at
     http://www.quantum-espresso.org/quote

     Parallel version (MPI), running on   120 processors
     R & G space division:  proc/nbgrp/npool/nimage =     120
     Waiting for input...
     Reading input from standard input
Warning: card &IONS ignored
Warning: card     ION_DYNAMICS='BFGS' ignored
Warning: card     ION_POSITIONS='DEFAULT' ignored
Warning: card / ignored
Warning: card MG            0.1250215839        0.1250215839        0.1250215837 ignored
Warning: card MG            0.1249993670        0.1249993670        0.3750006330 ignored
Warning: card MG            0.1250215838        0.1250215838        0.6249352485 ignored
Warning: card MG            0.1249692922        0.1249692922        0.8750307078 ignored
Warning: card MG            0.1249993671        0.3750006330        0.1249993669 ignored
Warning: card MG            0.1249993670        0.3750006330        0.3750006330 ignored
Warning: card MG            0.1247755339        0.3749589304        0.6250410695 ignored
Warning: card MG            0.1247755339        0.3749589305        0.8752244661 ignored
Warning: card MG            0.1250215839        0.6249352486        0.1250215837 ignored
Warning: card MG            0.1247755339        0.6250410695        0.3749589304 ignored
Warning: card MG            0.1251125084        0.6249624972        0.6249624973 ignored
Warning: card MG            0.1247755339        0.6250410695        0.8752244661 ignored
Warning: card MG            0.1249692922        0.8750307078        0.1249692922 ignored
Warning: card MG            0.1247755340        0.8752244661        0.3749589304 ignored
Warning: card MG            0.1247755339        0.8752244660        0.6250410696 ignored
Warning: card MG            0.1249692922        0.8750307078        0.8750307078 ignored
Warning: card MG            0.3750006330        0.1249993671        0.1249993669 ignored
Warning: card MG            0.3750006330        0.1249993670        0.3750006330 ignored
Warning: card MG            0.3749589304        0.1247755339        0.6250410695 ignored
Warning: card MG            0.3749589305        0.1247755339        0.8752244661 ignored
Warning: card MG            0.3750006330        0.3750006330        0.1249993669 ignored
Warning: card MG            0.3750375028        0.3750375028        0.3750375027 ignored
Warning: card MG            0.3740016532        0.3740016532        0.6259983469 ignored
Warning: card MG            0.3750375027        0.3750375027        0.8748874918 ignored
Warning: card MG            0.3749589305        0.6250410695        0.1247755339 ignored
Warning: card MG            0.3740016534        0.6259983467        0.3740016529 ignored
Warning: card MG            0.3740016533        0.6259983466        0.6259983471 ignored
Warning: card MG            0.3749589305        0.6250410695        0.8752244661 ignored
Warning: card MG            0.3749589305        0.8752244661        0.1247755339 ignored
Warning: card MG            0.3750375028        0.8748874916        0.3750375027 ignored
Warning: card MG            0.3749589305        0.8752244661        0.6250410696 ignored
Warning: card MG            0.3750647514        0.8749784161        0.8749784163 ignored
Warning: card MG            0.6249352486        0.1250215839        0.1250215837 ignored
Warning: card MG            0.6250410695        0.1247755339        0.3749589304 ignored
Warning: card MG            0.6249624972        0.1251125084        0.6249624973 ignored
Warning: card MG            0.6250410695        0.1247755339        0.8752244661 ignored
Warning: card MG            0.6250410695        0.3749589305        0.1247755339 ignored
Warning: card MG            0.6259983467        0.3740016534        0.3740016529 ignored
Warning: card MG            0.6259983466        0.3740016533        0.6259983471 ignored
Warning: card MG            0.6250410695        0.3749589305        0.8752244661 ignored
Warning: card MG            0.6249624973        0.6249624973        0.1251125082 ignored
Warning: card MG            0.6259983468        0.6259983468        0.3740016531 ignored
Warning: card MG            0.6249624972        0.6249624972        0.6249624973 ignored
Warning: card MG            0.6249993670        0.6249993670        0.8750006331 ignored
Warning: card MG            0.6250410695        0.8752244661        0.1247755339 ignored
Warning: card MG            0.6250410696        0.8752244661        0.3749589305 ignored
Warning: card MG            0.6249993670        0.8750006330        0.6249993670 ignored
Warning: card MG            0.6249993670        0.8750006329        0.8750006331 ignored
Warning: card MG            0.8750307078        0.1249692922        0.1249692922 ignored
Warning: card MG            0.8752244661        0.1247755340        0.3749589304 ignored
Warning: card MG            0.8752244660        0.1247755339        0.6250410696 ignored
Warning: card MG            0.8750307078        0.1249692922        0.8750307078 ignored
Warning: card MG            0.8752244661        0.3749589305        0.1247755339 ignored
Warning: card MG            0.8748874916        0.3750375028        0.3750375027 ignored
Warning: card MG            0.8752244661        0.3749589305        0.6250410696 ignored
Warning: card MG            0.8749784161        0.3750647514        0.8749784163 ignored
Warning: card MG            0.8752244661        0.6250410695        0.1247755339 ignored
Warning: card MG            0.8752244661        0.6250410696        0.3749589305 ignored
Warning: card MG            0.8750006330        0.6249993670        0.6249993670 ignored
Warning: card MG            0.8750006329        0.6249993670        0.8750006331 ignored
Warning: card MG            0.8750307078        0.8750307078        0.1249692922 ignored
Warning: card MG            0.8749784162        0.8749784162        0.3750647515 ignored
Warning: card MG            0.8750006330        0.8750006330        0.6249993670 ignored
Warning: card MG            0.8749784161        0.8749784161        0.8749784163 ignored
Warning: card O             0.0000000000        0.0000000000        0.0000000000 ignored
Warning: card O            -0.0000000001       -0.0000000001        0.2499548617 ignored
Warning: card O             0.0000000000       -0.0000000000        0.5000000000 ignored
Warning: card O             0.0000000001        0.0000000001        0.7500451383 ignored
Warning: card O            -0.0000000000        0.2499548615        0.0000000000 ignored
Warning: card O             0.0000140481        0.2499692302        0.2499692301 ignored
Warning: card O             0.0000140478        0.2499692303        0.5000474916 ignored
Warning: card O             0.0000000001        0.2499548614        0.7500451383 ignored
Warning: card O            -0.0000000000        0.5000000000        0.0000000000 ignored
Warning: card O             0.0000140481        0.5000474917        0.2499692301 ignored
Warning: card O            -0.0000000000        0.5000000000        0.5000000000 ignored
Warning: card O            -0.0000140481        0.4999525083        0.7500307699 ignored
Warning: card O             0.0000000000        0.7500451385        0.0000000000 ignored
Warning: card O            -0.0000000001        0.7500451386        0.2499548617 ignored
Warning: card O            -0.0000140478        0.7500307697        0.4999525084 ignored
Warning: card O            -0.0000140481        0.7500307698        0.7500307699 ignored
Warning: card O             0.2499548615        0.0000000000        0.0000000000 ignored
Warning: card O             0.2499692302        0.0000140481        0.2499692301 ignored
Warning: card O             0.2499692303        0.0000140478        0.5000474916 ignored
Warning: card O             0.2499548614        0.0000000001        0.7500451383 ignored
Warning: card O             0.2499692302        0.2499692302        0.0000140480 ignored
Warning: card O             0.2500000000        0.2500000000        0.2500000000 ignored
Warning: card O             0.2499692303        0.2499692303        0.5000474915 ignored
Warning: card O             0.2499389624        0.2499389624        0.7500610376 ignored
Warning: card O             0.2499692302        0.5000474916        0.0000140480 ignored
Warning: card O             0.2499692302        0.5000474917        0.2499692301 ignored
Warning: card O             0.2493362777        0.5000000000        0.5000000000 ignored
Warning: card O             0.2493362769        0.4999999999        0.7506637232 ignored
Warning: card O             0.2499548615        0.7500451385        0.0000000000 ignored
Warning: card O             0.2499389625        0.7500610375        0.2499389624 ignored
Warning: card O             0.2493362778        0.7506637222        0.5000000000 ignored
Warning: card O             0.2499389625        0.7500610375        0.7500610376 ignored
Warning: card O             0.5000000000        0.0000000000        0.0000000000 ignored
Warning: card O             0.5000474917        0.0000140481        0.2499692301 ignored
Warning: card O             0.5000000000       -0.0000000000        0.5000000000 ignored
Warning: card O             0.4999525083       -0.0000140481        0.7500307699 ignored
Warning: card O             0.5000474916        0.2499692302        0.0000140480 ignored
Warning: card O             0.5000474917        0.2499692302        0.2499692301 ignored
Warning: card O             0.5000000000        0.2493362777        0.5000000000 ignored
Warning: card O             0.4999999999        0.2493362769        0.7506637232 ignored
Warning: card O             0.5000000000        0.5000000000        0.0000000000 ignored
Warning: card O             0.5000000000        0.5000000000        0.2493362767 ignored
Warning: card O             0.5000000000        0.5000000000        0.7506637233 ignored
Warning: card O             0.4999525084        0.7500307698       -0.0000140480 ignored
Warning: card O             0.5000000001        0.7506637231        0.2493362768 ignored
Warning: card O             0.5000000000        0.7506637223        0.5000000000 ignored
Warning: card O             0.4999525083        0.7500307698        0.7500307699 ignored
Warning: card O             0.7500451385        0.0000000000        0.0000000000 ignored
Warning: card O             0.7500451386       -0.0000000001        0.2499548617 ignored
Warning: card O             0.7500307697       -0.0000140478        0.4999525084 ignored
Warning: card O             0.7500307698       -0.0000140481        0.7500307699 ignored
Warning: card O             0.7500451385        0.2499548615        0.0000000000 ignored
Warning: card O             0.7500610375        0.2499389625        0.2499389624 ignored
Warning: card O             0.7506637222        0.2493362778        0.5000000000 ignored
Warning: card O             0.7500610375        0.2499389625        0.7500610376 ignored
Warning: card O             0.7500307698        0.4999525084       -0.0000140480 ignored
Warning: card O             0.7506637231        0.5000000001        0.2493362768 ignored
Warning: card O             0.7506637223        0.5000000000        0.5000000000 ignored
Warning: card O             0.7500307698        0.4999525083        0.7500307699 ignored
Warning: card O             0.7500307698        0.7500307698       -0.0000140480 ignored
Warning: card O             0.7500610376        0.7500610376        0.2499389624 ignored
Warning: card O             0.7500307697        0.7500307697        0.4999525085 ignored
Warning: card O             0.7500000000        0.7500000000        0.7500000000 ignored

     Current dimensions of program PWSCF are:
     Max number of different atomic species (ntypx) = 10
     Max number of k-points (npk) =  40000
     Max angular momentum in pseudopotentials (lmaxx) =  3

     IMPORTANT: XC functional enforced from input :
     Exchange-correlation      = PBE0 ( 6  4  8  4 0 0)
     EXX-fraction              =        0.25
     Any further DFT definition will be discarded
     Please, verify this is what you really want

     EXX fraction changed:   0.36

     gamma-point specific algorithms are used

     Subspace diagonalization in iterative solution of the eigenvalue problem:
     a serial algorithm will be used

EXX: grid of k+q points same as grid of k-points
 
     Parallelization info
     --------------------
     sticks:   dense  smooth     PW     G-vecs:    dense   smooth      PW
     Min          68      68     16                 4146     4146     512
     Max          70      70     18                 4162     4162     530
     Sum        8293    8293   2077               498319   498319   62487
 


     bravais-lattice index     =            0
     lattice parameter (alat)  =      22.3954  a.u.
     unit-cell volume          =    7942.5266 (a.u.)^3
     number of atoms/cell      =          127
     number of atomic types    =            2
     number of electrons       =      1018.00
     number of Kohn-Sham states=          520
     kinetic-energy cutoff     =      60.0000  Ry
     charge density cutoff     =     240.0000  Ry
     cutoff for Fock operator  =     120.0000  Ry
     convergence threshold     =      1.0E-08
     mixing beta               =       0.7000
     number of iterations used =            8  plain     mixing
     Exchange-correlation      = PBE0 ( 6  4  8  4 0 0)
     EXX-fraction              =        0.36

     celldm(1)=  22.395351  celldm(2)=   0.000000  celldm(3)=   0.000000
     celldm(4)=   0.000000  celldm(5)=   0.000000  celldm(6)=   0.000000

     crystal axes: (cart. coord. in units of alat)
               a(1) = (   1.000000   0.000000   0.000000 )  
               a(2) = (   0.500000   0.866025   0.000000 )  
               a(3) = (   0.500000   0.288675   0.816497 )  

     reciprocal axes: (cart. coord. in units 2 pi/alat)
               b(1) = (  1.000000 -0.577350 -0.408248 )  
               b(2) = (  0.000000  1.154700 -0.408248 )  
               b(3) = (  0.000000  0.000000  1.224745 )  


     PseudoPot. # 1 for Mg read from file:
     /home/jinyuchem/program/QE/pseudo-potential/Mg_ONCV_PBE-1.0.upf
     MD5 check sum: 17b1391fa68439aabf384d02b0276f1b
     Pseudo is Norm-conserving, Zval = 10.0
     Generated using ONCVPSP code by D. R. Hamann
     Using radial grid of  602 points,  4 beta functions with: 
                l(1) =   0
                l(2) =   0
                l(3) =   1
                l(4) =   1

     PseudoPot. # 2 for O  read from file:
     /home/jinyuchem/program/QE/pseudo-potential/O_ONCV_PBE-1.0.upf
     MD5 check sum: 80a85145cbbb6f60b39549a50e3ff56c
     Pseudo is Norm-conserving, Zval =  6.0
     Generated using ONCVPSP code by D. R. Hamann
     Using radial grid of  602 points,  4 beta functions with: 
                l(1) =   0
                l(2) =   0
                l(3) =   1
                l(4) =   1

     atomic species   valence    mass     pseudopotential
        Mg            10.00    24.30500     Mg( 1.00)
        O              6.00    15.99900     O ( 1.00)

     12 Sym. Ops., with inversion, found


                                    s                        frac. trans.

      isym =  1     identity                                     

 cryst.   s( 1) = (     1          0          0      )
                  (     0          1          0      )
                  (     0          0          1      )

 cart.    s( 1) = (  1.0000000 -0.0000000  0.0000000 )
                  (  0.0000000  1.0000000  0.0000000 )
                  (  0.0000000  0.0000000  1.0000000 )


      isym =  2     180 deg rotation - cart. axis [1,0,0]        

 cryst.   s( 2) = (     1          0          0      )
                  (     1         -1          0      )
                  (     1          0         -1      )

 cart.    s( 2) = (  1.0000000  0.0000001  0.0000001 )
                  (  0.0000000 -1.0000000 -0.0000000 )
                  (  0.0000000  0.0000000 -1.0000000 )


      isym =  3     120 deg rotation - cryst. axis [0,0,1]       

 cryst.   s( 3) = (    -1          1          0      )
                  (    -1          0          0      )
                  (    -1          0          1      )

 cart.    s( 3) = ( -0.5000001 -0.8660254 -0.0000001 )
                  (  0.8660254 -0.4999999  0.0000000 )
                  (  0.0000000  0.0000000  1.0000000 )


      isym =  4     120 deg rotation - cryst. axis [0,0,-1]      

 cryst.   s( 4) = (     0         -1          0      )
                  (     1         -1          0      )
                  (     0         -1          1      )

 cart.    s( 4) = ( -0.4999999  0.8660254 -0.0000000 )
                  ( -0.8660254 -0.5000001 -0.0000001 )
                  (  0.0000000  0.0000000  1.0000000 )


      isym =  5     180 deg rotation - cryst. axis [0,1,0]       

 cryst.   s( 5) = (     0         -1          0      )
                  (    -1          0          0      )
                  (     0          0         -1      )

 cart.    s( 5) = ( -0.4999999 -0.8660254  0.0000000 )
                  ( -0.8660254  0.4999999 -0.0000000 )
                  (  0.0000000  0.0000000 -1.0000000 )


      isym =  6     180 deg rotation - cryst. axis [1,1,0]       

 cryst.   s( 6) = (    -1          1          0      )
                  (     0          1          0      )
                  (     0          1         -1      )

 cart.    s( 6) = ( -0.5000001  0.8660253  0.0000000 )
                  (  0.8660254  0.5000001  0.0000001 )
                  (  0.0000000  0.0000000 -1.0000000 )


      isym =  7     inversion                                    

 cryst.   s( 7) = (    -1          0          0      )
                  (     0         -1          0      )
                  (     0          0         -1      )

 cart.    s( 7) = ( -1.0000000  0.0000000  0.0000000 )
                  (  0.0000000 -1.0000000 -0.0000000 )
                  (  0.0000000  0.0000000 -1.0000000 )


      isym =  8     inv. 180 deg rotation - cart. axis [1,0,0]   

 cryst.   s( 8) = (    -1          0          0      )
                  (    -1          1          0      )
                  (    -1          0          1      )

 cart.    s( 8) = ( -1.0000000 -0.0000001 -0.0000001 )
                  (  0.0000000  1.0000000  0.0000000 )
                  (  0.0000000  0.0000000  1.0000000 )


      isym =  9     inv. 120 deg rotation - cryst. axis [0,0,1]  

 cryst.   s( 9) = (     1         -1          0      )
                  (     1          0          0      )
                  (     1          0         -1      )

 cart.    s( 9) = (  0.5000001  0.8660254  0.0000001 )
                  ( -0.8660254  0.4999999 -0.0000000 )
                  (  0.0000000  0.0000000 -1.0000000 )


      isym = 10     inv. 120 deg rotation - cryst. axis [0,0,-1] 

 cryst.   s(10) = (     0          1          0      )
                  (    -1          1          0      )
                  (     0          1         -1      )

 cart.    s(10) = (  0.4999999 -0.8660254  0.0000000 )
                  (  0.8660254  0.5000001  0.0000001 )
                  (  0.0000000  0.0000000 -1.0000000 )


      isym = 11     inv. 180 deg rotation - cryst. axis [0,1,0]  

 cryst.   s(11) = (     0          1          0      )
                  (     1          0          0      )
                  (     0          0          1      )

 cart.    s(11) = (  0.4999999  0.8660254 -0.0000000 )
                  (  0.8660254 -0.4999999  0.0000000 )
                  (  0.0000000  0.0000000  1.0000000 )


      isym = 12     inv. 180 deg rotation - cryst. axis [1,1,0]  

 cryst.   s(12) = (     1         -1          0      )
                  (     0         -1          0      )
                  (     0         -1          1      )

 cart.    s(12) = (  0.5000001 -0.8660253 -0.0000000 )
                  ( -0.8660254 -0.5000001 -0.0000001 )
                  (  0.0000000  0.0000000  1.0000000 )


   Cartesian axes

     site n.     atom                  positions (alat units)
         1           Mg  tau(   1) = (   0.2500432   0.1443625   0.1020797  )
         2           Mg  tau(   2) = (   0.3749993   0.2165060   0.3061867  )
         3           Mg  tau(   3) = (   0.5000000   0.2886751   0.5102575  )
         4           Mg  tau(   4) = (   0.6249692   0.3608262   0.7144596  )
         5           Mg  tau(   5) = (   0.3749993   0.3608443   0.1020616  )
         6           Mg  tau(   6) = (   0.5000000   0.4330134   0.3061867  )
         7           Mg  tau(   7) = (   0.6247755   0.5051578   0.5103439  )
         8           Mg  tau(   8) = (   0.7498672   0.5773795   0.7146178  )
         9           Mg  tau(   9) = (   0.5000000   0.5773004   0.1020797  )
        10           Mg  tau(  10) = (   0.6247755   0.6495428   0.3061527  )
        11           Mg  tau(  11) = (   0.7500749   0.7216445   0.5102798  )
        12           Mg  tau(  12) = (   0.8749082   0.7939570   0.7146178  )
        13           Mg  tau(  13) = (   0.6249692   0.7938744   0.1020370  )
        14           Mg  tau(  14) = (   0.7498672   0.8662080   0.3061527  )
        15           Mg  tau(  15) = (   0.8749082   0.9384005   0.5103439  )
        16           Mg  tau(  16) = (   0.9999999   1.0103984   0.7144596  )
        17           Mg  tau(  17) = (   0.5000000   0.1443368   0.1020616  )
        18           Mg  tau(  18) = (   0.6250006   0.2165060   0.3061867  )
        19           Mg  tau(  19) = (   0.7498672   0.2884926   0.5103439  )
        20           Mg  tau(  20) = (   0.8749589   0.3607143   0.7146178  )
        21           Mg  tau(  21) = (   0.6250006   0.3608443   0.1020616  )
        22           Mg  tau(  22) = (   0.7500750   0.4330560   0.3062169  )
        23           Mg  tau(  23) = (   0.8740016   0.5046051   0.5111255  )
        24           Mg  tau(  24) = (   0.9999999   0.5773503   0.7143427  )
        25           Mg  tau(  25) = (   0.7498672   0.5773211   0.1018788  )
        26           Mg  tau(  26) = (   0.8740016   0.6500955   0.3053711  )
        27           Mg  tau(  27) = (   0.9999999   0.7228406   0.5111255  )
        28           Mg  tau(  28) = (   1.1250916   0.7939570   0.7146178  )
        29           Mg  tau(  29) = (   0.8749589   0.7939862   0.1018788  )
        30           Mg  tau(  30) = (   0.9999999   0.8659388   0.3062169  )
        31           Mg  tau(  31) = (   1.1250916   0.9384005   0.5103439  )
        32           Mg  tau(  32) = (   1.2500431   1.0103381   0.7144169  )
        33           Mg  tau(  33) = (   0.7499568   0.1443625   0.1020797  )
        34           Mg  tau(  34) = (   0.8749083   0.2163001   0.3061527  )
        35           Mg  tau(  35) = (   1.0000000   0.2887617   0.5102798  )
        36           Mg  tau(  36) = (   1.1250410   0.3607143   0.7146178  )
        37           Mg  tau(  37) = (   0.8749083   0.3607436   0.1018788  )
        38           Mg  tau(  38) = (   1.0000000   0.4318599   0.3053711  )
        39           Mg  tau(  39) = (   1.1259983   0.5046051   0.5111255  )
        40           Mg  tau(  40) = (   1.2501327   0.5773795   0.7146178  )
        41           Mg  tau(  41) = (   1.0000000   0.5773503   0.1021539  )
        42           Mg  tau(  42) = (   1.1259983   0.6500955   0.3053711  )
        43           Mg  tau(  43) = (   1.2499249   0.7216445   0.5102798  )
        44           Mg  tau(  44) = (   1.3749993   0.7938563   0.7144351  )
        45           Mg  tau(  45) = (   1.1250410   0.7939862   0.1018788  )
        46           Mg  tau(  46) = (   1.2501327   0.8662080   0.3061527  )
        47           Mg  tau(  47) = (   1.3749993   0.9381946   0.5103099  )
        48           Mg  tau(  48) = (   1.4999999   1.0103637   0.7144351  )
        49           Mg  tau(  49) = (   1.0000000   0.1443021   0.1020370  )
        50           Mg  tau(  50) = (   1.1250917   0.2163001   0.3061527  )
        51           Mg  tau(  51) = (   1.2501327   0.2884926   0.5103439  )
        52           Mg  tau(  52) = (   1.3750307   0.3608262   0.7144596  )
        53           Mg  tau(  53) = (   1.1250917   0.3607436   0.1018788  )
        54           Mg  tau(  54) = (   1.2499250   0.4330560   0.3062169  )
        55           Mg  tau(  55) = (   1.3752244   0.5051578   0.5103439  )
        56           Mg  tau(  56) = (   1.4999999   0.5774001   0.7144169  )
        57           Mg  tau(  57) = (   1.2501327   0.5773211   0.1018788  )
        58           Mg  tau(  58) = (   1.3752244   0.6495428   0.3061527  )
        59           Mg  tau(  59) = (   1.4999999   0.7216871   0.5103099  )
        60           Mg  tau(  60) = (   1.6250005   0.7938563   0.7144351  )
        61           Mg  tau(  61) = (   1.3750307   0.7938744   0.1020370  )
        62           Mg  tau(  62) = (   1.4999999   0.8660254   0.3062391  )
        63           Mg  tau(  63) = (   1.6250005   0.9381946   0.5103099  )
        64           Mg  tau(  64) = (   1.7499567   1.0103381   0.7144169  )
        65           O   tau(  65) = (   0.0000000   0.0000000   0.0000000  )
        66           O   tau(  66) = (   0.1249774   0.0721558   0.2040873  )
        67           O   tau(  67) = (   0.2500000   0.1443376   0.4082483  )
        68           O   tau(  68) = (   0.3750225   0.2165194   0.6124093  )
        69           O   tau(  69) = (   0.1249774   0.2164673   0.0000000  )
        70           O   tau(  70) = (   0.2499832   0.2886396   0.2040990  )
        71           O   tau(  71) = (   0.3750224   0.3608310   0.4082871  )
        72           O   tau(  72) = (   0.4999999   0.4329866   0.6124093  )
        73           O   tau(  73) = (   0.2500000   0.4330127   0.0000000  )
        74           O   tau(  74) = (   0.3750224   0.5052137   0.2040990  )
        75           O   tau(  75) = (   0.4999999   0.5773503   0.4082483  )
        76           O   tau(  76) = (   0.6249775   0.6494868   0.6123976  )
        77           O   tau(  77) = (   0.3750225   0.6495582   0.0000000  )
        78           O   tau(  78) = (   0.4999999   0.7217139   0.2040873  )
        79           O   tau(  79) = (   0.6249775   0.7938696   0.4082095  )
        80           O   tau(  80) = (   0.7500166   0.8660610   0.6123976  )
        81           O   tau(  81) = (   0.2499549   0.0000000   0.0000000  )
        82           O   tau(  82) = (   0.3749609   0.0721721   0.2040990  )
        83           O   tau(  83) = (   0.5000000   0.1443634   0.4082871  )
        84           O   tau(  84) = (   0.6249774   0.2165194   0.6124093  )
        85           O   tau(  85) = (   0.3749609   0.2164838   0.0000115  )
        86           O   tau(  86) = (   0.5000000   0.2886751   0.2041242  )
        87           O   tau(  87) = (   0.6249775   0.3608310   0.4082871  )
        88           O   tau(  88) = (   0.7499389   0.4329775   0.6124223  )
        89           O   tau(  89) = (   0.5000000   0.4330579   0.0000115  )
        90           O   tau(  90) = (   0.6249775   0.5052137   0.2040990  )
        91           O   tau(  91) = (   0.7493362   0.5773503   0.4082483  )
        92           O   tau(  92) = (   0.8746681   0.6497107   0.6129144  )
        93           O   tau(  93) = (   0.6249774   0.6495582   0.0000000  )
        94           O   tau(  94) = (   0.7499389   0.7217231   0.2040743  )
        95           O   tau(  95) = (   0.8746681   0.7944314   0.4082483  )
        96           O   tau(  96) = (   0.9999999   0.8660959   0.6124223  )
        97           O   tau(  97) = (   0.5000000   0.0000000   0.0000000  )
        98           O   tau(  98) = (   0.6250391   0.0721721   0.2040990  )
        99           O   tau(  99) = (   0.7500000   0.1443376   0.4082483  )
       100           O   tau( 100) = (   0.8749608   0.2165031   0.6123976  )
       101           O   tau( 101) = (   0.6250391   0.2164838   0.0000115  )
       102           O   tau( 102) = (   0.7500167   0.2886396   0.2040990  )
       103           O   tau( 103) = (   0.8746681   0.3602691   0.4082483  )
       104           O   tau( 104) = (   0.9999999   0.4326295   0.6129144  )
       105           O   tau( 105) = (   0.7500000   0.4330127   0.0000000  )
       106           O   tau( 106) = (   0.8746681   0.5049899   0.2035822  )
       107           O   tau( 107) = (   1.1253318   0.6497107   0.6129144  )
       108           O   tau( 108) = (   0.8749608   0.6495417  -0.0000115  )
       109           O   tau( 109) = (   0.9999999   0.7220711   0.2035822  )
       110           O   tau( 110) = (   1.1253318   0.7944314   0.4082483  )
       111           O   tau( 111) = (   1.2499832   0.8660610   0.6123976  )
       112           O   tau( 112) = (   0.7500451   0.0000000   0.0000000  )
       113           O   tau( 113) = (   0.8750226   0.0721558   0.2040873  )
       114           O   tau( 114) = (   1.0000000   0.1443117   0.4082095  )
       115           O   tau( 115) = (   1.1250391   0.2165031   0.6123976  )
       116           O   tau( 116) = (   0.8750226   0.2164673   0.0000000  )
       117           O   tau( 117) = (   1.0000000   0.2886047   0.2040743  )
       118           O   tau( 118) = (   1.1253318   0.3602691   0.4082483  )
       119           O   tau( 119) = (   1.2500610   0.4329775   0.6124223  )
       120           O   tau( 120) = (   1.0000000   0.4329675  -0.0000115  )
       121           O   tau( 121) = (   1.1253318   0.5049899   0.2035822  )
       122           O   tau( 122) = (   1.2506637   0.5773503   0.4082483  )
       123           O   tau( 123) = (   1.3750223   0.6494868   0.6123976  )
       124           O   tau( 124) = (   1.1250391   0.6495417  -0.0000115  )
       125           O   tau( 125) = (   1.2500610   0.7217231   0.2040743  )
       126           O   tau( 126) = (   1.3750223   0.7938696   0.4082095  )
       127           O   tau( 127) = (   1.4999999   0.8660254   0.6123725  )

   Crystallographic axes

     site n.     atom                  positions (cryst. coord.)
         1           Mg  tau(   1) = (  0.1250216  0.1250216  0.1250216  )
         2           Mg  tau(   2) = (  0.1249994  0.1249994  0.3750006  )
         3           Mg  tau(   3) = (  0.1250216  0.1250216  0.6249352  )
         4           Mg  tau(   4) = (  0.1249693  0.1249693  0.8750307  )
         5           Mg  tau(   5) = (  0.1249994  0.3750006  0.1249994  )
         6           Mg  tau(   6) = (  0.1249994  0.3750006  0.3750006  )
         7           Mg  tau(   7) = (  0.1247755  0.3749589  0.6250411  )
         8           Mg  tau(   8) = (  0.1247755  0.3749589  0.8752245  )
         9           Mg  tau(   9) = (  0.1250216  0.6249352  0.1250216  )
        10           Mg  tau(  10) = (  0.1247755  0.6250411  0.3749589  )
        11           Mg  tau(  11) = (  0.1251125  0.6249625  0.6249625  )
        12           Mg  tau(  12) = (  0.1247755  0.6250411  0.8752245  )
        13           Mg  tau(  13) = (  0.1249693  0.8750307  0.1249693  )
        14           Mg  tau(  14) = (  0.1247755  0.8752245  0.3749589  )
        15           Mg  tau(  15) = (  0.1247755  0.8752245  0.6250411  )
        16           Mg  tau(  16) = (  0.1249693  0.8750307  0.8750307  )
        17           Mg  tau(  17) = (  0.3750006  0.1249994  0.1249994  )
        18           Mg  tau(  18) = (  0.3750006  0.1249994  0.3750006  )
        19           Mg  tau(  19) = (  0.3749589  0.1247755  0.6250411  )
        20           Mg  tau(  20) = (  0.3749589  0.1247755  0.8752245  )
        21           Mg  tau(  21) = (  0.3750006  0.3750006  0.1249994  )
        22           Mg  tau(  22) = (  0.3750375  0.3750375  0.3750375  )
        23           Mg  tau(  23) = (  0.3740017  0.3740017  0.6259983  )
        24           Mg  tau(  24) = (  0.3750375  0.3750375  0.8748875  )
        25           Mg  tau(  25) = (  0.3749589  0.6250411  0.1247755  )
        26           Mg  tau(  26) = (  0.3740017  0.6259983  0.3740017  )
        27           Mg  tau(  27) = (  0.3740017  0.6259983  0.6259983  )
        28           Mg  tau(  28) = (  0.3749589  0.6250411  0.8752245  )
        29           Mg  tau(  29) = (  0.3749589  0.8752245  0.1247755  )
        30           Mg  tau(  30) = (  0.3750375  0.8748875  0.3750375  )
        31           Mg  tau(  31) = (  0.3749589  0.8752245  0.6250411  )
        32           Mg  tau(  32) = (  0.3750648  0.8749784  0.8749784  )
        33           Mg  tau(  33) = (  0.6249352  0.1250216  0.1250216  )
        34           Mg  tau(  34) = (  0.6250411  0.1247755  0.3749589  )
        35           Mg  tau(  35) = (  0.6249625  0.1251125  0.6249625  )
        36           Mg  tau(  36) = (  0.6250411  0.1247755  0.8752245  )
        37           Mg  tau(  37) = (  0.6250411  0.3749589  0.1247755  )
        38           Mg  tau(  38) = (  0.6259983  0.3740017  0.3740017  )
        39           Mg  tau(  39) = (  0.6259983  0.3740017  0.6259983  )
        40           Mg  tau(  40) = (  0.6250411  0.3749589  0.8752245  )
        41           Mg  tau(  41) = (  0.6249625  0.6249625  0.1251125  )
        42           Mg  tau(  42) = (  0.6259983  0.6259983  0.3740017  )
        43           Mg  tau(  43) = (  0.6249625  0.6249625  0.6249625  )
        44           Mg  tau(  44) = (  0.6249994  0.6249994  0.8750006  )
        45           Mg  tau(  45) = (  0.6250411  0.8752245  0.1247755  )
        46           Mg  tau(  46) = (  0.6250411  0.8752245  0.3749589  )
        47           Mg  tau(  47) = (  0.6249994  0.8750006  0.6249994  )
        48           Mg  tau(  48) = (  0.6249994  0.8750006  0.8750006  )
        49           Mg  tau(  49) = (  0.8750307  0.1249693  0.1249693  )
        50           Mg  tau(  50) = (  0.8752245  0.1247755  0.3749589  )
        51           Mg  tau(  51) = (  0.8752245  0.1247755  0.6250411  )
        52           Mg  tau(  52) = (  0.8750307  0.1249693  0.8750307  )
        53           Mg  tau(  53) = (  0.8752245  0.3749589  0.1247755  )
        54           Mg  tau(  54) = (  0.8748875  0.3750375  0.3750375  )
        55           Mg  tau(  55) = (  0.8752245  0.3749589  0.6250411  )
        56           Mg  tau(  56) = (  0.8749784  0.3750648  0.8749784  )
        57           Mg  tau(  57) = (  0.8752245  0.6250411  0.1247755  )
        58           Mg  tau(  58) = (  0.8752245  0.6250411  0.3749589  )
        59           Mg  tau(  59) = (  0.8750006  0.6249994  0.6249994  )
        60           Mg  tau(  60) = (  0.8750006  0.6249994  0.8750006  )
        61           Mg  tau(  61) = (  0.8750307  0.8750307  0.1249693  )
        62           Mg  tau(  62) = (  0.8749784  0.8749784  0.3750648  )
        63           Mg  tau(  63) = (  0.8750006  0.8750006  0.6249994  )
        64           Mg  tau(  64) = (  0.8749784  0.8749784  0.8749784  )
        65           O   tau(  65) = (  0.0000000  0.0000000  0.0000000  )
        66           O   tau(  66) = ( -0.0000000 -0.0000000  0.2499549  )
        67           O   tau(  67) = (  0.0000000 -0.0000000  0.5000000  )
        68           O   tau(  68) = (  0.0000000  0.0000000  0.7500451  )
        69           O   tau(  69) = ( -0.0000000  0.2499549  0.0000000  )
        70           O   tau(  70) = (  0.0000140  0.2499692  0.2499692  )
        71           O   tau(  71) = (  0.0000140  0.2499692  0.5000475  )
        72           O   tau(  72) = (  0.0000000  0.2499549  0.7500451  )
        73           O   tau(  73) = ( -0.0000000  0.5000000  0.0000000  )
        74           O   tau(  74) = (  0.0000140  0.5000475  0.2499692  )
        75           O   tau(  75) = (  0.0000000  0.5000000  0.5000000  )
        76           O   tau(  76) = ( -0.0000140  0.4999525  0.7500308  )
        77           O   tau(  77) = (  0.0000000  0.7500451  0.0000000  )
        78           O   tau(  78) = ( -0.0000000  0.7500451  0.2499549  )
        79           O   tau(  79) = ( -0.0000140  0.7500308  0.4999525  )
        80           O   tau(  80) = ( -0.0000140  0.7500308  0.7500308  )
        81           O   tau(  81) = (  0.2499549  0.0000000  0.0000000  )
        82           O   tau(  82) = (  0.2499692  0.0000140  0.2499692  )
        83           O   tau(  83) = (  0.2499692  0.0000140  0.5000475  )
        84           O   tau(  84) = (  0.2499549  0.0000000  0.7500451  )
        85           O   tau(  85) = (  0.2499692  0.2499692  0.0000140  )
        86           O   tau(  86) = (  0.2500000  0.2500000  0.2500000  )
        87           O   tau(  87) = (  0.2499692  0.2499692  0.5000475  )
        88           O   tau(  88) = (  0.2499390  0.2499390  0.7500610  )
        89           O   tau(  89) = (  0.2499692  0.5000475  0.0000140  )
        90           O   tau(  90) = (  0.2499692  0.5000475  0.2499692  )
        91           O   tau(  91) = (  0.2493363  0.5000000  0.5000000  )
        92           O   tau(  92) = (  0.2493363  0.5000000  0.7506637  )
        93           O   tau(  93) = (  0.2499549  0.7500451  0.0000000  )
        94           O   tau(  94) = (  0.2499390  0.7500610  0.2499390  )
        95           O   tau(  95) = (  0.2493363  0.7506637  0.5000000  )
        96           O   tau(  96) = (  0.2499390  0.7500610  0.7500610  )
        97           O   tau(  97) = (  0.5000000  0.0000000  0.0000000  )
        98           O   tau(  98) = (  0.5000475  0.0000140  0.2499692  )
        99           O   tau(  99) = (  0.5000000 -0.0000000  0.5000000  )
       100           O   tau( 100) = (  0.4999525 -0.0000140  0.7500308  )
       101           O   tau( 101) = (  0.5000475  0.2499692  0.0000140  )
       102           O   tau( 102) = (  0.5000475  0.2499692  0.2499692  )
       103           O   tau( 103) = (  0.5000000  0.2493363  0.5000000  )
       104           O   tau( 104) = (  0.5000000  0.2493363  0.7506637  )
       105           O   tau( 105) = (  0.5000000  0.5000000  0.0000000  )
       106           O   tau( 106) = (  0.5000000  0.5000000  0.2493363  )
       107           O   tau( 107) = (  0.5000000  0.5000000  0.7506637  )
       108           O   tau( 108) = (  0.4999525  0.7500308 -0.0000140  )
       109           O   tau( 109) = (  0.5000000  0.7506637  0.2493363  )
       110           O   tau( 110) = (  0.5000000  0.7506637  0.5000000  )
       111           O   tau( 111) = (  0.4999525  0.7500308  0.7500308  )
       112           O   tau( 112) = (  0.7500451  0.0000000  0.0000000  )
       113           O   tau( 113) = (  0.7500451 -0.0000000  0.2499549  )
       114           O   tau( 114) = (  0.7500308 -0.0000140  0.4999525  )
       115           O   tau( 115) = (  0.7500308 -0.0000140  0.7500308  )
       116           O   tau( 116) = (  0.7500451  0.2499549  0.0000000  )
       117           O   tau( 117) = (  0.7500610  0.2499390  0.2499390  )
       118           O   tau( 118) = (  0.7506637  0.2493363  0.5000000  )
       119           O   tau( 119) = (  0.7500610  0.2499390  0.7500610  )
       120           O   tau( 120) = (  0.7500308  0.4999525 -0.0000140  )
       121           O   tau( 121) = (  0.7506637  0.5000000  0.2493363  )
       122           O   tau( 122) = (  0.7506637  0.5000000  0.5000000  )
       123           O   tau( 123) = (  0.7500308  0.4999525  0.7500308  )
       124           O   tau( 124) = (  0.7500308  0.7500308 -0.0000140  )
       125           O   tau( 125) = (  0.7500610  0.7500610  0.2499390  )
       126           O   tau( 126) = (  0.7500308  0.7500308  0.4999525  )
       127           O   tau( 127) = (  0.7500000  0.7500000  0.7500000  )

     number of k points=     1
                       cart. coord. in units 2pi/alat
        k(    1) = (   0.0000000   0.0000000   0.0000000), wk =   2.0000000

                       cryst. coord.
        k(    1) = (   0.0000000   0.0000000   0.0000000), wk =   2.0000000

     Dense  grid:   249160 G-vectors     FFT dimensions: ( 120, 120, 120)

     Estimated max dynamical RAM per process >     179.45MB

     Estimated total allocated dynamical RAM >   21534.12MB

     Initial potential from superposition of free atoms

     starting charge 1013.75415, renormalised to 1018.00000
     Starting wfc are random

     total cpu time spent up to now is        1.2 secs

     per-process dynamical memory:    40.7 Mb

     Self-consistent Calculation

     iteration #  1     ecut=    60.00 Ry     beta=0.70
     Davidson diagonalization with overlap
     ethr =  1.00E-02,  avg # of iterations =  8.0

     total cpu time spent up to now is       15.2 secs

     total energy              =   -8972.19295741 Ry
     Harris-Foulkes estimate   =   -8987.75902598 Ry
     estimated scf accuracy    <      21.43329824 Ry

     iteration #  2     ecut=    60.00 Ry     beta=0.70
     Davidson diagonalization with overlap
     ethr =  2.11E-03,  avg # of iterations =  5.0

     total cpu time spent up to now is       21.5 secs

     total energy              =   -8977.47260256 Ry
     Harris-Foulkes estimate   =   -8985.79278090 Ry
     estimated scf accuracy    <      16.89067616 Ry

     iteration #  3     ecut=    60.00 Ry     beta=0.70
     Davidson diagonalization with overlap
     ethr =  1.66E-03,  avg # of iterations =  4.0

     total cpu time spent up to now is       26.4 secs

     total energy              =   -8980.90545264 Ry
     Harris-Foulkes estimate   =   -8980.94155307 Ry
     estimated scf accuracy    <       0.12332411 Ry

     iteration #  4     ecut=    60.00 Ry     beta=0.70
     Davidson diagonalization with overlap
     ethr =  1.21E-05,  avg # of iterations = 11.0

     total cpu time spent up to now is       38.9 secs

     total energy              =   -8980.93364258 Ry
     Harris-Foulkes estimate   =   -8980.95293655 Ry
     estimated scf accuracy    <       0.03817217 Ry

     iteration #  5     ecut=    60.00 Ry     beta=0.70
     Davidson diagonalization with overlap
     ethr =  3.75E-06,  avg # of iterations =  6.0

     total cpu time spent up to now is       45.4 secs

     total energy              =   -8980.94189232 Ry
     Harris-Foulkes estimate   =   -8980.94206873 Ry
     estimated scf accuracy    <       0.00054361 Ry

     iteration #  6     ecut=    60.00 Ry     beta=0.70
     Davidson diagonalization with overlap
     ethr =  5.34E-08,  avg # of iterations =  6.0

     total cpu time spent up to now is       52.6 secs

     total energy              =   -8980.94205491 Ry
     Harris-Foulkes estimate   =   -8980.94213136 Ry
     estimated scf accuracy    <       0.00019385 Ry

     iteration #  7     ecut=    60.00 Ry     beta=0.70
     Davidson diagonalization with overlap
     ethr =  1.90E-08,  avg # of iterations = 17.0

     total cpu time spent up to now is       70.3 secs

     total energy              =   -8980.94210537 Ry
     Harris-Foulkes estimate   =   -8980.94210297 Ry
     estimated scf accuracy    <       0.00001426 Ry

     iteration #  8     ecut=    60.00 Ry     beta=0.70
     Davidson diagonalization with overlap
     ethr =  1.40E-09,  avg # of iterations =  5.0

     total cpu time spent up to now is       76.3 secs

     total energy              =   -8980.94210825 Ry
     Harris-Foulkes estimate   =   -8980.94210897 Ry
     estimated scf accuracy    <       0.00000171 Ry

     iteration #  9     ecut=    60.00 Ry     beta=0.70
     Davidson diagonalization with overlap
     ethr =  1.68E-10,  avg # of iterations =  7.0

     total cpu time spent up to now is       84.0 secs

     total energy              =   -8980.94210862 Ry
     Harris-Foulkes estimate   =   -8980.94210870 Ry
     estimated scf accuracy    <       0.00000019 Ry

     iteration # 10     ecut=    60.00 Ry     beta=0.70
     Davidson diagonalization with overlap
     ethr =  1.88E-11,  avg # of iterations =  5.0

     total cpu time spent up to now is       89.6 secs

     total energy              =   -8980.94210865 Ry
     Harris-Foulkes estimate   =   -8980.94210866 Ry
     estimated scf accuracy    <       0.00000002 Ry

     iteration # 11     ecut=    60.00 Ry     beta=0.70
     Davidson diagonalization with overlap
     ethr =  1.61E-12,  avg # of iterations =  5.0

     total cpu time spent up to now is       95.6 secs

     End of self-consistent calculation

          k = 0.0000 0.0000 0.0000 ( 31244 PWs)   bands (ev):

   -63.4255 -63.4228 -63.4228 -63.4228 -63.4214 -63.4214 -63.4041 -63.4018
   -63.4015 -63.4015 -63.4015 -63.4014 -63.4014 -63.4014 -63.4013 -63.4007
   -63.4007 -63.4007 -63.3989 -63.3989 -63.3954 -63.3946 -63.3946 -63.3946
   -63.3940 -63.3940 -63.3940 -63.3938 -63.3932 -63.3932 -63.3915 -63.3915
   -63.3915 -63.3912 -63.3912 -63.3912 -63.3911 -63.3911 -63.3911 -63.3907
   -63.3902 -63.3902 -63.3902 -63.3901 -63.3899 -63.3899 -63.3899 -63.3897
   -63.3897 -63.3897 -63.3897 -63.3897 -63.3897 -63.3885 -63.3885 -63.3885
   -63.3884 -63.3879 -63.3879 -63.3879 -63.3874 -63.3874 -63.3866 -63.3866
   -30.2821 -30.2766 -30.2766 -30.2766 -30.2712 -30.2712 -30.2712 -30.2642
   -30.2609 -30.2609 -30.2609 -30.2593 -30.2593 -30.2593 -30.2584 -30.2584
   -30.2576 -30.2576 -30.2576 -30.2554 -30.2554 -30.2554 -30.2537 -30.2537
   -30.2537 -30.2526 -30.2526 -30.2504 -30.2504 -30.2504 -30.2500 -30.2500
   -30.2490 -30.2487 -30.2474 -30.2474 -30.2474 -30.2473 -30.2473 -30.2473
   -30.2466 -30.2466 -30.2466 -30.2418 -30.2418 -30.2418 -30.2390 -30.2390
   -30.2390 -30.2362 -30.2362 -30.2362 -30.2360 -30.2360 -30.2360 -30.2333
   -30.2333 -30.2328 -30.2328 -30.2328 -30.2304 -30.2284 -30.2284 -30.2284
   -30.2265 -30.2246 -30.2246 -30.2246 -30.2241 -30.2241 -30.2241 -30.2232
   -30.2231 -30.2231 -30.2229 -30.2229 -30.2229 -30.2220 -30.2220 -30.2220
   -30.2187 -30.2186 -30.2186 -30.2179 -30.2173 -30.2173 -30.2173 -30.2162
   -30.2162 -30.2162 -30.2150 -30.2150 -30.2150 -30.2147 -30.2147 -30.2147
   -30.2147 -30.2147 -30.2146 -30.2146 -30.2146 -30.2143 -30.2143 -30.2143
   -30.2129 -30.2129 -30.2129 -30.2122 -30.2122 -30.2110 -30.2110 -30.2110
   -30.2101 -30.2101 -30.2096 -30.2096 -30.2096 -30.2059 -30.2059 -30.2042
   -30.2042 -30.2042 -30.2037 -30.2037 -30.2037 -30.2033 -30.2033 -30.2033
   -30.2026 -30.2026 -30.2026 -30.2009 -30.2009 -30.2009 -30.2001 -30.2001
   -30.2001 -30.1999 -30.1995 -30.1995 -30.1995 -30.1995 -30.1995 -30.1986
   -30.1976 -30.1976 -30.1976 -30.1975 -30.1975 -30.1968 -30.1968 -30.1968
   -30.1957 -30.1957 -30.1957 -30.1928 -30.1928 -30.1928 -30.1917 -30.1917
   -30.1917 -30.1917 -30.1917 -30.1917 -30.1913 -30.1913 -30.1913 -30.1899
   -30.1899 -30.1899 -30.1893 -30.1877 -30.1877 -30.1871 -30.1871 -30.1869
   -30.1869 -30.1869 -30.1867 -30.1867 -30.1867 -30.1841 -30.1841 -30.1841
   -30.1838 -30.1838 -30.1837 -30.1837 -30.1837 -30.1810 -30.1810 -30.1810
    -8.3930  -7.7970  -7.7970  -7.7970  -7.7881  -7.7881  -7.7881  -7.7761
    -7.7330  -7.6368  -7.6368  -7.6284  -7.6284  -7.6284  -7.5415  -7.1554
    -7.1554  -7.1471  -7.1471  -7.1471  -7.1457  -7.1457  -7.1457  -7.1408
    -7.1408  -7.1408  -7.0945  -7.0552  -7.0552  -7.0552  -7.0478  -6.9725
    -6.9725  -6.9725  -6.9684  -6.9684  -6.9684  -6.9683  -6.9683  -6.9601
    -6.9601  -6.9601  -6.9498  -6.9498  -6.9498  -6.9463  -6.9463  -6.9463
    -6.9419  -6.9419  -6.9419  -6.9418  -6.9418  -6.9409  -6.8540  -6.8324
    -6.8324  -6.7812  -6.7705  -6.7705  -6.7655  -6.7655  -6.7655   4.2379
     4.2636   4.2636   4.2636   4.8051   4.8051   4.8051   4.8934   5.0395
     5.0395   5.0426   5.0426   5.0426   5.0545   5.0545   5.0545   5.0546
     5.0546   5.0546   5.0567   5.0570   5.0570   5.0570   5.0603   5.0603
     5.0632   5.0632   5.0632   5.1924   5.1924   5.1924   5.2545   5.3714
     5.3714   5.3714   5.3745   5.3745   5.3779   5.3779   5.3780   5.5081
     5.5081   5.5081   5.9154   5.9154   5.9154   5.9197   5.9197   5.9197
     5.9285   5.9285   5.9285   5.9603   6.0133   6.0133   6.0133   6.2320
     6.2320   6.2320   6.2368   6.2411   6.2411   6.2411   6.2427   6.2530
     6.2530   6.3699   6.3699   6.3699   6.8852   6.8852   6.8876   6.8876
     6.8876   6.8929   6.8929   6.8930   6.9006   6.9066   6.9066   6.9066
     6.9249   6.9639   6.9639   6.9639   6.9664   6.9664   6.9664   6.9740
     6.9740   6.9743   6.9743   6.9743   6.9760   6.9760   6.9785   6.9793
     6.9793   6.9793   6.9811   6.9811   6.9811   7.0831   7.0831   7.0831
     7.1072   7.1206   7.1206   7.3417   7.3417   7.3417   7.5426   7.5426
     7.5426   7.6034   7.6034   7.6034   7.8565   7.8663   7.8663   7.8685
     7.8685   7.8685   7.8754   7.8754   7.8754   7.8756   7.8756   7.8789
     7.8789   7.8789   7.8808   7.8808   7.8808   7.8815   7.8815   7.8815
     7.8886   8.0207   8.0207   8.0207   8.1566   8.1566   8.1566   8.1570
     8.1570   8.1570   8.1636   8.1636   8.1636   8.1842   8.1842   8.1842
     8.2363   8.2363   8.2363   8.2449   8.2474   8.2474   8.2482   8.2482
     8.2490   8.2490   8.2490   8.2526   8.2526   8.2526   8.2528   8.2528
     8.2528   8.4746   8.4746   8.4746   8.5531   8.5531   8.5572   8.5572
     8.5572   8.5692   8.5692   8.5692   8.5701   8.5701   8.5730   8.5730
     8.5730   8.8927   8.8927   8.8927  11.3360  14.0544  15.5700  15.5700
    15.5700  16.1846  16.1850  16.1850  16.1850  16.5429  16.5598  16.5598

     occupation numbers 
     1.0000   1.0000   1.0000   1.0000   1.0000   1.0000   1.0000   1.0000
     1.0000   1.0000   1.0000   1.0000   1.0000   1.0000   1.0000   1.0000
     1.0000   1.0000   1.0000   1.0000   1.0000   1.0000   1.0000   1.0000
     1.0000   1.0000   1.0000   1.0000   1.0000   1.0000   1.0000   1.0000
     1.0000   1.0000   1.0000   1.0000   1.0000   1.0000   1.0000   1.0000
     1.0000   1.0000   1.0000   1.0000   1.0000   1.0000   1.0000   1.0000
     1.0000   1.0000   1.0000   1.0000   1.0000   1.0000   1.0000   1.0000
     1.0000   1.0000   1.0000   1.0000   1.0000   1.0000   1.0000   1.0000
     1.0000   1.0000   1.0000   1.0000   1.0000   1.0000   1.0000   1.0000
     1.0000   1.0000   1.0000   1.0000   1.0000   1.0000   1.0000   1.0000
     1.0000   1.0000   1.0000   1.0000   1.0000   1.0000   1.0000   1.0000
     1.0000   1.0000   1.0000   1.0000   1.0000   1.0000   1.0000   1.0000
     1.0000   1.0000   1.0000   1.0000   1.0000   1.0000   1.0000   1.0000
     1.0000   1.0000   1.0000   1.0000   1.0000   1.0000   1.0000   1.0000
     1.0000   1.0000   1.0000   1.0000   1.0000   1.0000   1.0000   1.0000
     1.0000   1.0000   1.0000   1.0000   1.0000   1.0000   1.0000   1.0000
     1.0000   1.0000   1.0000   1.0000   1.0000   1.0000   1.0000   1.0000
     1.0000   1.0000   1.0000   1.0000   1.0000   1.0000   1.0000   1.0000
     1.0000   1.0000   1.0000   1.0000   1.0000   1.0000   1.0000   1.0000
     1.0000   1.0000   1.0000   1.0000   1.0000   1.0000   1.0000   1.0000
     1.0000   1.0000   1.0000   1.0000   1.0000   1.0000   1.0000   1.0000
     1.0000   1.0000   1.0000   1.0000   1.0000   1.0000   1.0000   1.0000
     1.0000   1.0000   1.0000   1.0000   1.0000   1.0000   1.0000   1.0000
     1.0000   1.0000   1.0000   1.0000   1.0000   1.0000   1.0000   1.0000
     1.0000   1.0000   1.0000   1.0000   1.0000   1.0000   1.0000   1.0000
     1.0000   1.0000   1.0000   1.0000   1.0000   1.0000   1.0000   1.0000
     1.0000   1.0000   1.0000   1.0000   1.0000   1.0000   1.0000   1.0000
     1.0000   1.0000   1.0000   1.0000   1.0000   1.0000   1.0000   1.0000
     1.0000   1.0000   1.0000   1.0000   1.0000   1.0000   1.0000   1.0000
     1.0000   1.0000   1.0000   1.0000   1.0000   1.0000   1.0000   1.0000
     1.0000   1.0000   1.0000   1.0000   1.0000   1.0000   1.0000   1.0000
     1.0000   1.0000   1.0000   1.0000   1.0000   1.0000   1.0000   1.0000
     1.0000   1.0000   1.0000   1.0000   1.0000   1.0000   1.0000   1.0000
     1.0000   1.0000   1.0000   1.0000   1.0000   1.0000   1.0000   1.0000
     1.0000   1.0000   1.0000   1.0000   1.0000   1.0000   1.0000   1.0000
     1.0000   1.0000   1.0000   1.0000   1.0000   1.0000   1.0000   1.0000
     1.0000   1.0000   1.0000   1.0000   1.0000   1.0000   1.0000   1.0000
     1.0000   1.0000   1.0000   1.0000   1.0000   1.0000   1.0000   1.0000
     1.0000   1.0000   1.0000   1.0000   1.0000   1.0000   1.0000   1.0000
     1.0000   1.0000   1.0000   1.0000   1.0000   1.0000   1.0000   1.0000
     1.0000   1.0000   1.0000   1.0000   1.0000   1.0000   1.0000   1.0000
     1.0000   1.0000   1.0000   1.0000   1.0000   1.0000   1.0000   1.0000
     1.0000   1.0000   1.0000   1.0000   1.0000   1.0000   1.0000   1.0000
     1.0000   1.0000   1.0000   1.0000   1.0000   1.0000   1.0000   1.0000
     1.0000   1.0000   1.0000   1.0000   1.0000   1.0000   1.0000   1.0000
     1.0000   1.0000   1.0000   1.0000   1.0000   1.0000   1.0000   1.0000
     1.0000   1.0000   1.0000   1.0000   1.0000   1.0000   1.0000   1.0000
     1.0000   1.0000   1.0000   1.0000   1.0000   1.0000   1.0000   1.0000
     1.0000   1.0000   1.0000   1.0000   1.0000   1.0000   1.0000   1.0000
     1.0000   1.0000   1.0000   1.0000   1.0000   1.0000   1.0000   1.0000
     1.0000   1.0000   1.0000   1.0000   1.0000   1.0000   1.0000   1.0000
     1.0000   1.0000   1.0000   1.0000   1.0000   1.0000   1.0000   1.0000
     1.0000   1.0000   1.0000   1.0000   1.0000   1.0000   1.0000   1.0000
     1.0000   1.0000   1.0000   1.0000   1.0000   1.0000   1.0000   1.0000
     1.0000   1.0000   1.0000   1.0000   1.0000   1.0000   1.0000   1.0000
     1.0000   1.0000   1.0000   1.0000   1.0000   1.0000   1.0000   1.0000
     1.0000   1.0000   1.0000   1.0000   1.0000   1.0000   1.0000   1.0000
     1.0000   1.0000   1.0000   1.0000   1.0000   1.0000   1.0000   1.0000
     1.0000   1.0000   1.0000   1.0000   1.0000   1.0000   1.0000   1.0000
     1.0000   1.0000   1.0000   1.0000   1.0000   1.0000   1.0000   1.0000
     1.0000   1.0000   1.0000   1.0000   1.0000   1.0000   1.0000   1.0000
     1.0000   1.0000   1.0000   1.0000   1.0000   1.0000   1.0000   1.0000
     1.0000   1.0000   1.0000   1.0000   1.0000   1.0000   1.0000   1.0000
     1.0000   1.0000   1.0000   1.0000   1.0000   0.0000   0.0000   0.0000
     0.0000   0.0000   0.0000   0.0000   0.0000   0.0000   0.0000   0.0000

     highest occupied, lowest unoccupied level (ev):    11.3360   14.0544

!    total energy              =   -8980.94210865 Ry
     Harris-Foulkes estimate   =   -8980.94210865 Ry
     estimated scf accuracy    <          1.3E-09 Ry

     convergence has been achieved in  11 iterations
 
     Parallelization info
     --------------------
     sticks:   dense  smooth     PW     G-vecs:    dense   smooth      PW
     Min          68      68     16                 4146     4146     512
     Max          70      70     18                 4162     4162     530
     Sum        8293    8293   2077               498319   498319   62487
 

     EXX: now go back to refine exchange calculation

     total cpu time spent up to now is      114.0 secs

     per-process dynamical memory:   106.5 Mb

     Self-consistent Calculation

     iteration #  1     ecut=    60.00 Ry     beta=0.70
     Davidson diagonalization with overlap
     WARNING:     2 eigenvalues not converged in regterg
     c_bands:  2 eigenvalues not converged
     ethr =  1.61E-12,  avg # of iterations = 20.0

     total cpu time spent up to now is      416.0 secs

     total energy              =   -8984.30256121 Ry
     Harris-Foulkes estimate   =   -8984.32654903 Ry
     estimated scf accuracy    <       0.04348848 Ry

     iteration #  2     ecut=    60.00 Ry     beta=0.70
     Davidson diagonalization with overlap
     ethr =  4.27E-06,  avg # of iterations =  4.0

     total cpu time spent up to now is      510.9 secs

     total energy              =   -8984.30591566 Ry
     Harris-Foulkes estimate   =   -8984.31179231 Ry
     estimated scf accuracy    <       0.00925637 Ry

     iteration #  3     ecut=    60.00 Ry     beta=0.70
     Davidson diagonalization with overlap
     ethr =  9.09E-07,  avg # of iterations =  4.0

     total cpu time spent up to now is      606.6 secs

     total energy              =   -8984.30822666 Ry
     Harris-Foulkes estimate   =   -8984.30899499 Ry
     estimated scf accuracy    <       0.00144155 Ry

     iteration #  4     ecut=    60.00 Ry     beta=0.70
     Davidson diagonalization with overlap
     ethr =  1.42E-07,  avg # of iterations =  3.0

     total cpu time spent up to now is      699.6 secs

     total energy              =   -8984.30848075 Ry
     Harris-Foulkes estimate   =   -8984.30848260 Ry
     estimated scf accuracy    <       0.00000330 Ry

     iteration #  5     ecut=    60.00 Ry     beta=0.70
     Davidson diagonalization with overlap
     ethr =  3.24E-10,  avg # of iterations =  6.0

     total cpu time spent up to now is      812.1 secs

     total energy              =   -8984.30848252 Ry
     Harris-Foulkes estimate   =   -8984.30848295 Ry
     estimated scf accuracy    <       0.00000096 Ry

     iteration #  6     ecut=    60.00 Ry     beta=0.70
     Davidson diagonalization with overlap
     ethr =  9.42E-11,  avg # of iterations =  6.0

     total cpu time spent up to now is      911.7 secs

     total energy              =   -8984.30848274 Ry
     Harris-Foulkes estimate   =   -8984.30848274 Ry
     estimated scf accuracy    <       0.00000002 Ry

     iteration #  7     ecut=    60.00 Ry     beta=0.70
     Davidson diagonalization with overlap
     ethr =  2.07E-12,  avg # of iterations =  7.0

     total cpu time spent up to now is     1014.5 secs

     End of self-consistent calculation

          k = 0.0000 0.0000 0.0000 ( 31244 PWs)   bands (ev):

   -71.8752 -71.8725 -71.8725 -71.8725 -71.8712 -71.8712 -71.8496 -71.8456
   -71.8456 -71.8456 -71.8437 -71.8437 -71.8436 -71.8420 -71.8408 -71.8408
   -71.8408 -71.8406 -71.8406 -71.8406 -71.8393 -71.8381 -71.8377 -71.8377
   -71.8377 -71.8375 -71.8375 -71.8375 -71.8353 -71.8347 -71.8347 -71.8343
   -71.8341 -71.8341 -71.8341 -71.8340 -71.8340 -71.8340 -71.8332 -71.8332
   -71.8332 -71.8329 -71.8320 -71.8320 -71.8320 -71.8318 -71.8318 -71.8314
   -71.8314 -71.8314 -71.8314 -71.8314 -71.8312 -71.8312 -71.8312 -71.8312
   -71.8312 -71.8312 -71.8312 -71.8312 -71.8312 -71.8303 -71.8303 -71.8291
   -34.8522 -34.8487 -34.8487 -34.8487 -34.8388 -34.8388 -34.8388 -34.8330
   -34.8300 -34.8300 -34.8300 -34.8261 -34.8261 -34.8261 -34.8256 -34.8256
   -34.8256 -34.8236 -34.8236 -34.8219 -34.8219 -34.8219 -34.8193 -34.8193
   -34.8193 -34.8178 -34.8178 -34.8167 -34.8167 -34.8167 -34.8158 -34.8157
   -34.8149 -34.8149 -34.8139 -34.8139 -34.8139 -34.8130 -34.8130 -34.8130
   -34.8128 -34.8128 -34.8128 -34.8058 -34.8058 -34.8058 -34.8033 -34.8033
   -34.8033 -34.7990 -34.7990 -34.7990 -34.7989 -34.7989 -34.7989 -34.7978
   -34.7978 -34.7978 -34.7951 -34.7951 -34.7930 -34.7925 -34.7925 -34.7925
   -34.7894 -34.7865 -34.7865 -34.7865 -34.7857 -34.7857 -34.7857 -34.7837
   -34.7837 -34.7837 -34.7837 -34.7824 -34.7824 -34.7819 -34.7819 -34.7819
   -34.7774 -34.7774 -34.7774 -34.7771 -34.7771 -34.7770 -34.7762 -34.7762
   -34.7762 -34.7759 -34.7752 -34.7752 -34.7752 -34.7750 -34.7750 -34.7750
   -34.7748 -34.7748 -34.7748 -34.7746 -34.7746 -34.7746 -34.7741 -34.7741
   -34.7732 -34.7726 -34.7720 -34.7720 -34.7720 -34.7708 -34.7708 -34.7708
   -34.7699 -34.7699 -34.7690 -34.7690 -34.7690 -34.7628 -34.7628 -34.7613
   -34.7613 -34.7613 -34.7612 -34.7612 -34.7612 -34.7605 -34.7605 -34.7605
   -34.7589 -34.7589 -34.7589 -34.7570 -34.7570 -34.7570 -34.7567 -34.7567
   -34.7567 -34.7562 -34.7562 -34.7557 -34.7557 -34.7557 -34.7554 -34.7554
   -34.7554 -34.7548 -34.7544 -34.7544 -34.7544 -34.7539 -34.7529 -34.7529
   -34.7520 -34.7520 -34.7520 -34.7478 -34.7478 -34.7478 -34.7471 -34.7471
   -34.7471 -34.7470 -34.7470 -34.7470 -34.7456 -34.7456 -34.7456 -34.7451
   -34.7451 -34.7451 -34.7426 -34.7426 -34.7425 -34.7418 -34.7418 -34.7418
   -34.7415 -34.7415 -34.7409 -34.7409 -34.7409 -34.7389 -34.7389 -34.7389
   -34.7383 -34.7383 -34.7383 -34.7380 -34.7380 -34.7371 -34.7371 -34.7371
   -13.1803 -12.5405 -12.5405 -12.5405 -12.5335 -12.5335 -12.5335 -12.5223
   -12.4755 -12.3759 -12.3759 -12.3652 -12.3652 -12.3652 -12.2707 -11.8594
   -11.8594 -11.8486 -11.8486 -11.8486 -11.8479 -11.8479 -11.8479 -11.8425
   -11.8425 -11.8425 -11.7930 -11.7345 -11.7345 -11.7345 -11.7325 -11.6636
   -11.6636 -11.6636 -11.6577 -11.6577 -11.6552 -11.6552 -11.6552 -11.6507
   -11.6507 -11.6507 -11.6413 -11.6413 -11.6413 -11.6369 -11.6369 -11.6369
   -11.6338 -11.6338 -11.6338 -11.6336 -11.6335 -11.6335 -11.5374 -11.5112
   -11.5112 -11.4677 -11.4571 -11.4571 -11.4501 -11.4501 -11.4501   1.3596
     1.3893   1.3893   1.3893   1.9897   1.9897   1.9897   2.1212   2.2597
     2.2597   2.2624   2.2624   2.2624   2.2745   2.2745   2.2745   2.2757
     2.2757   2.2757   2.2771   2.2771   2.2771   2.2777   2.2793   2.2793
     2.2826   2.2826   2.2826   2.4318   2.4318   2.4318   2.5079   2.6309
     2.6309   2.6309   2.6364   2.6364   2.6384   2.6384   2.6384   2.7904
     2.7904   2.7904   3.2326   3.2326   3.2326   3.2370   3.2370   3.2370
     3.2499   3.2499   3.2499   3.3172   3.3453   3.3453   3.3453   3.6061
     3.6061   3.6061   3.6093   3.6122   3.6122   3.6122   3.6129   3.6263
     3.6263   3.7613   3.7613   3.7613   4.3021   4.3021   4.3055   4.3055
     4.3055   4.3180   4.3180   4.3180   4.3184   4.3234   4.3234   4.3234
     4.3434   4.3845   4.3845   4.3845   4.3878   4.3878   4.3878   4.3945
     4.3945   4.3945   4.3958   4.3958   4.3987   4.3999   4.3999   4.3999
     4.4075   4.4075   4.4118   4.4118   4.4118   4.5078   4.5079   4.5079
     4.5327   4.5553   4.5553   4.8211   4.8211   4.8211   5.0371   5.0371
     5.0371   5.1027   5.1027   5.1027   5.3780   5.3881   5.3881   5.3887
     5.3887   5.3887   5.3956   5.3956   5.3988   5.3988   5.3988   5.4019
     5.4019   5.4019   5.4026   5.4026   5.4026   5.4049   5.4049   5.4049
     5.4080   5.5615   5.5615   5.5615   5.7169   5.7169   5.7169   5.7180
     5.7180   5.7180   5.7281   5.7281   5.7281   5.7419   5.7419   5.7419
     5.7984   5.7984   5.7984   5.7986   5.8028   5.8028   5.8028   5.8100
     5.8100   5.8137   5.8137   5.8137   5.8155   5.8155   5.8188   5.8188
     5.8188   6.0750   6.0750   6.0750   6.1652   6.1652   6.1676   6.1676
     6.1676   6.1803   6.1803   6.1827   6.1827   6.1827   6.1844   6.1844
     6.1844   6.5643   6.5643   6.5643  10.0930  15.1572  16.7350  16.7350
    16.7350  17.4970  17.4970  17.4970  17.4983  17.8715  17.8911  17.8911

     occupation numbers 
     1.0000   1.0000   1.0000   1.0000   1.0000   1.0000   1.0000   1.0000
     1.0000   1.0000   1.0000   1.0000   1.0000   1.0000   1.0000   1.0000
     1.0000   1.0000   1.0000   1.0000   1.0000   1.0000   1.0000   1.0000
     1.0000   1.0000   1.0000   1.0000   1.0000   1.0000   1.0000   1.0000
     1.0000   1.0000   1.0000   1.0000   1.0000   1.0000   1.0000   1.0000
     1.0000   1.0000   1.0000   1.0000   1.0000   1.0000   1.0000   1.0000
     1.0000   1.0000   1.0000   1.0000   1.0000   1.0000   1.0000   1.0000
     1.0000   1.0000   1.0000   1.0000   1.0000   1.0000   1.0000   1.0000
     1.0000   1.0000   1.0000   1.0000   1.0000   1.0000   1.0000   1.0000
     1.0000   1.0000   1.0000   1.0000   1.0000   1.0000   1.0000   1.0000
     1.0000   1.0000   1.0000   1.0000   1.0000   1.0000   1.0000   1.0000
     1.0000   1.0000   1.0000   1.0000   1.0000   1.0000   1.0000   1.0000
     1.0000   1.0000   1.0000   1.0000   1.0000   1.0000   1.0000   1.0000
     1.0000   1.0000   1.0000   1.0000   1.0000   1.0000   1.0000   1.0000
     1.0000   1.0000   1.0000   1.0000   1.0000   1.0000   1.0000   1.0000
     1.0000   1.0000   1.0000   1.0000   1.0000   1.0000   1.0000   1.0000
     1.0000   1.0000   1.0000   1.0000   1.0000   1.0000   1.0000   1.0000
     1.0000   1.0000   1.0000   1.0000   1.0000   1.0000   1.0000   1.0000
     1.0000   1.0000   1.0000   1.0000   1.0000   1.0000   1.0000   1.0000
     1.0000   1.0000   1.0000   1.0000   1.0000   1.0000   1.0000   1.0000
     1.0000   1.0000   1.0000   1.0000   1.0000   1.0000   1.0000   1.0000
     1.0000   1.0000   1.0000   1.0000   1.0000   1.0000   1.0000   1.0000
     1.0000   1.0000   1.0000   1.0000   1.0000   1.0000   1.0000   1.0000
     1.0000   1.0000   1.0000   1.0000   1.0000   1.0000   1.0000   1.0000
     1.0000   1.0000   1.0000   1.0000   1.0000   1.0000   1.0000   1.0000
     1.0000   1.0000   1.0000   1.0000   1.0000   1.0000   1.0000   1.0000
     1.0000   1.0000   1.0000   1.0000   1.0000   1.0000   1.0000   1.0000
     1.0000   1.0000   1.0000   1.0000   1.0000   1.0000   1.0000   1.0000
     1.0000   1.0000   1.0000   1.0000   1.0000   1.0000   1.0000   1.0000
     1.0000   1.0000   1.0000   1.0000   1.0000   1.0000   1.0000   1.0000
     1.0000   1.0000   1.0000   1.0000   1.0000   1.0000   1.0000   1.0000
     1.0000   1.0000   1.0000   1.0000   1.0000   1.0000   1.0000   1.0000
     1.0000   1.0000   1.0000   1.0000   1.0000   1.0000   1.0000   1.0000
     1.0000   1.0000   1.0000   1.0000   1.0000   1.0000   1.0000   1.0000
     1.0000   1.0000   1.0000   1.0000   1.0000   1.0000   1.0000   1.0000
     1.0000   1.0000   1.0000   1.0000   1.0000   1.0000   1.0000   1.0000
     1.0000   1.0000   1.0000   1.0000   1.0000   1.0000   1.0000   1.0000
     1.0000   1.0000   1.0000   1.0000   1.0000   1.0000   1.0000   1.0000
     1.0000   1.0000   1.0000   1.0000   1.0000   1.0000   1.0000   1.0000
     1.0000   1.0000   1.0000   1.0000   1.0000   1.0000   1.0000   1.0000
     1.0000   1.0000   1.0000   1.0000   1.0000   1.0000   1.0000   1.0000
     1.0000   1.0000   1.0000   1.0000   1.0000   1.0000   1.0000   1.0000
     1.0000   1.0000   1.0000   1.0000   1.0000   1.0000   1.0000   1.0000
     1.0000   1.0000   1.0000   1.0000   1.0000   1.0000   1.0000   1.0000
     1.0000   1.0000   1.0000   1.0000   1.0000   1.0000   1.0000   1.0000
     1.0000   1.0000   1.0000   1.0000   1.0000   1.0000   1.0000   1.0000
     1.0000   1.0000   1.0000   1.0000   1.0000   1.0000   1.0000   1.0000
     1.0000   1.0000   1.0000   1.0000   1.0000   1.0000   1.0000   1.0000
     1.0000   1.0000   1.0000   1.0000   1.0000   1.0000   1.0000   1.0000
     1.0000   1.0000   1.0000   1.0000   1.0000   1.0000   1.0000   1.0000
     1.0000   1.0000   1.0000   1.0000   1.0000   1.0000   1.0000   1.0000
     1.0000   1.0000   1.0000   1.0000   1.0000   1.0000   1.0000   1.0000
     1.0000   1.0000   1.0000   1.0000   1.0000   1.0000   1.0000   1.0000
     1.0000   1.0000   1.0000   1.0000   1.0000   1.0000   1.0000   1.0000
     1.0000   1.0000   1.0000   1.0000   1.0000   1.0000   1.0000   1.0000
     1.0000   1.0000   1.0000   1.0000   1.0000   1.0000   1.0000   1.0000
     1.0000   1.0000   1.0000   1.0000   1.0000   1.0000   1.0000   1.0000
     1.0000   1.0000   1.0000   1.0000   1.0000   1.0000   1.0000   1.0000
     1.0000   1.0000   1.0000   1.0000   1.0000   1.0000   1.0000   1.0000
     1.0000   1.0000   1.0000   1.0000   1.0000   1.0000   1.0000   1.0000
     1.0000   1.0000   1.0000   1.0000   1.0000   1.0000   1.0000   1.0000
     1.0000   1.0000   1.0000   1.0000   1.0000   1.0000   1.0000   1.0000
     1.0000   1.0000   1.0000   1.0000   1.0000   1.0000   1.0000   1.0000
     1.0000   1.0000   1.0000   1.0000   1.0000   0.0000   0.0000   0.0000
     0.0000   0.0000   0.0000   0.0000   0.0000   0.0000   0.0000   0.0000

     highest occupied, lowest unoccupied level (ev):    10.0930   15.1572

!    total energy              =   -8984.30848275 Ry
     Harris-Foulkes estimate   =   -8984.30848275 Ry
     estimated scf accuracy    <          3.9E-09 Ry

     convergence has been achieved in   7 iterations

     total energy              =   -8984.34361012 Ry
     Harris-Foulkes estimate   =   -8984.34361012 Ry
     est. exchange err (dexx)  =       0.03512737 Ry
     - averaged Fock potential =     917.48737504 Ry
     + Fock energy             =    -459.25215682 Ry

     EXX: now go back to refine exchange calculation

     total cpu time spent up to now is     1049.6 secs

     per-process dynamical memory:   148.4 Mb

     Self-consistent Calculation

     iteration #  1     ecut=    60.00 Ry     beta=0.70
     Davidson diagonalization with overlap
     ethr =  2.07E-12,  avg # of iterations = 19.0

     total cpu time spent up to now is     1308.0 secs

     total energy              =   -8984.34790958 Ry
     Harris-Foulkes estimate   =   -8984.34894204 Ry
     estimated scf accuracy    <       0.00161922 Ry

     iteration #  2     ecut=    60.00 Ry     beta=0.70
     Davidson diagonalization with overlap
     ethr =  1.59E-07,  avg # of iterations =  4.0

     total cpu time spent up to now is     1404.4 secs

     total energy              =   -8984.34823983 Ry
     Harris-Foulkes estimate   =   -8984.34861132 Ry
     estimated scf accuracy    <       0.00063024 Ry

     iteration #  3     ecut=    60.00 Ry     beta=0.70
     Davidson diagonalization with overlap
     ethr =  6.19E-08,  avg # of iterations =  4.0

     total cpu time spent up to now is     1499.7 secs

     total energy              =   -8984.34839155 Ry
     Harris-Foulkes estimate   =   -8984.34839801 Ry
     estimated scf accuracy    <       0.00001679 Ry

     iteration #  4     ecut=    60.00 Ry     beta=0.70
     Davidson diagonalization with overlap
     ethr =  1.65E-09,  avg # of iterations =  4.0

     total cpu time spent up to now is     1594.5 secs

     total energy              =   -8984.34839359 Ry
     Harris-Foulkes estimate   =   -8984.34839373 Ry
     estimated scf accuracy    <       0.00000027 Ry

     iteration #  5     ecut=    60.00 Ry     beta=0.70
     Davidson diagonalization with overlap
     ethr =  2.69E-11,  avg # of iterations =  6.0

     total cpu time spent up to now is     1695.1 secs

     total energy              =   -8984.34839367 Ry
     Harris-Foulkes estimate   =   -8984.34839367 Ry
     estimated scf accuracy    <       0.00000002 Ry

     iteration #  6     ecut=    60.00 Ry     beta=0.70
     Davidson diagonalization with overlap
     ethr =  1.81E-12,  avg # of iterations =  6.0

     total cpu time spent up to now is     1795.4 secs

     End of self-consistent calculation

          k = 0.0000 0.0000 0.0000 ( 31244 PWs)   bands (ev):

   -71.8727 -71.8700 -71.8700 -71.8700 -71.8687 -71.8687 -71.8515 -71.8477
   -71.8477 -71.8477 -71.8458 -71.8458 -71.8447 -71.8424 -71.8418 -71.8418
   -71.8418 -71.8414 -71.8412 -71.8412 -71.8412 -71.8399 -71.8399 -71.8399
   -71.8395 -71.8393 -71.8393 -71.8393 -71.8371 -71.8366 -71.8366 -71.8363
   -71.8360 -71.8360 -71.8360 -71.8359 -71.8359 -71.8359 -71.8348 -71.8348
   -71.8348 -71.8348 -71.8338 -71.8338 -71.8338 -71.8337 -71.8337 -71.8334
   -71.8334 -71.8334 -71.8334 -71.8334 -71.8333 -71.8333 -71.8333 -71.8329
   -71.8329 -71.8329 -71.8329 -71.8329 -71.8329 -71.8325 -71.8325 -71.8309
   -34.8665 -34.8636 -34.8636 -34.8636 -34.8523 -34.8523 -34.8523 -34.8484
   -34.8454 -34.8454 -34.8454 -34.8421 -34.8421 -34.8421 -34.8411 -34.8411
   -34.8411 -34.8388 -34.8388 -34.8376 -34.8376 -34.8376 -34.8356 -34.8356
   -34.8356 -34.8343 -34.8343 -34.8335 -34.8335 -34.8335 -34.8328 -34.8325
   -34.8310 -34.8310 -34.8304 -34.8304 -34.8304 -34.8294 -34.8294 -34.8294
   -34.8293 -34.8293 -34.8293 -34.8218 -34.8218 -34.8218 -34.8188 -34.8188
   -34.8188 -34.8156 -34.8156 -34.8156 -34.8152 -34.8152 -34.8152 -34.8139
   -34.8139 -34.8139 -34.8104 -34.8104 -34.8093 -34.8089 -34.8089 -34.8089
   -34.8060 -34.8023 -34.8023 -34.8023 -34.8016 -34.8016 -34.8016 -34.8006
   -34.7990 -34.7990 -34.7990 -34.7989 -34.7989 -34.7983 -34.7983 -34.7983
   -34.7939 -34.7939 -34.7939 -34.7938 -34.7938 -34.7935 -34.7927 -34.7927
   -34.7927 -34.7925 -34.7925 -34.7925 -34.7921 -34.7921 -34.7921 -34.7920
   -34.7920 -34.7920 -34.7919 -34.7915 -34.7915 -34.7915 -34.7912 -34.7912
   -34.7901 -34.7900 -34.7888 -34.7888 -34.7888 -34.7877 -34.7877 -34.7877
   -34.7869 -34.7869 -34.7862 -34.7862 -34.7862 -34.7795 -34.7795 -34.7783
   -34.7783 -34.7783 -34.7781 -34.7781 -34.7781 -34.7773 -34.7773 -34.7773
   -34.7757 -34.7757 -34.7757 -34.7739 -34.7739 -34.7739 -34.7736 -34.7736
   -34.7736 -34.7734 -34.7734 -34.7730 -34.7730 -34.7730 -34.7729 -34.7729
   -34.7729 -34.7719 -34.7716 -34.7716 -34.7716 -34.7711 -34.7699 -34.7699
   -34.7693 -34.7693 -34.7693 -34.7648 -34.7648 -34.7648 -34.7640 -34.7640
   -34.7640 -34.7638 -34.7638 -34.7638 -34.7627 -34.7627 -34.7627 -34.7625
   -34.7625 -34.7625 -34.7600 -34.7600 -34.7597 -34.7592 -34.7592 -34.7592
   -34.7587 -34.7587 -34.7582 -34.7582 -34.7582 -34.7565 -34.7565 -34.7565
   -34.7558 -34.7558 -34.7558 -34.7554 -34.7554 -34.7543 -34.7543 -34.7543
   -13.1770 -12.5383 -12.5383 -12.5383 -12.5314 -12.5314 -12.5314 -12.5210
   -12.4736 -12.3738 -12.3738 -12.3634 -12.3634 -12.3634 -12.2683 -11.8604
   -11.8604 -11.8487 -11.8487 -11.8487 -11.8486 -11.8486 -11.8486 -11.8433
   -11.8433 -11.8433 -11.7951 -11.7390 -11.7390 -11.7390 -11.7367 -11.6661
   -11.6661 -11.6661 -11.6586 -11.6586 -11.6571 -11.6571 -11.6571 -11.6524
   -11.6524 -11.6524 -11.6440 -11.6440 -11.6440 -11.6397 -11.6397 -11.6397
   -11.6369 -11.6368 -11.6368 -11.6368 -11.6366 -11.6366 -11.5425 -11.5164
   -11.5164 -11.4715 -11.4600 -11.4600 -11.4529 -11.4529 -11.4529   1.3781
     1.4073   1.4073   1.4073   2.0009   2.0009   2.0009   2.1357   2.2730
     2.2730   2.2755   2.2755   2.2755   2.2874   2.2874   2.2874   2.2885
     2.2885   2.2885   2.2896   2.2896   2.2896   2.2909   2.2917   2.2917
     2.2948   2.2948   2.2948   2.4444   2.4444   2.4444   2.5217   2.6447
     2.6447   2.6447   2.6500   2.6500   2.6523   2.6523   2.6523   2.8033
     2.8033   2.8033   3.2383   3.2383   3.2383   3.2428   3.2428   3.2428
     3.2550   3.2550   3.2550   3.3326   3.3527   3.3527   3.3527   3.6191
     3.6191   3.6191   3.6225   3.6251   3.6251   3.6251   3.6254   3.6395
     3.6395   3.7723   3.7723   3.7723   4.3045   4.3045   4.3076   4.3076
     4.3076   4.3186   4.3186   4.3186   4.3206   4.3249   4.3249   4.3249
     4.3448   4.3866   4.3866   4.3866   4.3888   4.3888   4.3888   4.3958
     4.3958   4.3958   4.3971   4.3971   4.4000   4.4015   4.4015   4.4015
     4.4071   4.4071   4.4117   4.4117   4.4117   4.5077   4.5077   4.5077
     4.5325   4.5537   4.5537   4.8156   4.8156   4.8156   5.0249   5.0249
     5.0249   5.0913   5.0913   5.0913   5.3666   5.3751   5.3751   5.3765
     5.3765   5.3765   5.3832   5.3832   5.3860   5.3860   5.3860   5.3892
     5.3892   5.3892   5.3894   5.3894   5.3894   5.3920   5.3920   5.3920
     5.3948   5.5492   5.5492   5.5492   5.7053   5.7053   5.7053   5.7058
     5.7058   5.7058   5.7156   5.7156   5.7156   5.7288   5.7288   5.7288
     5.7846   5.7846   5.7846   5.7853   5.7895   5.7895   5.7895   5.7957
     5.7957   5.7975   5.7975   5.7975   5.7988   5.7988   5.8018   5.8018
     5.8018   6.0596   6.0596   6.0596   6.1490   6.1490   6.1517   6.1517
     6.1517   6.1639   6.1639   6.1660   6.1660   6.1660   6.1676   6.1676
     6.1676   6.5448   6.5448   6.5448  10.0708  15.2360  16.7882  16.7882
    16.7882  17.5540  17.5540  17.5540  17.5541  17.9235  17.9389  17.9389

     occupation numbers 
     1.0000   1.0000   1.0000   1.0000   1.0000   1.0000   1.0000   1.0000
     1.0000   1.0000   1.0000   1.0000   1.0000   1.0000   1.0000   1.0000
     1.0000   1.0000   1.0000   1.0000   1.0000   1.0000   1.0000   1.0000
     1.0000   1.0000   1.0000   1.0000   1.0000   1.0000   1.0000   1.0000
     1.0000   1.0000   1.0000   1.0000   1.0000   1.0000   1.0000   1.0000
     1.0000   1.0000   1.0000   1.0000   1.0000   1.0000   1.0000   1.0000
     1.0000   1.0000   1.0000   1.0000   1.0000   1.0000   1.0000   1.0000
     1.0000   1.0000   1.0000   1.0000   1.0000   1.0000   1.0000   1.0000
     1.0000   1.0000   1.0000   1.0000   1.0000   1.0000   1.0000   1.0000
     1.0000   1.0000   1.0000   1.0000   1.0000   1.0000   1.0000   1.0000
     1.0000   1.0000   1.0000   1.0000   1.0000   1.0000   1.0000   1.0000
     1.0000   1.0000   1.0000   1.0000   1.0000   1.0000   1.0000   1.0000
     1.0000   1.0000   1.0000   1.0000   1.0000   1.0000   1.0000   1.0000
     1.0000   1.0000   1.0000   1.0000   1.0000   1.0000   1.0000   1.0000
     1.0000   1.0000   1.0000   1.0000   1.0000   1.0000   1.0000   1.0000
     1.0000   1.0000   1.0000   1.0000   1.0000   1.0000   1.0000   1.0000
     1.0000   1.0000   1.0000   1.0000   1.0000   1.0000   1.0000   1.0000
     1.0000   1.0000   1.0000   1.0000   1.0000   1.0000   1.0000   1.0000
     1.0000   1.0000   1.0000   1.0000   1.0000   1.0000   1.0000   1.0000
     1.0000   1.0000   1.0000   1.0000   1.0000   1.0000   1.0000   1.0000
     1.0000   1.0000   1.0000   1.0000   1.0000   1.0000   1.0000   1.0000
     1.0000   1.0000   1.0000   1.0000   1.0000   1.0000   1.0000   1.0000
     1.0000   1.0000   1.0000   1.0000   1.0000   1.0000   1.0000   1.0000
     1.0000   1.0000   1.0000   1.0000   1.0000   1.0000   1.0000   1.0000
     1.0000   1.0000   1.0000   1.0000   1.0000   1.0000   1.0000   1.0000
     1.0000   1.0000   1.0000   1.0000   1.0000   1.0000   1.0000   1.0000
     1.0000   1.0000   1.0000   1.0000   1.0000   1.0000   1.0000   1.0000
     1.0000   1.0000   1.0000   1.0000   1.0000   1.0000   1.0000   1.0000
     1.0000   1.0000   1.0000   1.0000   1.0000   1.0000   1.0000   1.0000
     1.0000   1.0000   1.0000   1.0000   1.0000   1.0000   1.0000   1.0000
     1.0000   1.0000   1.0000   1.0000   1.0000   1.0000   1.0000   1.0000
     1.0000   1.0000   1.0000   1.0000   1.0000   1.0000   1.0000   1.0000
     1.0000   1.0000   1.0000   1.0000   1.0000   1.0000   1.0000   1.0000
     1.0000   1.0000   1.0000   1.0000   1.0000   1.0000   1.0000   1.0000
     1.0000   1.0000   1.0000   1.0000   1.0000   1.0000   1.0000   1.0000
     1.0000   1.0000   1.0000   1.0000   1.0000   1.0000   1.0000   1.0000
     1.0000   1.0000   1.0000   1.0000   1.0000   1.0000   1.0000   1.0000
     1.0000   1.0000   1.0000   1.0000   1.0000   1.0000   1.0000   1.0000
     1.0000   1.0000   1.0000   1.0000   1.0000   1.0000   1.0000   1.0000
     1.0000   1.0000   1.0000   1.0000   1.0000   1.0000   1.0000   1.0000
     1.0000   1.0000   1.0000   1.0000   1.0000   1.0000   1.0000   1.0000
     1.0000   1.0000   1.0000   1.0000   1.0000   1.0000   1.0000   1.0000
     1.0000   1.0000   1.0000   1.0000   1.0000   1.0000   1.0000   1.0000
     1.0000   1.0000   1.0000   1.0000   1.0000   1.0000   1.0000   1.0000
     1.0000   1.0000   1.0000   1.0000   1.0000   1.0000   1.0000   1.0000
     1.0000   1.0000   1.0000   1.0000   1.0000   1.0000   1.0000   1.0000
     1.0000   1.0000   1.0000   1.0000   1.0000   1.0000   1.0000   1.0000
     1.0000   1.0000   1.0000   1.0000   1.0000   1.0000   1.0000   1.0000
     1.0000   1.0000   1.0000   1.0000   1.0000   1.0000   1.0000   1.0000
     1.0000   1.0000   1.0000   1.0000   1.0000   1.0000   1.0000   1.0000
     1.0000   1.0000   1.0000   1.0000   1.0000   1.0000   1.0000   1.0000
     1.0000   1.0000   1.0000   1.0000   1.0000   1.0000   1.0000   1.0000
     1.0000   1.0000   1.0000   1.0000   1.0000   1.0000   1.0000   1.0000
     1.0000   1.0000   1.0000   1.0000   1.0000   1.0000   1.0000   1.0000
     1.0000   1.0000   1.0000   1.0000   1.0000   1.0000   1.0000   1.0000
     1.0000   1.0000   1.0000   1.0000   1.0000   1.0000   1.0000   1.0000
     1.0000   1.0000   1.0000   1.0000   1.0000   1.0000   1.0000   1.0000
     1.0000   1.0000   1.0000   1.0000   1.0000   1.0000   1.0000   1.0000
     1.0000   1.0000   1.0000   1.0000   1.0000   1.0000   1.0000   1.0000
     1.0000   1.0000   1.0000   1.0000   1.0000   1.0000   1.0000   1.0000
     1.0000   1.0000   1.0000   1.0000   1.0000   1.0000   1.0000   1.0000
     1.0000   1.0000   1.0000   1.0000   1.0000   1.0000   1.0000   1.0000
     1.0000   1.0000   1.0000   1.0000   1.0000   1.0000   1.0000   1.0000
     1.0000   1.0000   1.0000   1.0000   1.0000   0.0000   0.0000   0.0000
     0.0000   0.0000   0.0000   0.0000   0.0000   0.0000   0.0000   0.0000

     highest occupied, lowest unoccupied level (ev):    10.0708   15.2360

!    total energy              =   -8984.34839368 Ry
     Harris-Foulkes estimate   =   -8984.34839368 Ry
     estimated scf accuracy    <          2.4E-09 Ry

     convergence has been achieved in   6 iterations

     total energy              =   -8984.34913024 Ry
     Harris-Foulkes estimate   =   -8984.34913024 Ry
     est. exchange err (dexx)  =       0.00073657 Ry
     - averaged Fock potential =     918.66354394 Ry
     + Fock energy             =    -459.41212369 Ry

     EXX: now go back to refine exchange calculation

     total cpu time spent up to now is     1830.8 secs

     per-process dynamical memory:   156.2 Mb

     Self-consistent Calculation

     iteration #  1     ecut=    60.00 Ry     beta=0.70
     Davidson diagonalization with overlap
     ethr =  1.81E-12,  avg # of iterations = 16.0

     total cpu time spent up to now is     2039.4 secs

     total energy              =   -8984.34923171 Ry
     Harris-Foulkes estimate   =   -8984.34927423 Ry
     estimated scf accuracy    <       0.00006191 Ry

     iteration #  2     ecut=    60.00 Ry     beta=0.70
     Davidson diagonalization with overlap
     ethr =  6.08E-09,  avg # of iterations =  5.0

     total cpu time spent up to now is     2140.5 secs

     total energy              =   -8984.34924706 Ry
     Harris-Foulkes estimate   =   -8984.34926295 Ry
     estimated scf accuracy    <       0.00002737 Ry

     iteration #  3     ecut=    60.00 Ry     beta=0.70
     Davidson diagonalization with overlap
     ethr =  2.69E-09,  avg # of iterations =  4.0

     total cpu time spent up to now is     2235.4 secs

     total energy              =   -8984.34925342 Ry
     Harris-Foulkes estimate   =   -8984.34925353 Ry
     estimated scf accuracy    <       0.00000035 Ry

     iteration #  4     ecut=    60.00 Ry     beta=0.70
     Davidson diagonalization with overlap
     ethr =  3.47E-11,  avg # of iterations =  5.0

     total cpu time spent up to now is     2331.1 secs

     total energy              =   -8984.34925346 Ry
     Harris-Foulkes estimate   =   -8984.34925347 Ry
     estimated scf accuracy    <       0.00000002 Ry

     iteration #  5     ecut=    60.00 Ry     beta=0.70
     Davidson diagonalization with overlap
     ethr =  1.61E-12,  avg # of iterations =  5.0

     total cpu time spent up to now is     2429.4 secs

     End of self-consistent calculation

          k = 0.0000 0.0000 0.0000 ( 31244 PWs)   bands (ev):

   -71.8726 -71.8699 -71.8699 -71.8699 -71.8685 -71.8685 -71.8526 -71.8488
   -71.8488 -71.8488 -71.8469 -71.8469 -71.8456 -71.8431 -71.8427 -71.8427
   -71.8427 -71.8424 -71.8419 -71.8419 -71.8419 -71.8410 -71.8410 -71.8410
   -71.8405 -71.8403 -71.8403 -71.8403 -71.8381 -71.8377 -71.8377 -71.8374
   -71.8370 -71.8370 -71.8370 -71.8370 -71.8370 -71.8370 -71.8359 -71.8359
   -71.8359 -71.8359 -71.8349 -71.8349 -71.8349 -71.8349 -71.8349 -71.8345
   -71.8345 -71.8345 -71.8344 -71.8344 -71.8343 -71.8343 -71.8343 -71.8339
   -71.8339 -71.8339 -71.8339 -71.8339 -71.8339 -71.8336 -71.8336 -71.8320
   -34.8682 -34.8656 -34.8656 -34.8656 -34.8538 -34.8538 -34.8538 -34.8503
   -34.8474 -34.8474 -34.8474 -34.8444 -34.8444 -34.8444 -34.8430 -34.8430
   -34.8430 -34.8407 -34.8407 -34.8397 -34.8397 -34.8397 -34.8378 -34.8378
   -34.8378 -34.8366 -34.8366 -34.8359 -34.8359 -34.8359 -34.8353 -34.8348
   -34.8331 -34.8331 -34.8326 -34.8326 -34.8326 -34.8317 -34.8317 -34.8317
   -34.8315 -34.8315 -34.8315 -34.8238 -34.8238 -34.8238 -34.8209 -34.8209
   -34.8209 -34.8179 -34.8179 -34.8179 -34.8175 -34.8175 -34.8175 -34.8161
   -34.8161 -34.8161 -34.8123 -34.8123 -34.8116 -34.8112 -34.8112 -34.8112
   -34.8084 -34.8045 -34.8045 -34.8045 -34.8034 -34.8034 -34.8034 -34.8029
   -34.8011 -34.8011 -34.8010 -34.8010 -34.8010 -34.8005 -34.8005 -34.8005
   -34.7961 -34.7961 -34.7961 -34.7961 -34.7961 -34.7958 -34.7950 -34.7950
   -34.7950 -34.7950 -34.7950 -34.7950 -34.7944 -34.7944 -34.7944 -34.7944
   -34.7944 -34.7944 -34.7941 -34.7939 -34.7939 -34.7939 -34.7936 -34.7936
   -34.7924 -34.7924 -34.7911 -34.7911 -34.7911 -34.7901 -34.7901 -34.7901
   -34.7893 -34.7893 -34.7887 -34.7887 -34.7887 -34.7819 -34.7819 -34.7807
   -34.7807 -34.7807 -34.7804 -34.7804 -34.7804 -34.7797 -34.7797 -34.7797
   -34.7780 -34.7780 -34.7780 -34.7763 -34.7763 -34.7763 -34.7759 -34.7759
   -34.7759 -34.7758 -34.7758 -34.7754 -34.7754 -34.7754 -34.7753 -34.7753
   -34.7753 -34.7743 -34.7740 -34.7740 -34.7740 -34.7736 -34.7722 -34.7722
   -34.7717 -34.7717 -34.7717 -34.7671 -34.7671 -34.7671 -34.7663 -34.7663
   -34.7663 -34.7662 -34.7662 -34.7662 -34.7651 -34.7651 -34.7651 -34.7649
   -34.7649 -34.7649 -34.7625 -34.7625 -34.7621 -34.7617 -34.7617 -34.7617
   -34.7611 -34.7611 -34.7606 -34.7606 -34.7606 -34.7590 -34.7590 -34.7590
   -34.7582 -34.7582 -34.7582 -34.7578 -34.7578 -34.7568 -34.7568 -34.7568
   -13.1747 -12.5361 -12.5361 -12.5361 -12.5292 -12.5292 -12.5292 -12.5190
   -12.4715 -12.3717 -12.3717 -12.3612 -12.3612 -12.3612 -12.2659 -11.8586
   -11.8586 -11.8468 -11.8468 -11.8468 -11.8467 -11.8467 -11.8467 -11.8415
   -11.8415 -11.8415 -11.7935 -11.7375 -11.7375 -11.7375 -11.7353 -11.6644
   -11.6644 -11.6644 -11.6566 -11.6566 -11.6552 -11.6552 -11.6552 -11.6506
   -11.6506 -11.6506 -11.6425 -11.6425 -11.6425 -11.6380 -11.6380 -11.6380
   -11.6355 -11.6353 -11.6353 -11.6353 -11.6351 -11.6351 -11.5411 -11.5150
   -11.5150 -11.4701 -11.4584 -11.4584 -11.4513 -11.4513 -11.4513   1.3812
     1.4103   1.4103   1.4103   2.0030   2.0030   2.0030   2.1384   2.2755
     2.2755   2.2779   2.2779   2.2779   2.2898   2.2898   2.2898   2.2909
     2.2909   2.2909   2.2918   2.2918   2.2918   2.2934   2.2940   2.2940
     2.2970   2.2970   2.2970   2.4467   2.4467   2.4467   2.5243   2.6473
     2.6473   2.6473   2.6525   2.6525   2.6549   2.6549   2.6549   2.8057
     2.8057   2.8057   3.2394   3.2394   3.2394   3.2441   3.2441   3.2441
     3.2561   3.2561   3.2561   3.3357   3.3542   3.3542   3.3542   3.6216
     3.6216   3.6216   3.6250   3.6276   3.6276   3.6276   3.6278   3.6421
     3.6421   3.7745   3.7745   3.7745   4.3050   4.3050   4.3081   4.3081
     4.3081   4.3188   4.3188   4.3188   4.3211   4.3253   4.3253   4.3253
     4.3452   4.3871   4.3871   4.3871   4.3890   4.3890   4.3890   4.3961
     4.3961   4.3961   4.3975   4.3975   4.4003   4.4019   4.4019   4.4019
     4.4071   4.4071   4.4117   4.4117   4.4117   4.5077   4.5077   4.5077
     4.5325   4.5533   4.5533   4.8147   4.8147   4.8147   5.0233   5.0233
     5.0233   5.0899   5.0899   5.0899   5.3653   5.3734   5.3734   5.3750
     5.3750   5.3750   5.3817   5.3817   5.3843   5.3843   5.3843   5.3876
     5.3876   5.3876   5.3877   5.3877   5.3877   5.3901   5.3901   5.3901
     5.3930   5.5476   5.5476   5.5476   5.7038   5.7038   5.7038   5.7041
     5.7041   5.7041   5.7139   5.7139   5.7139   5.7272   5.7272   5.7272
     5.7825   5.7825   5.7825   5.7836   5.7878   5.7878   5.7878   5.7936
     5.7936   5.7954   5.7954   5.7954   5.7967   5.7967   5.7995   5.7995
     5.7995   6.0576   6.0576   6.0576   6.1470   6.1470   6.1497   6.1497
     6.1497   6.1618   6.1618   6.1636   6.1636   6.1636   6.1653   6.1653
     6.1653   6.5423   6.5423   6.5423  10.0641  15.2489  16.7987  16.7987
    16.7987  17.5633  17.5635  17.5635  17.5635  17.9318  17.9467  17.9467

     occupation numbers 
     1.0000   1.0000   1.0000   1.0000   1.0000   1.0000   1.0000   1.0000
     1.0000   1.0000   1.0000   1.0000   1.0000   1.0000   1.0000   1.0000
     1.0000   1.0000   1.0000   1.0000   1.0000   1.0000   1.0000   1.0000
     1.0000   1.0000   1.0000   1.0000   1.0000   1.0000   1.0000   1.0000
     1.0000   1.0000   1.0000   1.0000   1.0000   1.0000   1.0000   1.0000
     1.0000   1.0000   1.0000   1.0000   1.0000   1.0000   1.0000   1.0000
     1.0000   1.0000   1.0000   1.0000   1.0000   1.0000   1.0000   1.0000
     1.0000   1.0000   1.0000   1.0000   1.0000   1.0000   1.0000   1.0000
     1.0000   1.0000   1.0000   1.0000   1.0000   1.0000   1.0000   1.0000
     1.0000   1.0000   1.0000   1.0000   1.0000   1.0000   1.0000   1.0000
     1.0000   1.0000   1.0000   1.0000   1.0000   1.0000   1.0000   1.0000
     1.0000   1.0000   1.0000   1.0000   1.0000   1.0000   1.0000   1.0000
     1.0000   1.0000   1.0000   1.0000   1.0000   1.0000   1.0000   1.0000
     1.0000   1.0000   1.0000   1.0000   1.0000   1.0000   1.0000   1.0000
     1.0000   1.0000   1.0000   1.0000   1.0000   1.0000   1.0000   1.0000
     1.0000   1.0000   1.0000   1.0000   1.0000   1.0000   1.0000   1.0000
     1.0000   1.0000   1.0000   1.0000   1.0000   1.0000   1.0000   1.0000
     1.0000   1.0000   1.0000   1.0000   1.0000   1.0000   1.0000   1.0000
     1.0000   1.0000   1.0000   1.0000   1.0000   1.0000   1.0000   1.0000
     1.0000   1.0000   1.0000   1.0000   1.0000   1.0000   1.0000   1.0000
     1.0000   1.0000   1.0000   1.0000   1.0000   1.0000   1.0000   1.0000
     1.0000   1.0000   1.0000   1.0000   1.0000   1.0000   1.0000   1.0000
     1.0000   1.0000   1.0000   1.0000   1.0000   1.0000   1.0000   1.0000
     1.0000   1.0000   1.0000   1.0000   1.0000   1.0000   1.0000   1.0000
     1.0000   1.0000   1.0000   1.0000   1.0000   1.0000   1.0000   1.0000
     1.0000   1.0000   1.0000   1.0000   1.0000   1.0000   1.0000   1.0000
     1.0000   1.0000   1.0000   1.0000   1.0000   1.0000   1.0000   1.0000
     1.0000   1.0000   1.0000   1.0000   1.0000   1.0000   1.0000   1.0000
     1.0000   1.0000   1.0000   1.0000   1.0000   1.0000   1.0000   1.0000
     1.0000   1.0000   1.0000   1.0000   1.0000   1.0000   1.0000   1.0000
     1.0000   1.0000   1.0000   1.0000   1.0000   1.0000   1.0000   1.0000
     1.0000   1.0000   1.0000   1.0000   1.0000   1.0000   1.0000   1.0000
     1.0000   1.0000   1.0000   1.0000   1.0000   1.0000   1.0000   1.0000
     1.0000   1.0000   1.0000   1.0000   1.0000   1.0000   1.0000   1.0000
     1.0000   1.0000   1.0000   1.0000   1.0000   1.0000   1.0000   1.0000
     1.0000   1.0000   1.0000   1.0000   1.0000   1.0000   1.0000   1.0000
     1.0000   1.0000   1.0000   1.0000   1.0000   1.0000   1.0000   1.0000
     1.0000   1.0000   1.0000   1.0000   1.0000   1.0000   1.0000   1.0000
     1.0000   1.0000   1.0000   1.0000   1.0000   1.0000   1.0000   1.0000
     1.0000   1.0000   1.0000   1.0000   1.0000   1.0000   1.0000   1.0000
     1.0000   1.0000   1.0000   1.0000   1.0000   1.0000   1.0000   1.0000
     1.0000   1.0000   1.0000   1.0000   1.0000   1.0000   1.0000   1.0000
     1.0000   1.0000   1.0000   1.0000   1.0000   1.0000   1.0000   1.0000
     1.0000   1.0000   1.0000   1.0000   1.0000   1.0000   1.0000   1.0000
     1.0000   1.0000   1.0000   1.0000   1.0000   1.0000   1.0000   1.0000
     1.0000   1.0000   1.0000   1.0000   1.0000   1.0000   1.0000   1.0000
     1.0000   1.0000   1.0000   1.0000   1.0000   1.0000   1.0000   1.0000
     1.0000   1.0000   1.0000   1.0000   1.0000   1.0000   1.0000   1.0000
     1.0000   1.0000   1.0000   1.0000   1.0000   1.0000   1.0000   1.0000
     1.0000   1.0000   1.0000   1.0000   1.0000   1.0000   1.0000   1.0000
     1.0000   1.0000   1.0000   1.0000   1.0000   1.0000   1.0000   1.0000
     1.0000   1.0000   1.0000   1.0000   1.0000   1.0000   1.0000   1.0000
     1.0000   1.0000   1.0000   1.0000   1.0000   1.0000   1.0000   1.0000
     1.0000   1.0000   1.0000   1.0000   1.0000   1.0000   1.0000   1.0000
     1.0000   1.0000   1.0000   1.0000   1.0000   1.0000   1.0000   1.0000
     1.0000   1.0000   1.0000   1.0000   1.0000   1.0000   1.0000   1.0000
     1.0000   1.0000   1.0000   1.0000   1.0000   1.0000   1.0000   1.0000
     1.0000   1.0000   1.0000   1.0000   1.0000   1.0000   1.0000   1.0000
     1.0000   1.0000   1.0000   1.0000   1.0000   1.0000   1.0000   1.0000
     1.0000   1.0000   1.0000   1.0000   1.0000   1.0000   1.0000   1.0000
     1.0000   1.0000   1.0000   1.0000   1.0000   1.0000   1.0000   1.0000
     1.0000   1.0000   1.0000   1.0000   1.0000   1.0000   1.0000   1.0000
     1.0000   1.0000   1.0000   1.0000   1.0000   1.0000   1.0000   1.0000
     1.0000   1.0000   1.0000   1.0000   1.0000   0.0000   0.0000   0.0000
     0.0000   0.0000   0.0000   0.0000   0.0000   0.0000   0.0000   0.0000

     highest occupied, lowest unoccupied level (ev):    10.0641   15.2489

!    total energy              =   -8984.34925346 Ry
     Harris-Foulkes estimate   =   -8984.34925346 Ry
     estimated scf accuracy    <          1.2E-09 Ry

     convergence has been achieved in   5 iterations

     total energy              =   -8984.34927550 Ry
     Harris-Foulkes estimate   =   -8984.34927550 Ry
     est. exchange err (dexx)  =       0.00002204 Ry
     - averaged Fock potential =     918.85083208 Ry
     + Fock energy             =    -459.43873043 Ry

     EXX: now go back to refine exchange calculation

     total cpu time spent up to now is     2464.7 secs

     per-process dynamical memory:   163.1 Mb

     Self-consistent Calculation

     iteration #  1     ecut=    60.00 Ry     beta=0.70
     Davidson diagonalization with overlap
     ethr =  1.61E-12,  avg # of iterations =  9.0

     total cpu time spent up to now is     2628.5 secs

     total energy              =   -8984.34927891 Ry
     Harris-Foulkes estimate   =   -8984.34928046 Ry
     estimated scf accuracy    <       0.00000221 Ry

     iteration #  2     ecut=    60.00 Ry     beta=0.70
     Davidson diagonalization with overlap
     ethr =  2.17E-10,  avg # of iterations =  5.0

     total cpu time spent up to now is     2729.6 secs

     total energy              =   -8984.34927947 Ry
     Harris-Foulkes estimate   =   -8984.34928004 Ry
     estimated scf accuracy    <       0.00000097 Ry

     iteration #  3     ecut=    60.00 Ry     beta=0.70
     Davidson diagonalization with overlap
     ethr =  9.50E-11,  avg # of iterations =  4.0

     total cpu time spent up to now is     2824.9 secs

     total energy              =   -8984.34927970 Ry
     Harris-Foulkes estimate   =   -8984.34927970 Ry
     estimated scf accuracy    <       0.00000001 Ry

     iteration #  4     ecut=    60.00 Ry     beta=0.70
     Davidson diagonalization with overlap
     ethr =  1.06E-12,  avg # of iterations =  5.0

     total cpu time spent up to now is     2921.6 secs

     End of self-consistent calculation

          k = 0.0000 0.0000 0.0000 ( 31244 PWs)   bands (ev):

   -71.8725 -71.8698 -71.8698 -71.8698 -71.8685 -71.8685 -71.8528 -71.8491
   -71.8491 -71.8491 -71.8472 -71.8472 -71.8458 -71.8433 -71.8429 -71.8429
   -71.8429 -71.8427 -71.8421 -71.8421 -71.8421 -71.8412 -71.8412 -71.8412
   -71.8407 -71.8406 -71.8406 -71.8406 -71.8384 -71.8380 -71.8380 -71.8377
   -71.8373 -71.8373 -71.8373 -71.8373 -71.8373 -71.8373 -71.8362 -71.8361
   -71.8361 -71.8361 -71.8351 -71.8351 -71.8351 -71.8351 -71.8351 -71.8347
   -71.8347 -71.8347 -71.8347 -71.8347 -71.8346 -71.8346 -71.8346 -71.8342
   -71.8342 -71.8342 -71.8342 -71.8342 -71.8342 -71.8338 -71.8338 -71.8323
   -34.8684 -34.8659 -34.8659 -34.8659 -34.8540 -34.8540 -34.8540 -34.8506
   -34.8477 -34.8477 -34.8477 -34.8448 -34.8448 -34.8448 -34.8433 -34.8433
   -34.8433 -34.8410 -34.8410 -34.8400 -34.8400 -34.8400 -34.8382 -34.8382
   -34.8382 -34.8370 -34.8370 -34.8363 -34.8363 -34.8363 -34.8357 -34.8352
   -34.8334 -34.8334 -34.8330 -34.8330 -34.8330 -34.8320 -34.8320 -34.8320
   -34.8319 -34.8319 -34.8319 -34.8241 -34.8241 -34.8241 -34.8212 -34.8212
   -34.8212 -34.8183 -34.8183 -34.8183 -34.8178 -34.8178 -34.8178 -34.8164
   -34.8164 -34.8164 -34.8125 -34.8125 -34.8119 -34.8115 -34.8115 -34.8115
   -34.8087 -34.8049 -34.8049 -34.8049 -34.8037 -34.8037 -34.8037 -34.8033
   -34.8015 -34.8015 -34.8013 -34.8013 -34.8013 -34.8008 -34.8008 -34.8008
   -34.7965 -34.7965 -34.7965 -34.7964 -34.7964 -34.7962 -34.7954 -34.7954
   -34.7954 -34.7953 -34.7953 -34.7953 -34.7948 -34.7948 -34.7948 -34.7948
   -34.7948 -34.7948 -34.7944 -34.7942 -34.7942 -34.7942 -34.7940 -34.7940
   -34.7928 -34.7928 -34.7915 -34.7915 -34.7915 -34.7905 -34.7905 -34.7905
   -34.7897 -34.7897 -34.7891 -34.7891 -34.7891 -34.7822 -34.7822 -34.7810
   -34.7810 -34.7810 -34.7808 -34.7808 -34.7808 -34.7800 -34.7800 -34.7800
   -34.7784 -34.7784 -34.7784 -34.7766 -34.7766 -34.7766 -34.7763 -34.7763
   -34.7763 -34.7762 -34.7762 -34.7758 -34.7758 -34.7758 -34.7757 -34.7757
   -34.7757 -34.7747 -34.7744 -34.7744 -34.7744 -34.7740 -34.7726 -34.7726
   -34.7721 -34.7721 -34.7721 -34.7675 -34.7675 -34.7675 -34.7666 -34.7666
   -34.7666 -34.7665 -34.7665 -34.7665 -34.7655 -34.7655 -34.7655 -34.7653
   -34.7653 -34.7653 -34.7629 -34.7629 -34.7625 -34.7621 -34.7621 -34.7621
   -34.7615 -34.7615 -34.7610 -34.7610 -34.7610 -34.7594 -34.7594 -34.7594
   -34.7586 -34.7586 -34.7586 -34.7582 -34.7582 -34.7572 -34.7572 -34.7572
   -13.1742 -12.5355 -12.5355 -12.5355 -12.5287 -12.5287 -12.5287 -12.5185
   -12.4710 -12.3712 -12.3712 -12.3607 -12.3607 -12.3607 -12.2653 -11.8581
   -11.8581 -11.8462 -11.8462 -11.8462 -11.8462 -11.8462 -11.8462 -11.8409
   -11.8409 -11.8409 -11.7931 -11.7371 -11.7371 -11.7371 -11.7349 -11.6639
   -11.6639 -11.6639 -11.6560 -11.6560 -11.6546 -11.6546 -11.6546 -11.6501
   -11.6501 -11.6501 -11.6420 -11.6420 -11.6420 -11.6376 -11.6376 -11.6376
   -11.6351 -11.6349 -11.6349 -11.6349 -11.6347 -11.6347 -11.5407 -11.5145
   -11.5145 -11.4697 -11.4579 -11.4579 -11.4508 -11.4508 -11.4508   1.3817
     1.4108   1.4108   1.4108   2.0034   2.0034   2.0034   2.1389   2.2759
     2.2759   2.2784   2.2784   2.2784   2.2902   2.2902   2.2902   2.2913
     2.2913   2.2913   2.2922   2.2922   2.2922   2.2938   2.2944   2.2944
     2.2974   2.2974   2.2974   2.4471   2.4471   2.4471   2.5247   2.6477
     2.6477   2.6477   2.6529   2.6529   2.6554   2.6554   2.6554   2.8062
     2.8062   2.8062   3.2396   3.2396   3.2396   3.2443   3.2443   3.2443
     3.2563   3.2563   3.2563   3.3363   3.3545   3.3545   3.3545   3.6220
     3.6220   3.6220   3.6254   3.6281   3.6281   3.6281   3.6282   3.6426
     3.6426   3.7750   3.7750   3.7750   4.3051   4.3051   4.3082   4.3082
     4.3082   4.3187   4.3187   4.3187   4.3212   4.3253   4.3253   4.3253
     4.3453   4.3873   4.3873   4.3873   4.3890   4.3890   4.3890   4.3962
     4.3962   4.3962   4.3975   4.3975   4.4003   4.4020   4.4020   4.4020
     4.4070   4.4070   4.4117   4.4117   4.4117   4.5077   4.5077   4.5077
     4.5325   4.5532   4.5532   4.8145   4.8145   4.8145   5.0230   5.0230
     5.0230   5.0896   5.0896   5.0896   5.3652   5.3731   5.3731   5.3748
     5.3748   5.3748   5.3815   5.3815   5.3840   5.3840   5.3840   5.3874
     5.3874   5.3874   5.3874   5.3874   5.3874   5.3897   5.3897   5.3897
     5.3927   5.5473   5.5473   5.5473   5.7036   5.7036   5.7036   5.7038
     5.7038   5.7038   5.7136   5.7136   5.7136   5.7269   5.7269   5.7269
     5.7822   5.7822   5.7822   5.7833   5.7875   5.7875   5.7875   5.7932
     5.7932   5.7950   5.7950   5.7950   5.7964   5.7964   5.7991   5.7991
     5.7991   6.0572   6.0572   6.0572   6.1467   6.1467   6.1495   6.1495
     6.1495   6.1615   6.1615   6.1632   6.1632   6.1632   6.1649   6.1649
     6.1649   6.5419   6.5419   6.5419  10.0623  15.2511  16.8010  16.8010
    16.8010  17.5648  17.5652  17.5652  17.5652  17.9332  17.9480  17.9480

     occupation numbers 
     1.0000   1.0000   1.0000   1.0000   1.0000   1.0000   1.0000   1.0000
     1.0000   1.0000   1.0000   1.0000   1.0000   1.0000   1.0000   1.0000
     1.0000   1.0000   1.0000   1.0000   1.0000   1.0000   1.0000   1.0000
     1.0000   1.0000   1.0000   1.0000   1.0000   1.0000   1.0000   1.0000
     1.0000   1.0000   1.0000   1.0000   1.0000   1.0000   1.0000   1.0000
     1.0000   1.0000   1.0000   1.0000   1.0000   1.0000   1.0000   1.0000
     1.0000   1.0000   1.0000   1.0000   1.0000   1.0000   1.0000   1.0000
     1.0000   1.0000   1.0000   1.0000   1.0000   1.0000   1.0000   1.0000
     1.0000   1.0000   1.0000   1.0000   1.0000   1.0000   1.0000   1.0000
     1.0000   1.0000   1.0000   1.0000   1.0000   1.0000   1.0000   1.0000
     1.0000   1.0000   1.0000   1.0000   1.0000   1.0000   1.0000   1.0000
     1.0000   1.0000   1.0000   1.0000   1.0000   1.0000   1.0000   1.0000
     1.0000   1.0000   1.0000   1.0000   1.0000   1.0000   1.0000   1.0000
     1.0000   1.0000   1.0000   1.0000   1.0000   1.0000   1.0000   1.0000
     1.0000   1.0000   1.0000   1.0000   1.0000   1.0000   1.0000   1.0000
     1.0000   1.0000   1.0000   1.0000   1.0000   1.0000   1.0000   1.0000
     1.0000   1.0000   1.0000   1.0000   1.0000   1.0000   1.0000   1.0000
     1.0000   1.0000   1.0000   1.0000   1.0000   1.0000   1.0000   1.0000
     1.0000   1.0000   1.0000   1.0000   1.0000   1.0000   1.0000   1.0000
     1.0000   1.0000   1.0000   1.0000   1.0000   1.0000   1.0000   1.0000
     1.0000   1.0000   1.0000   1.0000   1.0000   1.0000   1.0000   1.0000
     1.0000   1.0000   1.0000   1.0000   1.0000   1.0000   1.0000   1.0000
     1.0000   1.0000   1.0000   1.0000   1.0000   1.0000   1.0000   1.0000
     1.0000   1.0000   1.0000   1.0000   1.0000   1.0000   1.0000   1.0000
     1.0000   1.0000   1.0000   1.0000   1.0000   1.0000   1.0000   1.0000
     1.0000   1.0000   1.0000   1.0000   1.0000   1.0000   1.0000   1.0000
     1.0000   1.0000   1.0000   1.0000   1.0000   1.0000   1.0000   1.0000
     1.0000   1.0000   1.0000   1.0000   1.0000   1.0000   1.0000   1.0000
     1.0000   1.0000   1.0000   1.0000   1.0000   1.0000   1.0000   1.0000
     1.0000   1.0000   1.0000   1.0000   1.0000   1.0000   1.0000   1.0000
     1.0000   1.0000   1.0000   1.0000   1.0000   1.0000   1.0000   1.0000
     1.0000   1.0000   1.0000   1.0000   1.0000   1.0000   1.0000   1.0000
     1.0000   1.0000   1.0000   1.0000   1.0000   1.0000   1.0000   1.0000
     1.0000   1.0000   1.0000   1.0000   1.0000   1.0000   1.0000   1.0000
     1.0000   1.0000   1.0000   1.0000   1.0000   1.0000   1.0000   1.0000
     1.0000   1.0000   1.0000   1.0000   1.0000   1.0000   1.0000   1.0000
     1.0000   1.0000   1.0000   1.0000   1.0000   1.0000   1.0000   1.0000
     1.0000   1.0000   1.0000   1.0000   1.0000   1.0000   1.0000   1.0000
     1.0000   1.0000   1.0000   1.0000   1.0000   1.0000   1.0000   1.0000
     1.0000   1.0000   1.0000   1.0000   1.0000   1.0000   1.0000   1.0000
     1.0000   1.0000   1.0000   1.0000   1.0000   1.0000   1.0000   1.0000
     1.0000   1.0000   1.0000   1.0000   1.0000   1.0000   1.0000   1.0000
     1.0000   1.0000   1.0000   1.0000   1.0000   1.0000   1.0000   1.0000
     1.0000   1.0000   1.0000   1.0000   1.0000   1.0000   1.0000   1.0000
     1.0000   1.0000   1.0000   1.0000   1.0000   1.0000   1.0000   1.0000
     1.0000   1.0000   1.0000   1.0000   1.0000   1.0000   1.0000   1.0000
     1.0000   1.0000   1.0000   1.0000   1.0000   1.0000   1.0000   1.0000
     1.0000   1.0000   1.0000   1.0000   1.0000   1.0000   1.0000   1.0000
     1.0000   1.0000   1.0000   1.0000   1.0000   1.0000   1.0000   1.0000
     1.0000   1.0000   1.0000   1.0000   1.0000   1.0000   1.0000   1.0000
     1.0000   1.0000   1.0000   1.0000   1.0000   1.0000   1.0000   1.0000
     1.0000   1.0000   1.0000   1.0000   1.0000   1.0000   1.0000   1.0000
     1.0000   1.0000   1.0000   1.0000   1.0000   1.0000   1.0000   1.0000
     1.0000   1.0000   1.0000   1.0000   1.0000   1.0000   1.0000   1.0000
     1.0000   1.0000   1.0000   1.0000   1.0000   1.0000   1.0000   1.0000
     1.0000   1.0000   1.0000   1.0000   1.0000   1.0000   1.0000   1.0000
     1.0000   1.0000   1.0000   1.0000   1.0000   1.0000   1.0000   1.0000
     1.0000   1.0000   1.0000   1.0000   1.0000   1.0000   1.0000   1.0000
     1.0000   1.0000   1.0000   1.0000   1.0000   1.0000   1.0000   1.0000
     1.0000   1.0000   1.0000   1.0000   1.0000   1.0000   1.0000   1.0000
     1.0000   1.0000   1.0000   1.0000   1.0000   1.0000   1.0000   1.0000
     1.0000   1.0000   1.0000   1.0000   1.0000   1.0000   1.0000   1.0000
     1.0000   1.0000   1.0000   1.0000   1.0000   1.0000   1.0000   1.0000
     1.0000   1.0000   1.0000   1.0000   1.0000   0.0000   0.0000   0.0000
     0.0000   0.0000   0.0000   0.0000   0.0000   0.0000   0.0000   0.0000

     highest occupied, lowest unoccupied level (ev):    10.0623   15.2511

!    total energy              =   -8984.34927970 Ry
     Harris-Foulkes estimate   =   -8984.34927970 Ry
     estimated scf accuracy    <          4.7E-10 Ry

     convergence has been achieved in   4 iterations

     total energy              =   -8984.34928055 Ry
     Harris-Foulkes estimate   =   -8984.34928055 Ry
     est. exchange err (dexx)  =       0.00000085 Ry
     - averaged Fock potential =     918.88197100 Ry
     + Fock energy             =    -459.44324141 Ry

     EXX: now go back to refine exchange calculation

     total cpu time spent up to now is     2956.9 secs

     per-process dynamical memory:   163.1 Mb

     Self-consistent Calculation

     iteration #  1     ecut=    60.00 Ry     beta=0.70
     Davidson diagonalization with overlap
     ethr =  1.06E-12,  avg # of iterations =  5.0

     total cpu time spent up to now is     3092.4 secs

     total energy              =   -8984.34928070 Ry
     Harris-Foulkes estimate   =   -8984.34928075 Ry
     estimated scf accuracy    <       0.00000008 Ry

     iteration #  2     ecut=    60.00 Ry     beta=0.70
     Davidson diagonalization with overlap
     ethr =  7.66E-12,  avg # of iterations =  5.0

     total cpu time spent up to now is     3191.2 secs

     total energy              =   -8984.34928072 Ry
     Harris-Foulkes estimate   =   -8984.34928074 Ry
     estimated scf accuracy    <       0.00000003 Ry

     iteration #  3     ecut=    60.00 Ry     beta=0.70
     Davidson diagonalization with overlap
     ethr =  3.14E-12,  avg # of iterations =  4.0

     total cpu time spent up to now is     3286.7 secs

     End of self-consistent calculation

          k = 0.0000 0.0000 0.0000 ( 31244 PWs)   bands (ev):

   -71.8724 -71.8697 -71.8697 -71.8697 -71.8684 -71.8684 -71.8529 -71.8491
   -71.8491 -71.8491 -71.8472 -71.8472 -71.8459 -71.8434 -71.8430 -71.8430
   -71.8430 -71.8428 -71.8422 -71.8422 -71.8422 -71.8413 -71.8413 -71.8413
   -71.8407 -71.8406 -71.8406 -71.8406 -71.8384 -71.8380 -71.8380 -71.8377
   -71.8374 -71.8374 -71.8374 -71.8373 -71.8373 -71.8373 -71.8362 -71.8362
   -71.8362 -71.8362 -71.8352 -71.8352 -71.8352 -71.8352 -71.8352 -71.8348
   -71.8348 -71.8348 -71.8348 -71.8348 -71.8347 -71.8347 -71.8347 -71.8343
   -71.8343 -71.8343 -71.8342 -71.8342 -71.8342 -71.8339 -71.8339 -71.8323
   -34.8684 -34.8660 -34.8660 -34.8660 -34.8539 -34.8539 -34.8539 -34.8506
   -34.8477 -34.8477 -34.8477 -34.8449 -34.8449 -34.8449 -34.8433 -34.8433
   -34.8433 -34.8410 -34.8410 -34.8400 -34.8400 -34.8400 -34.8382 -34.8382
   -34.8382 -34.8371 -34.8371 -34.8364 -34.8364 -34.8364 -34.8357 -34.8352
   -34.8335 -34.8335 -34.8330 -34.8330 -34.8330 -34.8321 -34.8321 -34.8321
   -34.8319 -34.8319 -34.8319 -34.8242 -34.8242 -34.8242 -34.8212 -34.8212
   -34.8212 -34.8183 -34.8183 -34.8183 -34.8179 -34.8179 -34.8179 -34.8164
   -34.8164 -34.8164 -34.8125 -34.8125 -34.8120 -34.8116 -34.8116 -34.8116
   -34.8088 -34.8049 -34.8049 -34.8049 -34.8037 -34.8037 -34.8037 -34.8034
   -34.8015 -34.8015 -34.8013 -34.8013 -34.8013 -34.8009 -34.8009 -34.8009
   -34.7965 -34.7965 -34.7965 -34.7965 -34.7965 -34.7962 -34.7954 -34.7954
   -34.7954 -34.7954 -34.7954 -34.7954 -34.7949 -34.7949 -34.7949 -34.7949
   -34.7949 -34.7949 -34.7944 -34.7943 -34.7943 -34.7943 -34.7941 -34.7941
   -34.7929 -34.7928 -34.7916 -34.7916 -34.7916 -34.7906 -34.7906 -34.7906
   -34.7898 -34.7898 -34.7891 -34.7891 -34.7891 -34.7823 -34.7823 -34.7811
   -34.7811 -34.7811 -34.7808 -34.7808 -34.7808 -34.7801 -34.7801 -34.7801
   -34.7785 -34.7785 -34.7785 -34.7767 -34.7767 -34.7767 -34.7764 -34.7764
   -34.7764 -34.7763 -34.7763 -34.7759 -34.7759 -34.7759 -34.7758 -34.7758
   -34.7758 -34.7747 -34.7744 -34.7744 -34.7744 -34.7740 -34.7726 -34.7726
   -34.7722 -34.7722 -34.7722 -34.7676 -34.7676 -34.7676 -34.7667 -34.7667
   -34.7667 -34.7666 -34.7666 -34.7666 -34.7655 -34.7655 -34.7655 -34.7654
   -34.7654 -34.7654 -34.7630 -34.7630 -34.7626 -34.7621 -34.7621 -34.7621
   -34.7616 -34.7616 -34.7610 -34.7610 -34.7610 -34.7595 -34.7595 -34.7595
   -34.7587 -34.7587 -34.7587 -34.7583 -34.7583 -34.7572 -34.7572 -34.7572
   -13.1741 -12.5354 -12.5354 -12.5354 -12.5286 -12.5286 -12.5286 -12.5185
   -12.4709 -12.3711 -12.3711 -12.3606 -12.3606 -12.3606 -12.2652 -11.8581
   -11.8581 -11.8461 -11.8461 -11.8461 -11.8461 -11.8461 -11.8461 -11.8408
   -11.8408 -11.8408 -11.7930 -11.7370 -11.7370 -11.7370 -11.7348 -11.6638
   -11.6638 -11.6638 -11.6559 -11.6559 -11.6545 -11.6545 -11.6545 -11.6500
   -11.6500 -11.6500 -11.6419 -11.6419 -11.6419 -11.6375 -11.6375 -11.6375
   -11.6350 -11.6348 -11.6348 -11.6348 -11.6346 -11.6346 -11.5407 -11.5145
   -11.5145 -11.4696 -11.4578 -11.4578 -11.4507 -11.4507 -11.4507   1.3818
     1.4109   1.4109   1.4109   2.0035   2.0035   2.0035   2.1390   2.2760
     2.2760   2.2784   2.2784   2.2784   2.2903   2.2903   2.2903   2.2913
     2.2913   2.2913   2.2922   2.2922   2.2922   2.2939   2.2944   2.2944
     2.2974   2.2974   2.2974   2.4471   2.4471   2.4471   2.5248   2.6477
     2.6477   2.6477   2.6530   2.6530   2.6554   2.6554   2.6554   2.8062
     2.8062   2.8062   3.2396   3.2396   3.2396   3.2443   3.2443   3.2443
     3.2563   3.2563   3.2563   3.3364   3.3545   3.3545   3.3545   3.6221
     3.6221   3.6221   3.6255   3.6281   3.6281   3.6281   3.6282   3.6427
     3.6427   3.7750   3.7750   3.7750   4.3051   4.3051   4.3082   4.3082
     4.3082   4.3187   4.3187   4.3187   4.3212   4.3253   4.3253   4.3253
     4.3453   4.3873   4.3873   4.3873   4.3890   4.3890   4.3890   4.3962
     4.3962   4.3962   4.3975   4.3975   4.4003   4.4020   4.4020   4.4020
     4.4070   4.4070   4.4116   4.4116   4.4116   4.5077   4.5077   4.5077
     4.5325   4.5531   4.5531   4.8145   4.8145   4.8145   5.0230   5.0230
     5.0230   5.0896   5.0896   5.0896   5.3652   5.3730   5.3730   5.3747
     5.3747   5.3747   5.3814   5.3814   5.3839   5.3839   5.3839   5.3873
     5.3873   5.3873   5.3873   5.3873   5.3873   5.3896   5.3896   5.3896
     5.3926   5.5473   5.5473   5.5473   5.7036   5.7036   5.7036   5.7037
     5.7037   5.7037   5.7136   5.7136   5.7136   5.7268   5.7268   5.7268
     5.7821   5.7821   5.7821   5.7833   5.7875   5.7875   5.7875   5.7931
     5.7931   5.7949   5.7949   5.7949   5.7964   5.7964   5.7991   5.7991
     5.7991   6.0572   6.0572   6.0572   6.1466   6.1466   6.1494   6.1494
     6.1494   6.1614   6.1614   6.1631   6.1631   6.1631   6.1649   6.1649
     6.1649   6.5418   6.5418   6.5418  10.0618  15.2514  16.8015  16.8015
    16.8015  17.5651  17.5655  17.5655  17.5655  17.9334  17.9483  17.9483

     occupation numbers 
     1.0000   1.0000   1.0000   1.0000   1.0000   1.0000   1.0000   1.0000
     1.0000   1.0000   1.0000   1.0000   1.0000   1.0000   1.0000   1.0000
     1.0000   1.0000   1.0000   1.0000   1.0000   1.0000   1.0000   1.0000
     1.0000   1.0000   1.0000   1.0000   1.0000   1.0000   1.0000   1.0000
     1.0000   1.0000   1.0000   1.0000   1.0000   1.0000   1.0000   1.0000
     1.0000   1.0000   1.0000   1.0000   1.0000   1.0000   1.0000   1.0000
     1.0000   1.0000   1.0000   1.0000   1.0000   1.0000   1.0000   1.0000
     1.0000   1.0000   1.0000   1.0000   1.0000   1.0000   1.0000   1.0000
     1.0000   1.0000   1.0000   1.0000   1.0000   1.0000   1.0000   1.0000
     1.0000   1.0000   1.0000   1.0000   1.0000   1.0000   1.0000   1.0000
     1.0000   1.0000   1.0000   1.0000   1.0000   1.0000   1.0000   1.0000
     1.0000   1.0000   1.0000   1.0000   1.0000   1.0000   1.0000   1.0000
     1.0000   1.0000   1.0000   1.0000   1.0000   1.0000   1.0000   1.0000
     1.0000   1.0000   1.0000   1.0000   1.0000   1.0000   1.0000   1.0000
     1.0000   1.0000   1.0000   1.0000   1.0000   1.0000   1.0000   1.0000
     1.0000   1.0000   1.0000   1.0000   1.0000   1.0000   1.0000   1.0000
     1.0000   1.0000   1.0000   1.0000   1.0000   1.0000   1.0000   1.0000
     1.0000   1.0000   1.0000   1.0000   1.0000   1.0000   1.0000   1.0000
     1.0000   1.0000   1.0000   1.0000   1.0000   1.0000   1.0000   1.0000
     1.0000   1.0000   1.0000   1.0000   1.0000   1.0000   1.0000   1.0000
     1.0000   1.0000   1.0000   1.0000   1.0000   1.0000   1.0000   1.0000
     1.0000   1.0000   1.0000   1.0000   1.0000   1.0000   1.0000   1.0000
     1.0000   1.0000   1.0000   1.0000   1.0000   1.0000   1.0000   1.0000
     1.0000   1.0000   1.0000   1.0000   1.0000   1.0000   1.0000   1.0000
     1.0000   1.0000   1.0000   1.0000   1.0000   1.0000   1.0000   1.0000
     1.0000   1.0000   1.0000   1.0000   1.0000   1.0000   1.0000   1.0000
     1.0000   1.0000   1.0000   1.0000   1.0000   1.0000   1.0000   1.0000
     1.0000   1.0000   1.0000   1.0000   1.0000   1.0000   1.0000   1.0000
     1.0000   1.0000   1.0000   1.0000   1.0000   1.0000   1.0000   1.0000
     1.0000   1.0000   1.0000   1.0000   1.0000   1.0000   1.0000   1.0000
     1.0000   1.0000   1.0000   1.0000   1.0000   1.0000   1.0000   1.0000
     1.0000   1.0000   1.0000   1.0000   1.0000   1.0000   1.0000   1.0000
     1.0000   1.0000   1.0000   1.0000   1.0000   1.0000   1.0000   1.0000
     1.0000   1.0000   1.0000   1.0000   1.0000   1.0000   1.0000   1.0000
     1.0000   1.0000   1.0000   1.0000   1.0000   1.0000   1.0000   1.0000
     1.0000   1.0000   1.0000   1.0000   1.0000   1.0000   1.0000   1.0000
     1.0000   1.0000   1.0000   1.0000   1.0000   1.0000   1.0000   1.0000
     1.0000   1.0000   1.0000   1.0000   1.0000   1.0000   1.0000   1.0000
     1.0000   1.0000   1.0000   1.0000   1.0000   1.0000   1.0000   1.0000
     1.0000   1.0000   1.0000   1.0000   1.0000   1.0000   1.0000   1.0000
     1.0000   1.0000   1.0000   1.0000   1.0000   1.0000   1.0000   1.0000
     1.0000   1.0000   1.0000   1.0000   1.0000   1.0000   1.0000   1.0000
     1.0000   1.0000   1.0000   1.0000   1.0000   1.0000   1.0000   1.0000
     1.0000   1.0000   1.0000   1.0000   1.0000   1.0000   1.0000   1.0000
     1.0000   1.0000   1.0000   1.0000   1.0000   1.0000   1.0000   1.0000
     1.0000   1.0000   1.0000   1.0000   1.0000   1.0000   1.0000   1.0000
     1.0000   1.0000   1.0000   1.0000   1.0000   1.0000   1.0000   1.0000
     1.0000   1.0000   1.0000   1.0000   1.0000   1.0000   1.0000   1.0000
     1.0000   1.0000   1.0000   1.0000   1.0000   1.0000   1.0000   1.0000
     1.0000   1.0000   1.0000   1.0000   1.0000   1.0000   1.0000   1.0000
     1.0000   1.0000   1.0000   1.0000   1.0000   1.0000   1.0000   1.0000
     1.0000   1.0000   1.0000   1.0000   1.0000   1.0000   1.0000   1.0000
     1.0000   1.0000   1.0000   1.0000   1.0000   1.0000   1.0000   1.0000
     1.0000   1.0000   1.0000   1.0000   1.0000   1.0000   1.0000   1.0000
     1.0000   1.0000   1.0000   1.0000   1.0000   1.0000   1.0000   1.0000
     1.0000   1.0000   1.0000   1.0000   1.0000   1.0000   1.0000   1.0000
     1.0000   1.0000   1.0000   1.0000   1.0000   1.0000   1.0000   1.0000
     1.0000   1.0000   1.0000   1.0000   1.0000   1.0000   1.0000   1.0000
     1.0000   1.0000   1.0000   1.0000   1.0000   1.0000   1.0000   1.0000
     1.0000   1.0000   1.0000   1.0000   1.0000   1.0000   1.0000   1.0000
     1.0000   1.0000   1.0000   1.0000   1.0000   1.0000   1.0000   1.0000
     1.0000   1.0000   1.0000   1.0000   1.0000   1.0000   1.0000   1.0000
     1.0000   1.0000   1.0000   1.0000   1.0000   1.0000   1.0000   1.0000
     1.0000   1.0000   1.0000   1.0000   1.0000   0.0000   0.0000   0.0000
     0.0000   0.0000   0.0000   0.0000   0.0000   0.0000   0.0000   0.0000

     highest occupied, lowest unoccupied level (ev):    10.0618   15.2514

!    total energy              =   -8984.34928073 Ry
     Harris-Foulkes estimate   =   -8984.34928073 Ry
     estimated scf accuracy    <          5.0E-10 Ry

     convergence has been achieved in   3 iterations

     total energy              =   -8984.34928077 Ry
     Harris-Foulkes estimate   =   -8984.34928077 Ry
     est. exchange err (dexx)  =       0.00000004 Ry
     - averaged Fock potential =     918.88729522 Ry
     + Fock energy             =    -459.44405385 Ry

     EXX: now go back to refine exchange calculation

     total cpu time spent up to now is     3321.8 secs

     per-process dynamical memory:   165.4 Mb

     Self-consistent Calculation

     iteration #  1     ecut=    60.00 Ry     beta=0.70
     Davidson diagonalization with overlap
     ethr =  3.14E-12,  avg # of iterations =  3.0

     Threshold (ethr) on eigenvalues was too large:
     Diagonalizing with lowered threshold

     Davidson diagonalization with overlap
     ethr =  1.73E-13,  avg # of iterations =  2.0

     total cpu time spent up to now is     3506.0 secs

     End of self-consistent calculation

          k = 0.0000 0.0000 0.0000 ( 31244 PWs)   bands (ev):

   -71.8724 -71.8697 -71.8697 -71.8697 -71.8684 -71.8684 -71.8529 -71.8491
   -71.8491 -71.8491 -71.8472 -71.8472 -71.8459 -71.8434 -71.8430 -71.8430
   -71.8430 -71.8428 -71.8422 -71.8422 -71.8422 -71.8413 -71.8413 -71.8413
   -71.8407 -71.8406 -71.8406 -71.8406 -71.8384 -71.8380 -71.8380 -71.8377
   -71.8374 -71.8374 -71.8374 -71.8373 -71.8373 -71.8373 -71.8362 -71.8362
   -71.8362 -71.8362 -71.8352 -71.8352 -71.8352 -71.8352 -71.8352 -71.8348
   -71.8348 -71.8348 -71.8348 -71.8348 -71.8347 -71.8347 -71.8347 -71.8343
   -71.8343 -71.8343 -71.8342 -71.8342 -71.8342 -71.8339 -71.8339 -71.8323
   -34.8685 -34.8660 -34.8660 -34.8660 -34.8539 -34.8539 -34.8539 -34.8506
   -34.8477 -34.8477 -34.8477 -34.8449 -34.8449 -34.8449 -34.8433 -34.8433
   -34.8433 -34.8410 -34.8410 -34.8400 -34.8400 -34.8400 -34.8382 -34.8382
   -34.8382 -34.8371 -34.8371 -34.8364 -34.8364 -34.8364 -34.8357 -34.8352
   -34.8335 -34.8335 -34.8330 -34.8330 -34.8330 -34.8321 -34.8321 -34.8321
   -34.8319 -34.8319 -34.8319 -34.8242 -34.8242 -34.8242 -34.8212 -34.8212
   -34.8212 -34.8184 -34.8184 -34.8184 -34.8179 -34.8179 -34.8179 -34.8164
   -34.8164 -34.8164 -34.8125 -34.8125 -34.8120 -34.8116 -34.8116 -34.8116
   -34.8088 -34.8049 -34.8049 -34.8049 -34.8037 -34.8037 -34.8037 -34.8034
   -34.8015 -34.8015 -34.8013 -34.8013 -34.8013 -34.8009 -34.8009 -34.8009
   -34.7965 -34.7965 -34.7965 -34.7965 -34.7965 -34.7962 -34.7954 -34.7954
   -34.7954 -34.7954 -34.7954 -34.7954 -34.7949 -34.7949 -34.7949 -34.7949
   -34.7949 -34.7949 -34.7944 -34.7943 -34.7943 -34.7943 -34.7941 -34.7941
   -34.7929 -34.7928 -34.7916 -34.7916 -34.7916 -34.7906 -34.7906 -34.7906
   -34.7898 -34.7898 -34.7891 -34.7891 -34.7891 -34.7823 -34.7823 -34.7811
   -34.7811 -34.7811 -34.7808 -34.7808 -34.7808 -34.7801 -34.7801 -34.7801
   -34.7785 -34.7785 -34.7785 -34.7767 -34.7767 -34.7767 -34.7764 -34.7764
   -34.7764 -34.7763 -34.7763 -34.7759 -34.7759 -34.7759 -34.7758 -34.7758
   -34.7758 -34.7747 -34.7745 -34.7745 -34.7745 -34.7740 -34.7726 -34.7726
   -34.7722 -34.7722 -34.7722 -34.7676 -34.7676 -34.7676 -34.7667 -34.7667
   -34.7667 -34.7666 -34.7666 -34.7666 -34.7655 -34.7655 -34.7655 -34.7654
   -34.7654 -34.7654 -34.7630 -34.7630 -34.7626 -34.7621 -34.7621 -34.7621
   -34.7616 -34.7616 -34.7610 -34.7610 -34.7610 -34.7595 -34.7595 -34.7595
   -34.7587 -34.7587 -34.7587 -34.7583 -34.7583 -34.7572 -34.7572 -34.7572
   -13.1741 -12.5354 -12.5354 -12.5354 -12.5286 -12.5286 -12.5286 -12.5185
   -12.4709 -12.3711 -12.3711 -12.3606 -12.3606 -12.3606 -12.2652 -11.8580
   -11.8580 -11.8461 -11.8461 -11.8461 -11.8461 -11.8461 -11.8461 -11.8408
   -11.8408 -11.8408 -11.7930 -11.7370 -11.7370 -11.7370 -11.7348 -11.6638
   -11.6638 -11.6638 -11.6559 -11.6559 -11.6545 -11.6545 -11.6545 -11.6499
   -11.6499 -11.6499 -11.6419 -11.6419 -11.6419 -11.6375 -11.6375 -11.6375
   -11.6350 -11.6348 -11.6348 -11.6348 -11.6346 -11.6346 -11.5406 -11.5144
   -11.5144 -11.4696 -11.4578 -11.4578 -11.4507 -11.4507 -11.4507   1.3818
     1.4109   1.4109   1.4109   2.0035   2.0035   2.0035   2.1390   2.2760
     2.2760   2.2784   2.2784   2.2784   2.2903   2.2903   2.2903   2.2914
     2.2914   2.2914   2.2922   2.2922   2.2922   2.2939   2.2944   2.2944
     2.2974   2.2974   2.2974   2.4471   2.4471   2.4471   2.5248   2.6477
     2.6477   2.6477   2.6530   2.6530   2.6555   2.6555   2.6555   2.8062
     2.8062   2.8062   3.2396   3.2396   3.2396   3.2443   3.2443   3.2443
     3.2563   3.2563   3.2563   3.3364   3.3545   3.3545   3.3545   3.6221
     3.6221   3.6221   3.6255   3.6281   3.6281   3.6281   3.6282   3.6427
     3.6427   3.7751   3.7751   3.7751   4.3051   4.3051   4.3082   4.3082
     4.3082   4.3187   4.3187   4.3187   4.3212   4.3253   4.3253   4.3253
     4.3453   4.3873   4.3873   4.3873   4.3890   4.3890   4.3890   4.3962
     4.3962   4.3962   4.3975   4.3975   4.4003   4.4020   4.4020   4.4020
     4.4070   4.4070   4.4116   4.4116   4.4116   4.5077   4.5077   4.5077
     4.5325   4.5531   4.5531   4.8144   4.8144   4.8144   5.0229   5.0229
     5.0229   5.0895   5.0895   5.0895   5.3652   5.3730   5.3730   5.3747
     5.3747   5.3747   5.3814   5.3814   5.3839   5.3839   5.3839   5.3873
     5.3873   5.3873   5.3873   5.3873   5.3873   5.3896   5.3896   5.3896
     5.3926   5.5472   5.5472   5.5472   5.7036   5.7036   5.7036   5.7037
     5.7037   5.7037   5.7135   5.7135   5.7135   5.7268   5.7268   5.7268
     5.7821   5.7821   5.7821   5.7833   5.7875   5.7875   5.7875   5.7931
     5.7931   5.7949   5.7949   5.7949   5.7964   5.7964   5.7990   5.7990
     5.7990   6.0572   6.0572   6.0572   6.1466   6.1466   6.1494   6.1494
     6.1494   6.1614   6.1614   6.1631   6.1631   6.1631   6.1648   6.1648
     6.1648   6.5418   6.5418   6.5418  10.0616  15.2515  16.8016  16.8016
    16.8016  17.5651  17.5656  17.5656  17.5656  17.9334  17.9483  17.9483

     occupation numbers 
     1.0000   1.0000   1.0000   1.0000   1.0000   1.0000   1.0000   1.0000
     1.0000   1.0000   1.0000   1.0000   1.0000   1.0000   1.0000   1.0000
     1.0000   1.0000   1.0000   1.0000   1.0000   1.0000   1.0000   1.0000
     1.0000   1.0000   1.0000   1.0000   1.0000   1.0000   1.0000   1.0000
     1.0000   1.0000   1.0000   1.0000   1.0000   1.0000   1.0000   1.0000
     1.0000   1.0000   1.0000   1.0000   1.0000   1.0000   1.0000   1.0000
     1.0000   1.0000   1.0000   1.0000   1.0000   1.0000   1.0000   1.0000
     1.0000   1.0000   1.0000   1.0000   1.0000   1.0000   1.0000   1.0000
     1.0000   1.0000   1.0000   1.0000   1.0000   1.0000   1.0000   1.0000
     1.0000   1.0000   1.0000   1.0000   1.0000   1.0000   1.0000   1.0000
     1.0000   1.0000   1.0000   1.0000   1.0000   1.0000   1.0000   1.0000
     1.0000   1.0000   1.0000   1.0000   1.0000   1.0000   1.0000   1.0000
     1.0000   1.0000   1.0000   1.0000   1.0000   1.0000   1.0000   1.0000
     1.0000   1.0000   1.0000   1.0000   1.0000   1.0000   1.0000   1.0000
     1.0000   1.0000   1.0000   1.0000   1.0000   1.0000   1.0000   1.0000
     1.0000   1.0000   1.0000   1.0000   1.0000   1.0000   1.0000   1.0000
     1.0000   1.0000   1.0000   1.0000   1.0000   1.0000   1.0000   1.0000
     1.0000   1.0000   1.0000   1.0000   1.0000   1.0000   1.0000   1.0000
     1.0000   1.0000   1.0000   1.0000   1.0000   1.0000   1.0000   1.0000
     1.0000   1.0000   1.0000   1.0000   1.0000   1.0000   1.0000   1.0000
     1.0000   1.0000   1.0000   1.0000   1.0000   1.0000   1.0000   1.0000
     1.0000   1.0000   1.0000   1.0000   1.0000   1.0000   1.0000   1.0000
     1.0000   1.0000   1.0000   1.0000   1.0000   1.0000   1.0000   1.0000
     1.0000   1.0000   1.0000   1.0000   1.0000   1.0000   1.0000   1.0000
     1.0000   1.0000   1.0000   1.0000   1.0000   1.0000   1.0000   1.0000
     1.0000   1.0000   1.0000   1.0000   1.0000   1.0000   1.0000   1.0000
     1.0000   1.0000   1.0000   1.0000   1.0000   1.0000   1.0000   1.0000
     1.0000   1.0000   1.0000   1.0000   1.0000   1.0000   1.0000   1.0000
     1.0000   1.0000   1.0000   1.0000   1.0000   1.0000   1.0000   1.0000
     1.0000   1.0000   1.0000   1.0000   1.0000   1.0000   1.0000   1.0000
     1.0000   1.0000   1.0000   1.0000   1.0000   1.0000   1.0000   1.0000
     1.0000   1.0000   1.0000   1.0000   1.0000   1.0000   1.0000   1.0000
     1.0000   1.0000   1.0000   1.0000   1.0000   1.0000   1.0000   1.0000
     1.0000   1.0000   1.0000   1.0000   1.0000   1.0000   1.0000   1.0000
     1.0000   1.0000   1.0000   1.0000   1.0000   1.0000   1.0000   1.0000
     1.0000   1.0000   1.0000   1.0000   1.0000   1.0000   1.0000   1.0000
     1.0000   1.0000   1.0000   1.0000   1.0000   1.0000   1.0000   1.0000
     1.0000   1.0000   1.0000   1.0000   1.0000   1.0000   1.0000   1.0000
     1.0000   1.0000   1.0000   1.0000   1.0000   1.0000   1.0000   1.0000
     1.0000   1.0000   1.0000   1.0000   1.0000   1.0000   1.0000   1.0000
     1.0000   1.0000   1.0000   1.0000   1.0000   1.0000   1.0000   1.0000
     1.0000   1.0000   1.0000   1.0000   1.0000   1.0000   1.0000   1.0000
     1.0000   1.0000   1.0000   1.0000   1.0000   1.0000   1.0000   1.0000
     1.0000   1.0000   1.0000   1.0000   1.0000   1.0000   1.0000   1.0000
     1.0000   1.0000   1.0000   1.0000   1.0000   1.0000   1.0000   1.0000
     1.0000   1.0000   1.0000   1.0000   1.0000   1.0000   1.0000   1.0000
     1.0000   1.0000   1.0000   1.0000   1.0000   1.0000   1.0000   1.0000
     1.0000   1.0000   1.0000   1.0000   1.0000   1.0000   1.0000   1.0000
     1.0000   1.0000   1.0000   1.0000   1.0000   1.0000   1.0000   1.0000
     1.0000   1.0000   1.0000   1.0000   1.0000   1.0000   1.0000   1.0000
     1.0000   1.0000   1.0000   1.0000   1.0000   1.0000   1.0000   1.0000
     1.0000   1.0000   1.0000   1.0000   1.0000   1.0000   1.0000   1.0000
     1.0000   1.0000   1.0000   1.0000   1.0000   1.0000   1.0000   1.0000
     1.0000   1.0000   1.0000   1.0000   1.0000   1.0000   1.0000   1.0000
     1.0000   1.0000   1.0000   1.0000   1.0000   1.0000   1.0000   1.0000
     1.0000   1.0000   1.0000   1.0000   1.0000   1.0000   1.0000   1.0000
     1.0000   1.0000   1.0000   1.0000   1.0000   1.0000   1.0000   1.0000
     1.0000   1.0000   1.0000   1.0000   1.0000   1.0000   1.0000   1.0000
     1.0000   1.0000   1.0000   1.0000   1.0000   1.0000   1.0000   1.0000
     1.0000   1.0000   1.0000   1.0000   1.0000   1.0000   1.0000   1.0000
     1.0000   1.0000   1.0000   1.0000   1.0000   1.0000   1.0000   1.0000
     1.0000   1.0000   1.0000   1.0000   1.0000   1.0000   1.0000   1.0000
     1.0000   1.0000   1.0000   1.0000   1.0000   1.0000   1.0000   1.0000
     1.0000   1.0000   1.0000   1.0000   1.0000   0.0000   0.0000   0.0000
     0.0000   0.0000   0.0000   0.0000   0.0000   0.0000   0.0000   0.0000

     highest occupied, lowest unoccupied level (ev):    10.0616   15.2515

!    total energy              =   -8984.34928078 Ry
     Harris-Foulkes estimate   =   -8984.34928078 Ry
     estimated scf accuracy    <          1.8E-09 Ry

     convergence has been achieved in   1 iterations

!!   total energy              =   -8984.34928078 Ry
     Harris-Foulkes estimate   =   -8984.34928078 Ry
     est. exchange err (dexx)  =          2.6E-09 Ry
     - averaged Fock potential =     918.88826534 Ry
     + Fock energy             =    -459.44421149 Ry

     EXX self-consistency reached

     Forces acting on atoms (cartesian axes, Ry/au):

     atom    1 type  1   force =     0.00004265    0.00002462    0.00001741
     atom    2 type  1   force =     0.00010763    0.00006214   -0.00008788
     atom    3 type  1   force =     0.00000000    0.00000000   -0.00005224
     atom    4 type  1   force =    -0.00003052   -0.00001762    0.00002492
     atom    5 type  1   force =     0.00010763   -0.00006214    0.00008788
     atom    6 type  1   force =     0.00000000   -0.00012429   -0.00008788
     atom    7 type  1   force =    -0.00035557    0.00001297   -0.00001835
     atom    8 type  1   force =    -0.00016655    0.00012210    0.00029033
     atom    9 type  1   force =     0.00000000   -0.00004925    0.00001741
     atom   10 type  1   force =    -0.00035557   -0.00001297    0.00001835
     atom   11 type  1   force =    -0.00008922    0.00005151    0.00003642
     atom   12 type  1   force =    -0.00018902    0.00008319    0.00029033
     atom   13 type  1   force =    -0.00003052    0.00001762   -0.00002492
     atom   14 type  1   force =    -0.00016655    0.00031442    0.00001835
     atom   15 type  1   force =    -0.00018902    0.00030145   -0.00001835
     atom   16 type  1   force =     0.00000000    0.00003524    0.00002492
     atom   17 type  1   force =     0.00000000    0.00012429    0.00008788
     atom   18 type  1   force =    -0.00010763    0.00006214   -0.00008788
     atom   19 type  1   force =    -0.00016655   -0.00031442   -0.00001835
     atom   20 type  1   force =     0.00002247   -0.00020529    0.00029033
     atom   21 type  1   force =    -0.00010763   -0.00006214    0.00008788
     atom   22 type  1   force =    -0.00008922   -0.00005151   -0.00003642
     atom   23 type  1   force =     0.00028376    0.00016383   -0.00023169
     atom   24 type  1   force =     0.00000000    0.00000000    0.00010927
     atom   25 type  1   force =    -0.00016655   -0.00012210   -0.00029033
     atom   26 type  1   force =     0.00028376   -0.00016383    0.00023169
     atom   27 type  1   force =    -0.00000000   -0.00032766   -0.00023169
     atom   28 type  1   force =     0.00018902    0.00008319    0.00029033
     atom   29 type  1   force =     0.00002247    0.00020529   -0.00029033
     atom   30 type  1   force =    -0.00000000    0.00010302   -0.00003642
     atom   31 type  1   force =     0.00018902    0.00030145   -0.00001835
     atom   32 type  1   force =     0.00004265   -0.00002462   -0.00001741
     atom   33 type  1   force =    -0.00004265    0.00002462    0.00001741
     atom   34 type  1   force =    -0.00018902   -0.00030145    0.00001835
     atom   35 type  1   force =     0.00000000   -0.00010302    0.00003642
     atom   36 type  1   force =    -0.00002247   -0.00020529    0.00029033
     atom   37 type  1   force =    -0.00018902   -0.00008319   -0.00029033
     atom   38 type  1   force =     0.00000000    0.00032766    0.00023169
     atom   39 type  1   force =    -0.00028376    0.00016383   -0.00023169
     atom   40 type  1   force =     0.00016655    0.00012210    0.00029033
     atom   41 type  1   force =     0.00000000    0.00000000   -0.00010927
     atom   42 type  1   force =    -0.00028376   -0.00016383    0.00023169
     atom   43 type  1   force =     0.00008922    0.00005151    0.00003642
     atom   44 type  1   force =     0.00010763    0.00006214   -0.00008788
     atom   45 type  1   force =    -0.00002247    0.00020529   -0.00029033
     atom   46 type  1   force =     0.00016655    0.00031442    0.00001835
     atom   47 type  1   force =     0.00010763   -0.00006214    0.00008788
     atom   48 type  1   force =     0.00000000   -0.00012429   -0.00008788
     atom   49 type  1   force =    -0.00000000   -0.00003524   -0.00002492
     atom   50 type  1   force =     0.00018902   -0.00030145    0.00001835
     atom   51 type  1   force =     0.00016655   -0.00031442   -0.00001835
     atom   52 type  1   force =     0.00003052   -0.00001762    0.00002492
     atom   53 type  1   force =     0.00018902   -0.00008319   -0.00029033
     atom   54 type  1   force =     0.00008922   -0.00005151   -0.00003642
     atom   55 type  1   force =     0.00035557    0.00001297   -0.00001835
     atom   56 type  1   force =     0.00000000    0.00004925   -0.00001741
     atom   57 type  1   force =     0.00016655   -0.00012210   -0.00029033
     atom   58 type  1   force =     0.00035557   -0.00001297    0.00001835
     atom   59 type  1   force =    -0.00000000    0.00012429    0.00008788
     atom   60 type  1   force =    -0.00010763    0.00006214   -0.00008788
     atom   61 type  1   force =     0.00003052    0.00001762   -0.00002492
     atom   62 type  1   force =     0.00000000    0.00000000    0.00005224
     atom   63 type  1   force =    -0.00010763   -0.00006214    0.00008788
     atom   64 type  1   force =    -0.00004265   -0.00002462   -0.00001741
     atom   65 type  2   force =     0.00000000    0.00000000    0.00000000
     atom   66 type  2   force =    -0.00001231   -0.00000711   -0.00002010
     atom   67 type  2   force =    -0.00000000   -0.00000000    0.00000000
     atom   68 type  2   force =     0.00001231    0.00000711    0.00002010
     atom   69 type  2   force =    -0.00001231   -0.00002132   -0.00000000
     atom   70 type  2   force =     0.00011370   -0.00010813   -0.00007646
     atom   71 type  2   force =     0.00015049   -0.00008689   -0.00001638
     atom   72 type  2   force =     0.00000000   -0.00001421    0.00002010
     atom   73 type  2   force =    -0.00000000    0.00000000   -0.00000000
     atom   74 type  2   force =     0.00015049   -0.00004440   -0.00007646
     atom   75 type  2   force =    -0.00000000    0.00000000   -0.00000000
     atom   76 type  2   force =    -0.00015049    0.00004440    0.00007646
     atom   77 type  2   force =     0.00001231    0.00002132    0.00000000
     atom   78 type  2   force =     0.00000000    0.00001421   -0.00002010
     atom   79 type  2   force =    -0.00015049    0.00008689    0.00001638
     atom   80 type  2   force =    -0.00011370    0.00010813    0.00007646
     atom   81 type  2   force =    -0.00002462   -0.00000000   -0.00000000
     atom   82 type  2   force =    -0.00003679    0.00015253   -0.00007646
     atom   83 type  2   force =    -0.00000000    0.00017377   -0.00001638
     atom   84 type  2   force =    -0.00001231    0.00000711    0.00002010
     atom   85 type  2   force =    -0.00003679   -0.00002124    0.00016929
     atom   86 type  2   force =     0.00000000    0.00000000   -0.00000000
     atom   87 type  2   force =    -0.00015049   -0.00008689   -0.00001638
     atom   88 type  2   force =    -0.00031976   -0.00018461    0.00026108
     atom   89 type  2   force =     0.00000000    0.00004248    0.00016929
     atom   90 type  2   force =    -0.00015049   -0.00004440   -0.00007646
     atom   91 type  2   force =    -0.00017986   -0.00000000   -0.00000000
     atom   92 type  2   force =    -0.00008993    0.00005192    0.00014685
     atom   93 type  2   force =    -0.00001231    0.00002132   -0.00000000
     atom   94 type  2   force =    -0.00031976    0.00018461   -0.00026108
     atom   95 type  2   force =    -0.00008993    0.00015577   -0.00000000
     atom   96 type  2   force =    -0.00000000    0.00036923    0.00026108
     atom   97 type  2   force =     0.00000000   -0.00000000    0.00000000
     atom   98 type  2   force =     0.00003679    0.00015253   -0.00007646
     atom   99 type  2   force =     0.00000000    0.00000000    0.00000000
     atom  100 type  2   force =    -0.00003679   -0.00015253    0.00007646
     atom  101 type  2   force =     0.00003679   -0.00002124    0.00016929
     atom  102 type  2   force =    -0.00011370   -0.00010813   -0.00007646
     atom  103 type  2   force =    -0.00008993   -0.00015577   -0.00000000
     atom  104 type  2   force =     0.00000000   -0.00010384    0.00014685
     atom  105 type  2   force =     0.00000000    0.00000000    0.00000000
     atom  106 type  2   force =    -0.00008993   -0.00005192   -0.00014685
     atom  107 type  2   force =     0.00008993    0.00005192    0.00014685
     atom  108 type  2   force =    -0.00003679    0.00002124   -0.00016929
     atom  109 type  2   force =    -0.00000000    0.00010384   -0.00014685
     atom  110 type  2   force =     0.00008993    0.00015577    0.00000000
     atom  111 type  2   force =     0.00011370    0.00010813    0.00007646
     atom  112 type  2   force =     0.00002462    0.00000000    0.00000000
     atom  113 type  2   force =     0.00001231   -0.00000711   -0.00002010
     atom  114 type  2   force =     0.00000000   -0.00017377    0.00001638
     atom  115 type  2   force =     0.00003679   -0.00015253    0.00007646
     atom  116 type  2   force =     0.00001231   -0.00002132    0.00000000
     atom  117 type  2   force =     0.00000000   -0.00036923   -0.00026108
     atom  118 type  2   force =     0.00008993   -0.00015577    0.00000000
     atom  119 type  2   force =     0.00031976   -0.00018461    0.00026108
     atom  120 type  2   force =    -0.00000000   -0.00004248   -0.00016929
     atom  121 type  2   force =     0.00008993   -0.00005192   -0.00014685
     atom  122 type  2   force =     0.00017986    0.00000000    0.00000000
     atom  123 type  2   force =     0.00015049    0.00004440    0.00007646
     atom  124 type  2   force =     0.00003679    0.00002124   -0.00016929
     atom  125 type  2   force =     0.00031976    0.00018461   -0.00026108
     atom  126 type  2   force =     0.00015049    0.00008689    0.00001638
     atom  127 type  2   force =     0.00000000    0.00000000    0.00000000
     The non-local contrib.  to forces
     atom    1 type  1   force =    -0.00244239   -0.00141011   -0.00099710
     atom    2 type  1   force =    -0.00016692   -0.00009637    0.00013629
     atom    3 type  1   force =    -0.00000000    0.00000000    0.00299130
     atom    4 type  1   force =     0.00054118    0.00031245   -0.00044187
     atom    5 type  1   force =    -0.00016692    0.00009637   -0.00013629
     atom    6 type  1   force =     0.00000000    0.00019274    0.00013629
     atom    7 type  1   force =     0.00138670   -0.00377844    0.00534352
     atom    8 type  1   force =    -0.00257888   -0.00606797   -0.00113223
     atom    9 type  1   force =     0.00000000    0.00282023   -0.00099710
     atom   10 type  1   force =     0.00138670    0.00377844   -0.00534352
     atom   11 type  1   force =     0.00098821   -0.00057054   -0.00040343
     atom   12 type  1   force =     0.00396558    0.00526736   -0.00113223
     atom   13 type  1   force =     0.00054118   -0.00031245    0.00044187
     atom   14 type  1   force =    -0.00257888   -0.00309014   -0.00534352
     atom   15 type  1   force =     0.00396558    0.00068831    0.00534352
     atom   16 type  1   force =     0.00000000   -0.00062490   -0.00044187
     atom   17 type  1   force =    -0.00000000   -0.00019274   -0.00013629
     atom   18 type  1   force =     0.00016692   -0.00009637    0.00013629
     atom   19 type  1   force =    -0.00257888    0.00309014    0.00534352
     atom   20 type  1   force =    -0.00654446    0.00080061   -0.00113223
     atom   21 type  1   force =     0.00016692    0.00009637   -0.00013629
     atom   22 type  1   force =     0.00098821    0.00057054    0.00040343
     atom   23 type  1   force =    -0.00452964   -0.00261519    0.00369844
     atom   24 type  1   force =     0.00000000    0.00000000   -0.00121031
     atom   25 type  1   force =    -0.00257888    0.00606797    0.00113223
     atom   26 type  1   force =    -0.00452964    0.00261519   -0.00369844
     atom   27 type  1   force =     0.00000000    0.00523038    0.00369844
     atom   28 type  1   force =    -0.00396558    0.00526736   -0.00113223
     atom   29 type  1   force =    -0.00654446   -0.00080061    0.00113223
     atom   30 type  1   force =    -0.00000000   -0.00114109    0.00040343
     atom   31 type  1   force =    -0.00396558    0.00068831    0.00534352
     atom   32 type  1   force =    -0.00244239    0.00141011    0.00099710
     atom   33 type  1   force =     0.00244239   -0.00141011   -0.00099710
     atom   34 type  1   force =     0.00396558   -0.00068831   -0.00534352
     atom   35 type  1   force =     0.00000000    0.00114109   -0.00040343
     atom   36 type  1   force =     0.00654446    0.00080061   -0.00113223
     atom   37 type  1   force =     0.00396558   -0.00526736    0.00113223
     atom   38 type  1   force =    -0.00000000   -0.00523038   -0.00369844
     atom   39 type  1   force =     0.00452964   -0.00261519    0.00369844
     atom   40 type  1   force =     0.00257888   -0.00606797   -0.00113223
     atom   41 type  1   force =     0.00000000   -0.00000000    0.00121031
     atom   42 type  1   force =     0.00452964    0.00261519   -0.00369844
     atom   43 type  1   force =    -0.00098821   -0.00057054   -0.00040343
     atom   44 type  1   force =    -0.00016692   -0.00009637    0.00013629
     atom   45 type  1   force =     0.00654446   -0.00080061    0.00113223
     atom   46 type  1   force =     0.00257888   -0.00309014   -0.00534352
     atom   47 type  1   force =    -0.00016692    0.00009637   -0.00013629
     atom   48 type  1   force =     0.00000000    0.00019274    0.00013629
     atom   49 type  1   force =     0.00000000    0.00062490    0.00044187
     atom   50 type  1   force =    -0.00396558   -0.00068831   -0.00534352
     atom   51 type  1   force =     0.00257888    0.00309014    0.00534352
     atom   52 type  1   force =    -0.00054118    0.00031245   -0.00044187
     atom   53 type  1   force =    -0.00396558   -0.00526736    0.00113223
     atom   54 type  1   force =    -0.00098821    0.00057054    0.00040343
     atom   55 type  1   force =    -0.00138670   -0.00377844    0.00534352
     atom   56 type  1   force =    -0.00000000   -0.00282023    0.00099710
     atom   57 type  1   force =     0.00257888    0.00606797    0.00113223
     atom   58 type  1   force =    -0.00138670    0.00377844   -0.00534352
     atom   59 type  1   force =     0.00000000   -0.00019274   -0.00013629
     atom   60 type  1   force =     0.00016692   -0.00009637    0.00013629
     atom   61 type  1   force =    -0.00054118   -0.00031245    0.00044187
     atom   62 type  1   force =     0.00000000    0.00000000   -0.00299130
     atom   63 type  1   force =     0.00016692    0.00009637   -0.00013629
     atom   64 type  1   force =     0.00244239    0.00141011    0.00099710
     atom   65 type  2   force =     0.00000000    0.00000000    0.00000000
     atom   66 type  2   force =     0.00064046    0.00036977    0.00104586
     atom   67 type  2   force =    -0.00000000    0.00000000    0.00000000
     atom   68 type  2   force =    -0.00064046   -0.00036977   -0.00104586
     atom   69 type  2   force =     0.00064046    0.00110930    0.00000000
     atom   70 type  2   force =     0.00097956   -0.00365150   -0.00258200
     atom   71 type  2   force =     0.00365208   -0.00210853    0.00178219
     atom   72 type  2   force =    -0.00000000    0.00073954   -0.00104586
     atom   73 type  2   force =    -0.00000000    0.00000000   -0.00000000
     atom   74 type  2   force =     0.00365207    0.00097743   -0.00258200
     atom   75 type  2   force =     0.00000000   -0.00000000   -0.00000000
     atom   76 type  2   force =    -0.00365207   -0.00097743    0.00258200
     atom   77 type  2   force =    -0.00064046   -0.00110930   -0.00000000
     atom   78 type  2   force =     0.00000000   -0.00073954    0.00104586
     atom   79 type  2   force =    -0.00365208    0.00210853   -0.00178219
     atom   80 type  2   force =    -0.00097956    0.00365150    0.00258200
     atom   81 type  2   force =     0.00128091    0.00000000    0.00000000
     atom   82 type  2   force =    -0.00267251    0.00267407   -0.00258200
     atom   83 type  2   force =    -0.00000000    0.00421705    0.00178219
     atom   84 type  2   force =     0.00064046   -0.00036977   -0.00104586
     atom   85 type  2   force =    -0.00267251   -0.00154297    0.00338181
     atom   86 type  2   force =     0.00000000    0.00000000   -0.00000000
     atom   87 type  2   force =    -0.00365208   -0.00210853    0.00178219
     atom   88 type  2   force =     0.00593415    0.00342608   -0.00484521
     atom   89 type  2   force =     0.00000000    0.00308595    0.00338181
     atom   90 type  2   force =    -0.00365207    0.00097743   -0.00258200
     atom   91 type  2   force =    -0.02367255   -0.00000000   -0.00000000
     atom   92 type  2   force =    -0.01183627    0.00683367    0.01932855
     atom   93 type  2   force =     0.00064046   -0.00110930    0.00000000
     atom   94 type  2   force =     0.00593415   -0.00342608    0.00484521
     atom   95 type  2   force =    -0.01183628    0.02050103   -0.00000000
     atom   96 type  2   force =    -0.00000000   -0.00685216   -0.00484521
     atom   97 type  2   force =    -0.00000000   -0.00000000   -0.00000000
     atom   98 type  2   force =     0.00267251    0.00267407   -0.00258200
     atom   99 type  2   force =     0.00000000   -0.00000000   -0.00000000
     atom  100 type  2   force =    -0.00267251   -0.00267407    0.00258200
     atom  101 type  2   force =     0.00267251   -0.00154297    0.00338181
     atom  102 type  2   force =    -0.00097956   -0.00365150   -0.00258200
     atom  103 type  2   force =    -0.01183628   -0.02050103   -0.00000000
     atom  104 type  2   force =    -0.00000000   -0.01366735    0.01932855
     atom  105 type  2   force =     0.00000000    0.00000000    0.00000000
     atom  106 type  2   force =    -0.01183627   -0.00683367   -0.01932855
     atom  107 type  2   force =     0.01183627    0.00683367    0.01932855
     atom  108 type  2   force =    -0.00267251    0.00154297   -0.00338181
     atom  109 type  2   force =     0.00000000    0.01366735   -0.01932855
     atom  110 type  2   force =     0.01183628    0.02050103    0.00000000
     atom  111 type  2   force =     0.00097956    0.00365150    0.00258200
     atom  112 type  2   force =    -0.00128091   -0.00000000   -0.00000000
     atom  113 type  2   force =    -0.00064046    0.00036977    0.00104586
     atom  114 type  2   force =     0.00000000   -0.00421705   -0.00178219
     atom  115 type  2   force =     0.00267251   -0.00267407    0.00258200
     atom  116 type  2   force =    -0.00064046    0.00110930   -0.00000000
     atom  117 type  2   force =    -0.00000000    0.00685216    0.00484521
     atom  118 type  2   force =     0.01183628   -0.02050103    0.00000000
     atom  119 type  2   force =    -0.00593415    0.00342608   -0.00484521
     atom  120 type  2   force =     0.00000000   -0.00308595   -0.00338181
     atom  121 type  2   force =     0.01183627   -0.00683367   -0.01932855
     atom  122 type  2   force =     0.02367255    0.00000000    0.00000000
     atom  123 type  2   force =     0.00365207   -0.00097743    0.00258200
     atom  124 type  2   force =     0.00267251    0.00154297   -0.00338181
     atom  125 type  2   force =    -0.00593415   -0.00342608    0.00484521
     atom  126 type  2   force =     0.00365208    0.00210853   -0.00178219
     atom  127 type  2   force =     0.00000000    0.00000000    0.00000000
     The ionic contribution  to forces
     atom    1 type  1   force =     0.13689813    0.07903818    0.05588849
     atom    2 type  1   force =    -0.10070327   -0.05814106    0.08222398
     atom    3 type  1   force =     0.00000007    0.00000004   -0.16766544
     atom    4 type  1   force =     0.27056693    0.15621190   -0.22091705
     atom    5 type  1   force =    -0.10070328    0.05814114   -0.08222384
     atom    6 type  1   force =     0.00000009    0.11628224    0.08222399
     atom    7 type  1   force =     0.97920239    0.22915535   -0.32407459
     atom    8 type  1   force =     0.68805535    0.06106153   -0.79951535
     atom    9 type  1   force =     0.00000006   -0.15807639    0.05588854
     atom   10 type  1   force =     0.97920238   -0.22915534    0.32407461
     atom   11 type  1   force =     1.89471274   -1.09391292   -0.77351331
     atom   12 type  1   force =     0.29114694   -0.62640416   -0.79951532
     atom   13 type  1   force =     0.27056693   -0.15621193    0.22091702
     atom   14 type  1   force =     0.68805543   -0.73343643    0.32407454
     atom   15 type  1   force =     0.29114693   -0.96259167   -0.32407454
     atom   16 type  1   force =     0.00000005   -0.31242380   -0.22091702
     atom   17 type  1   force =     0.00000007   -0.11628217   -0.08222384
     atom   18 type  1   force =     0.10070342   -0.05814104    0.08222399
     atom   19 type  1   force =     0.68805550    0.73343652   -0.32407459
     atom   20 type  1   force =     0.39690848    0.56534267   -0.79951535
     atom   21 type  1   force =     0.10070344    0.05814116   -0.08222381
     atom   22 type  1   force =     1.89471306    1.09391318    0.77351351
     atom   23 type  1   force =     5.64449915    3.25885335   -4.60871447
     atom   24 type  1   force =     0.00000014    0.00000008   -2.32053981
     atom   25 type  1   force =     0.68805541   -0.06106157    0.79951543
     atom   26 type  1   force =     5.64449917   -3.25885332    4.60871450
     atom   27 type  1   force =     0.00000062   -6.51770633   -4.60871450
     atom   28 type  1   force =    -0.29114679   -0.62640427   -0.79951543
     atom   29 type  1   force =     0.39690848   -0.56534270    0.79951532
     atom   30 type  1   force =     0.00000015   -2.18782582    0.77351331
     atom   31 type  1   force =    -0.29114678   -0.96259183   -0.32407461
     atom   32 type  1   force =     0.13689814   -0.07903824   -0.05588854
     atom   33 type  1   force =    -0.13689814    0.07903824    0.05588854
     atom   34 type  1   force =     0.29114678    0.96259183    0.32407461
     atom   35 type  1   force =    -0.00000015    2.18782582   -0.77351331
     atom   36 type  1   force =    -0.39690848    0.56534270   -0.79951532
     atom   37 type  1   force =     0.29114679    0.62640427    0.79951543
     atom   38 type  1   force =    -0.00000062    6.51770633    4.60871450
     atom   39 type  1   force =    -5.64449917    3.25885332   -4.60871450
     atom   40 type  1   force =    -0.68805541    0.06106157   -0.79951543
     atom   41 type  1   force =    -0.00000014   -0.00000008    2.32053981
     atom   42 type  1   force =    -5.64449915   -3.25885335    4.60871447
     atom   43 type  1   force =    -1.89471306   -1.09391318   -0.77351351
     atom   44 type  1   force =    -0.10070344   -0.05814116    0.08222381
     atom   45 type  1   force =    -0.39690848   -0.56534267    0.79951535
     atom   46 type  1   force =    -0.68805550   -0.73343652    0.32407459
     atom   47 type  1   force =    -0.10070342    0.05814104   -0.08222399
     atom   48 type  1   force =    -0.00000007    0.11628217    0.08222384
     atom   49 type  1   force =    -0.00000005    0.31242380    0.22091702
     atom   50 type  1   force =    -0.29114693    0.96259167    0.32407454
     atom   51 type  1   force =    -0.68805543    0.73343643   -0.32407454
     atom   52 type  1   force =    -0.27056693    0.15621193   -0.22091702
     atom   53 type  1   force =    -0.29114694    0.62640416    0.79951532
     atom   54 type  1   force =    -1.89471274    1.09391292    0.77351331
     atom   55 type  1   force =    -0.97920238    0.22915534   -0.32407461
     atom   56 type  1   force =    -0.00000006    0.15807639   -0.05588854
     atom   57 type  1   force =    -0.68805535   -0.06106153    0.79951535
     atom   58 type  1   force =    -0.97920239   -0.22915535    0.32407459
     atom   59 type  1   force =    -0.00000009   -0.11628224   -0.08222399
     atom   60 type  1   force =     0.10070328   -0.05814114    0.08222384
     atom   61 type  1   force =    -0.27056693   -0.15621190    0.22091705
     atom   62 type  1   force =    -0.00000007   -0.00000004    0.16766544
     atom   63 type  1   force =     0.10070327    0.05814106   -0.08222398
     atom   64 type  1   force =    -0.13689813   -0.07903818   -0.05588849
     atom   65 type  2   force =    -0.00000000    0.00000000   -0.00000000
     atom   66 type  2   force =     0.07573488    0.04372556    0.12367456
     atom   67 type  2   force =     0.00000000   -0.00000000    0.00000000
     atom   68 type  2   force =    -0.07573488   -0.04372556   -0.12367456
     atom   69 type  2   force =     0.07573486    0.13117667   -0.00000001
     atom   70 type  2   force =    -0.22013840    0.32163111    0.22742759
     atom   71 type  2   force =    -0.38860990    0.22436407   -0.04768531
     atom   72 type  2   force =     0.00000001    0.08745116   -0.12367459
     atom   73 type  2   force =     0.00000000    0.00000000   -0.00000000
     atom   74 type  2   force =    -0.38860990    0.02982988    0.22742762
     atom   75 type  2   force =     0.00000000    0.00000000   -0.00000000
     atom   76 type  2   force =     0.38860990   -0.02982988   -0.22742762
     atom   77 type  2   force =    -0.07573486   -0.13117667    0.00000001
     atom   78 type  2   force =    -0.00000001   -0.08745116    0.12367459
     atom   79 type  2   force =     0.38860990   -0.22436407    0.04768531
     atom   80 type  2   force =     0.22013840   -0.32163111   -0.22742759
     atom   81 type  2   force =     0.15146976   -0.00000002   -0.00000001
     atom   82 type  2   force =     0.16847154   -0.35146099    0.22742759
     atom   83 type  2   force =     0.00000007   -0.44872808   -0.04768531
     atom   84 type  2   force =     0.07573494   -0.04372557   -0.12367459
     atom   85 type  2   force =     0.16847152    0.09726709   -0.40716978
     atom   86 type  2   force =     0.00000006    0.00000004    0.00000006
     atom   87 type  2   force =     0.38861000    0.22436411   -0.04768531
     atom   88 type  2   force =     0.62107505    0.35857787   -0.50710573
     atom   89 type  2   force =     0.00000007   -0.19453413   -0.40716979
     atom   90 type  2   force =     0.38861000    0.02982988    0.22742765
     atom   91 type  2   force =     2.34113168   -0.00000000    0.00000001
     atom   92 type  2   force =     1.17056581   -0.67582638   -1.91152588
     atom   93 type  2   force =     0.07573491   -0.13117670    0.00000000
     atom   94 type  2   force =     0.62107504   -0.35857787    0.50710571
     atom   95 type  2   force =     1.17056578   -2.02747925   -0.00000000
     atom   96 type  2   force =     0.00000008   -0.71715570   -0.50710571
     atom   97 type  2   force =     0.00000000    0.00000000   -0.00000000
     atom   98 type  2   force =    -0.16847149   -0.35146100    0.22742762
     atom   99 type  2   force =    -0.00000000    0.00000000   -0.00000000
     atom  100 type  2   force =     0.16847149    0.35146100   -0.22742762
     atom  101 type  2   force =    -0.16847147    0.09726711   -0.40716979
     atom  102 type  2   force =     0.22013841    0.32163120    0.22742765
     atom  103 type  2   force =     1.17056570    2.02747959    0.00000001
     atom  104 type  2   force =     0.00000000    1.35165292   -1.91152588
     atom  105 type  2   force =     0.00000000    0.00000000   -0.00000000
     atom  106 type  2   force =     1.17056575    0.67582650    1.91152620
     atom  107 type  2   force =    -1.17056575   -0.67582650   -1.91152620
     atom  108 type  2   force =     0.16847147   -0.09726711    0.40716979
     atom  109 type  2   force =    -0.00000000   -1.35165292    1.91152588
     atom  110 type  2   force =    -1.17056570   -2.02747959   -0.00000001
     atom  111 type  2   force =    -0.22013841   -0.32163120   -0.22742765
     atom  112 type  2   force =    -0.15146976    0.00000002    0.00000001
     atom  113 type  2   force =    -0.07573494    0.04372557    0.12367459
     atom  114 type  2   force =    -0.00000007    0.44872808    0.04768531
     atom  115 type  2   force =    -0.16847154    0.35146099   -0.22742759
     atom  116 type  2   force =    -0.07573491    0.13117670   -0.00000000
     atom  117 type  2   force =    -0.00000008    0.71715570    0.50710571
     atom  118 type  2   force =    -1.17056578    2.02747925    0.00000000
     atom  119 type  2   force =    -0.62107504    0.35857787   -0.50710571
     atom  120 type  2   force =    -0.00000007    0.19453413    0.40716979
     atom  121 type  2   force =    -1.17056581    0.67582638    1.91152588
     atom  122 type  2   force =    -2.34113168    0.00000000   -0.00000001
     atom  123 type  2   force =    -0.38861000   -0.02982988   -0.22742765
     atom  124 type  2   force =    -0.16847152   -0.09726709    0.40716978
     atom  125 type  2   force =    -0.62107505   -0.35857787    0.50710573
     atom  126 type  2   force =    -0.38861000   -0.22436411    0.04768531
     atom  127 type  2   force =    -0.00000006   -0.00000004   -0.00000006
     The local contribution  to forces
     atom    1 type  1   force =    -0.13441323   -0.07760352   -0.05487404
     atom    2 type  1   force =     0.10097887    0.05830018   -0.08244901
     atom    3 type  1   force =    -0.00000007   -0.00000004    0.16462209
     atom    4 type  1   force =    -0.27113800   -0.15654161    0.22138332
     atom    5 type  1   force =     0.10097888   -0.05830025    0.08244886
     atom    6 type  1   force =    -0.00000009   -0.11660048   -0.08244902
     atom    7 type  1   force =    -0.98094369   -0.22536565    0.31871516
     atom    8 type  1   force =    -0.68564402   -0.05487432    0.80093710
     atom    9 type  1   force =    -0.00000006    0.15520708   -0.05487409
     atom   10 type  1   force =    -0.98094368    0.22536565   -0.31871517
     atom   11 type  1   force =    -1.89578753    1.09453344    0.77395209
     atom   12 type  1   force =    -0.29529956    0.62122228    0.80093708
     atom   13 type  1   force =    -0.27113800    0.15654162   -0.22138330
     atom   14 type  1   force =    -0.68564410    0.73683928   -0.31871510
     atom   15 type  1   force =    -0.29529955    0.96220483    0.31871510
     atom   16 type  1   force =    -0.00000004    0.31308321    0.22138330
     atom   17 type  1   force =    -0.00000007    0.11660040    0.08244886
     atom   18 type  1   force =    -0.10097902    0.05830015   -0.08244902
     atom   19 type  1   force =    -0.68564417   -0.73683937    0.31871516
     atom   20 type  1   force =    -0.39034453   -0.56634801    0.80093711
     atom   21 type  1   force =    -0.10097903   -0.05830028    0.08244883
     atom   22 type  1   force =    -1.89578785   -1.09453371   -0.77395230
     atom   23 type  1   force =    -5.63966718   -3.25606361    4.60476921
     atom   24 type  1   force =    -0.00000014   -0.00000008    2.32185615
     atom   25 type  1   force =    -0.68564408    0.05487436   -0.80093719
     atom   26 type  1   force =    -5.63966720    3.25606362   -4.60476922
     atom   27 type  1   force =    -0.00000064    6.51212687    4.60476921
     atom   28 type  1   force =     0.29529941    0.62122239    0.80093719
     atom   29 type  1   force =    -0.39034453    0.56634804   -0.80093708
     atom   30 type  1   force =    -0.00000015    2.18906688   -0.77395209
     atom   31 type  1   force =     0.29529940    0.96220499    0.31871518
     atom   32 type  1   force =    -0.13441325    0.07760358    0.05487409
     atom   33 type  1   force =     0.13441325   -0.07760358   -0.05487409
     atom   34 type  1   force =    -0.29529940   -0.96220499   -0.31871518
     atom   35 type  1   force =     0.00000015   -2.18906688    0.77395209
     atom   36 type  1   force =     0.39034453   -0.56634804    0.80093708
     atom   37 type  1   force =    -0.29529941   -0.62122240   -0.80093719
     atom   38 type  1   force =     0.00000064   -6.51212687   -4.60476922
     atom   39 type  1   force =     5.63966720   -3.25606361    4.60476921
     atom   40 type  1   force =     0.68564408   -0.05487436    0.80093719
     atom   41 type  1   force =     0.00000014    0.00000008   -2.32185615
     atom   42 type  1   force =     5.63966718    3.25606361   -4.60476920
     atom   43 type  1   force =     1.89578785    1.09453371    0.77395230
     atom   44 type  1   force =     0.10097903    0.05830028   -0.08244883
     atom   45 type  1   force =     0.39034453    0.56634801   -0.80093711
     atom   46 type  1   force =     0.68564417    0.73683937   -0.31871516
     atom   47 type  1   force =     0.10097902   -0.05830015    0.08244902
     atom   48 type  1   force =     0.00000007   -0.11660040   -0.08244886
     atom   49 type  1   force =     0.00000004   -0.31308321   -0.22138330
     atom   50 type  1   force =     0.29529955   -0.96220483   -0.31871510
     atom   51 type  1   force =     0.68564410   -0.73683928    0.31871510
     atom   52 type  1   force =     0.27113800   -0.15654162    0.22138330
     atom   53 type  1   force =     0.29529956   -0.62122228   -0.80093708
     atom   54 type  1   force =     1.89578753   -1.09453344   -0.77395209
     atom   55 type  1   force =     0.98094368   -0.22536565    0.31871517
     atom   56 type  1   force =     0.00000006   -0.15520708    0.05487409
     atom   57 type  1   force =     0.68564402    0.05487432   -0.80093710
     atom   58 type  1   force =     0.98094369    0.22536565   -0.31871516
     atom   59 type  1   force =     0.00000009    0.11660048    0.08244902
     atom   60 type  1   force =    -0.10097888    0.05830025   -0.08244886
     atom   61 type  1   force =     0.27113800    0.15654161   -0.22138332
     atom   62 type  1   force =     0.00000007    0.00000004   -0.16462209
     atom   63 type  1   force =    -0.10097887   -0.05830018    0.08244901
     atom   64 type  1   force =     0.13441323    0.07760352    0.05487404
     atom   65 type  2   force =     0.00000000    0.00000000    0.00000000
     atom   66 type  2   force =    -0.07638816   -0.04410273   -0.12474135
     atom   67 type  2   force =    -0.00000000   -0.00000000   -0.00000000
     atom   68 type  2   force =     0.07638816    0.04410273    0.12474135
     atom   69 type  2   force =    -0.07638813   -0.13230817    0.00000001
     atom   70 type  2   force =     0.21927312   -0.31808895   -0.22492290
     atom   71 type  2   force =     0.38510966   -0.22234321    0.04588712
     atom   72 type  2   force =    -0.00000001   -0.08820550    0.12474138
     atom   73 type  2   force =    -0.00000000   -0.00000000    0.00000000
     atom   74 type  2   force =     0.38510966   -0.03085162   -0.22492294
     atom   75 type  2   force =     0.00000000   -0.00000000   -0.00000000
     atom   76 type  2   force =    -0.38510966    0.03085162    0.22492294
     atom   77 type  2   force =     0.07638813    0.13230817   -0.00000001
     atom   78 type  2   force =     0.00000001    0.08820550   -0.12474138
     atom   79 type  2   force =    -0.38510966    0.22234321   -0.04588712
     atom   80 type  2   force =    -0.21927313    0.31808895    0.22492290
     atom   81 type  2   force =    -0.15277630    0.00000001    0.00000001
     atom   82 type  2   force =    -0.16583657    0.34894056   -0.22492291
     atom   83 type  2   force =    -0.00000006    0.44468635    0.04588712
     atom   84 type  2   force =    -0.07638821    0.04410273    0.12474138
     atom   85 type  2   force =    -0.16583655   -0.09574579    0.40395860
     atom   86 type  2   force =    -0.00000006   -0.00000004   -0.00000007
     atom   87 type  2   force =    -0.38510977   -0.22234325    0.04588711
     atom   88 type  2   force =    -0.62732926   -0.36218875    0.51221227
     atom   89 type  2   force =    -0.00000007    0.19149154    0.40395861
     atom   90 type  2   force =    -0.38510976   -0.03085161   -0.22492297
     atom   91 type  2   force =    -2.31764273    0.00000000   -0.00000000
     atom   92 type  2   force =    -1.15882133    0.66904570    1.89234722
     atom   93 type  2   force =    -0.07638818    0.13230820   -0.00000000
     atom   94 type  2   force =    -0.62732926    0.36218875   -0.51221227
     atom   95 type  2   force =    -1.15882130    2.00713721   -0.00000000
     atom   96 type  2   force =    -0.00000007    0.72437745    0.51221226
     atom   97 type  2   force =    -0.00000000   -0.00000000   -0.00000000
     atom   98 type  2   force =     0.16583652    0.34894057   -0.22492294
     atom   99 type  2   force =     0.00000000    0.00000000   -0.00000000
     atom  100 type  2   force =    -0.16583652   -0.34894057    0.22492294
     atom  101 type  2   force =     0.16583651   -0.09574582    0.40395861
     atom  102 type  2   force =    -0.21927314   -0.31808905   -0.22492297
     atom  103 type  2   force =    -1.15882123   -2.00713756   -0.00000000
     atom  104 type  2   force =    -0.00000000   -1.33809157    1.89234723
     atom  105 type  2   force =     0.00000000    0.00000000    0.00000000
     atom  106 type  2   force =    -1.15882128   -0.66904583   -1.89234756
     atom  107 type  2   force =     1.15882128    0.66904583    1.89234756
     atom  108 type  2   force =    -0.16583651    0.09574582   -0.40395861
     atom  109 type  2   force =     0.00000000    1.33809157   -1.89234723
     atom  110 type  2   force =     1.15882123    2.00713756    0.00000000
     atom  111 type  2   force =     0.21927314    0.31808905    0.22492297
     atom  112 type  2   force =     0.15277630   -0.00000001   -0.00000001
     atom  113 type  2   force =     0.07638821   -0.04410273   -0.12474138
     atom  114 type  2   force =     0.00000006   -0.44468635   -0.04588712
     atom  115 type  2   force =     0.16583657   -0.34894056    0.22492291
     atom  116 type  2   force =     0.07638818   -0.13230820    0.00000000
     atom  117 type  2   force =     0.00000007   -0.72437744   -0.51221226
     atom  118 type  2   force =     1.15882130   -2.00713721   -0.00000000
     atom  119 type  2   force =     0.62732926   -0.36218875    0.51221227
     atom  120 type  2   force =     0.00000007   -0.19149154   -0.40395861
     atom  121 type  2   force =     1.15882133   -0.66904570   -1.89234722
     atom  122 type  2   force =     2.31764273   -0.00000000    0.00000000
     atom  123 type  2   force =     0.38510976    0.03085162    0.22492297
     atom  124 type  2   force =     0.16583655    0.09574579   -0.40395860
     atom  125 type  2   force =     0.62732926    0.36218875   -0.51221227
     atom  126 type  2   force =     0.38510977    0.22234325   -0.04588711
     atom  127 type  2   force =     0.00000006    0.00000004    0.00000007
     The core correction contribution to forces
     atom    1 type  1   force =     0.00000000    0.00000000    0.00000000
     atom    2 type  1   force =     0.00000000    0.00000000    0.00000000
     atom    3 type  1   force =     0.00000000    0.00000000    0.00000000
     atom    4 type  1   force =     0.00000000    0.00000000    0.00000000
     atom    5 type  1   force =     0.00000000    0.00000000    0.00000000
     atom    6 type  1   force =     0.00000000    0.00000000    0.00000000
     atom    7 type  1   force =     0.00000000    0.00000000    0.00000000
     atom    8 type  1   force =     0.00000000    0.00000000    0.00000000
     atom    9 type  1   force =     0.00000000    0.00000000    0.00000000
     atom   10 type  1   force =     0.00000000    0.00000000    0.00000000
     atom   11 type  1   force =     0.00000000    0.00000000    0.00000000
     atom   12 type  1   force =     0.00000000    0.00000000    0.00000000
     atom   13 type  1   force =     0.00000000    0.00000000    0.00000000
     atom   14 type  1   force =     0.00000000    0.00000000    0.00000000
     atom   15 type  1   force =     0.00000000    0.00000000    0.00000000
     atom   16 type  1   force =     0.00000000    0.00000000    0.00000000
     atom   17 type  1   force =     0.00000000    0.00000000    0.00000000
     atom   18 type  1   force =     0.00000000    0.00000000    0.00000000
     atom   19 type  1   force =     0.00000000    0.00000000    0.00000000
     atom   20 type  1   force =     0.00000000    0.00000000    0.00000000
     atom   21 type  1   force =     0.00000000    0.00000000    0.00000000
     atom   22 type  1   force =     0.00000000    0.00000000    0.00000000
     atom   23 type  1   force =     0.00000000    0.00000000    0.00000000
     atom   24 type  1   force =     0.00000000    0.00000000    0.00000000
     atom   25 type  1   force =     0.00000000    0.00000000    0.00000000
     atom   26 type  1   force =     0.00000000    0.00000000    0.00000000
     atom   27 type  1   force =     0.00000000    0.00000000    0.00000000
     atom   28 type  1   force =     0.00000000    0.00000000    0.00000000
     atom   29 type  1   force =     0.00000000    0.00000000    0.00000000
     atom   30 type  1   force =     0.00000000    0.00000000    0.00000000
     atom   31 type  1   force =     0.00000000    0.00000000    0.00000000
     atom   32 type  1   force =     0.00000000    0.00000000    0.00000000
     atom   33 type  1   force =     0.00000000    0.00000000    0.00000000
     atom   34 type  1   force =     0.00000000    0.00000000    0.00000000
     atom   35 type  1   force =     0.00000000    0.00000000    0.00000000
     atom   36 type  1   force =     0.00000000    0.00000000    0.00000000
     atom   37 type  1   force =     0.00000000    0.00000000    0.00000000
     atom   38 type  1   force =     0.00000000    0.00000000    0.00000000
     atom   39 type  1   force =     0.00000000    0.00000000    0.00000000
     atom   40 type  1   force =     0.00000000    0.00000000    0.00000000
     atom   41 type  1   force =     0.00000000    0.00000000    0.00000000
     atom   42 type  1   force =     0.00000000    0.00000000    0.00000000
     atom   43 type  1   force =     0.00000000    0.00000000    0.00000000
     atom   44 type  1   force =     0.00000000    0.00000000    0.00000000
     atom   45 type  1   force =     0.00000000    0.00000000    0.00000000
     atom   46 type  1   force =     0.00000000    0.00000000    0.00000000
     atom   47 type  1   force =     0.00000000    0.00000000    0.00000000
     atom   48 type  1   force =     0.00000000    0.00000000    0.00000000
     atom   49 type  1   force =     0.00000000    0.00000000    0.00000000
     atom   50 type  1   force =     0.00000000    0.00000000    0.00000000
     atom   51 type  1   force =     0.00000000    0.00000000    0.00000000
     atom   52 type  1   force =     0.00000000    0.00000000    0.00000000
     atom   53 type  1   force =     0.00000000    0.00000000    0.00000000
     atom   54 type  1   force =     0.00000000    0.00000000    0.00000000
     atom   55 type  1   force =     0.00000000    0.00000000    0.00000000
     atom   56 type  1   force =     0.00000000    0.00000000    0.00000000
     atom   57 type  1   force =     0.00000000    0.00000000    0.00000000
     atom   58 type  1   force =     0.00000000    0.00000000    0.00000000
     atom   59 type  1   force =     0.00000000    0.00000000    0.00000000
     atom   60 type  1   force =     0.00000000    0.00000000    0.00000000
     atom   61 type  1   force =     0.00000000    0.00000000    0.00000000
     atom   62 type  1   force =     0.00000000    0.00000000    0.00000000
     atom   63 type  1   force =     0.00000000    0.00000000    0.00000000
     atom   64 type  1   force =     0.00000000    0.00000000    0.00000000
     atom   65 type  2   force =     0.00000000    0.00000000    0.00000000
     atom   66 type  2   force =     0.00000000    0.00000000    0.00000000
     atom   67 type  2   force =     0.00000000    0.00000000    0.00000000
     atom   68 type  2   force =     0.00000000    0.00000000    0.00000000
     atom   69 type  2   force =     0.00000000    0.00000000    0.00000000
     atom   70 type  2   force =     0.00000000    0.00000000    0.00000000
     atom   71 type  2   force =     0.00000000    0.00000000    0.00000000
     atom   72 type  2   force =     0.00000000    0.00000000    0.00000000
     atom   73 type  2   force =     0.00000000    0.00000000    0.00000000
     atom   74 type  2   force =     0.00000000    0.00000000    0.00000000
     atom   75 type  2   force =     0.00000000    0.00000000    0.00000000
     atom   76 type  2   force =     0.00000000    0.00000000    0.00000000
     atom   77 type  2   force =     0.00000000    0.00000000    0.00000000
     atom   78 type  2   force =     0.00000000    0.00000000    0.00000000
     atom   79 type  2   force =     0.00000000    0.00000000    0.00000000
     atom   80 type  2   force =     0.00000000    0.00000000    0.00000000
     atom   81 type  2   force =     0.00000000    0.00000000    0.00000000
     atom   82 type  2   force =     0.00000000    0.00000000    0.00000000
     atom   83 type  2   force =     0.00000000    0.00000000    0.00000000
     atom   84 type  2   force =     0.00000000    0.00000000    0.00000000
     atom   85 type  2   force =     0.00000000    0.00000000    0.00000000
     atom   86 type  2   force =     0.00000000    0.00000000    0.00000000
     atom   87 type  2   force =     0.00000000    0.00000000    0.00000000
     atom   88 type  2   force =     0.00000000    0.00000000    0.00000000
     atom   89 type  2   force =     0.00000000    0.00000000    0.00000000
     atom   90 type  2   force =     0.00000000    0.00000000    0.00000000
     atom   91 type  2   force =     0.00000000    0.00000000    0.00000000
     atom   92 type  2   force =     0.00000000    0.00000000    0.00000000
     atom   93 type  2   force =     0.00000000    0.00000000    0.00000000
     atom   94 type  2   force =     0.00000000    0.00000000    0.00000000
     atom   95 type  2   force =     0.00000000    0.00000000    0.00000000
     atom   96 type  2   force =     0.00000000    0.00000000    0.00000000
     atom   97 type  2   force =     0.00000000    0.00000000    0.00000000
     atom   98 type  2   force =     0.00000000    0.00000000    0.00000000
     atom   99 type  2   force =     0.00000000    0.00000000    0.00000000
     atom  100 type  2   force =     0.00000000    0.00000000    0.00000000
     atom  101 type  2   force =     0.00000000    0.00000000    0.00000000
     atom  102 type  2   force =     0.00000000    0.00000000    0.00000000
     atom  103 type  2   force =     0.00000000    0.00000000    0.00000000
     atom  104 type  2   force =     0.00000000    0.00000000    0.00000000
     atom  105 type  2   force =     0.00000000    0.00000000    0.00000000
     atom  106 type  2   force =     0.00000000    0.00000000    0.00000000
     atom  107 type  2   force =     0.00000000    0.00000000    0.00000000
     atom  108 type  2   force =     0.00000000    0.00000000    0.00000000
     atom  109 type  2   force =     0.00000000    0.00000000    0.00000000
     atom  110 type  2   force =     0.00000000    0.00000000    0.00000000
     atom  111 type  2   force =     0.00000000    0.00000000    0.00000000
     atom  112 type  2   force =     0.00000000    0.00000000    0.00000000
     atom  113 type  2   force =     0.00000000    0.00000000    0.00000000
     atom  114 type  2   force =     0.00000000    0.00000000    0.00000000
     atom  115 type  2   force =     0.00000000    0.00000000    0.00000000
     atom  116 type  2   force =     0.00000000    0.00000000    0.00000000
     atom  117 type  2   force =     0.00000000    0.00000000    0.00000000
     atom  118 type  2   force =     0.00000000    0.00000000    0.00000000
     atom  119 type  2   force =     0.00000000    0.00000000    0.00000000
     atom  120 type  2   force =     0.00000000    0.00000000    0.00000000
     atom  121 type  2   force =     0.00000000    0.00000000    0.00000000
     atom  122 type  2   force =     0.00000000    0.00000000    0.00000000
     atom  123 type  2   force =     0.00000000    0.00000000    0.00000000
     atom  124 type  2   force =     0.00000000    0.00000000    0.00000000
     atom  125 type  2   force =     0.00000000    0.00000000    0.00000000
     atom  126 type  2   force =     0.00000000    0.00000000    0.00000000
     atom  127 type  2   force =     0.00000000    0.00000000    0.00000000
     The Hubbard contrib.    to forces
     atom    1 type  1   force =     0.00000000    0.00000000    0.00000000
     atom    2 type  1   force =     0.00000000    0.00000000    0.00000000
     atom    3 type  1   force =     0.00000000    0.00000000    0.00000000
     atom    4 type  1   force =     0.00000000    0.00000000    0.00000000
     atom    5 type  1   force =     0.00000000    0.00000000    0.00000000
     atom    6 type  1   force =     0.00000000    0.00000000    0.00000000
     atom    7 type  1   force =     0.00000000    0.00000000    0.00000000
     atom    8 type  1   force =     0.00000000    0.00000000    0.00000000
     atom    9 type  1   force =     0.00000000    0.00000000    0.00000000
     atom   10 type  1   force =     0.00000000    0.00000000    0.00000000
     atom   11 type  1   force =     0.00000000    0.00000000    0.00000000
     atom   12 type  1   force =     0.00000000    0.00000000    0.00000000
     atom   13 type  1   force =     0.00000000    0.00000000    0.00000000
     atom   14 type  1   force =     0.00000000    0.00000000    0.00000000
     atom   15 type  1   force =     0.00000000    0.00000000    0.00000000
     atom   16 type  1   force =     0.00000000    0.00000000    0.00000000
     atom   17 type  1   force =     0.00000000    0.00000000    0.00000000
     atom   18 type  1   force =     0.00000000    0.00000000    0.00000000
     atom   19 type  1   force =     0.00000000    0.00000000    0.00000000
     atom   20 type  1   force =     0.00000000    0.00000000    0.00000000
     atom   21 type  1   force =     0.00000000    0.00000000    0.00000000
     atom   22 type  1   force =     0.00000000    0.00000000    0.00000000
     atom   23 type  1   force =     0.00000000    0.00000000    0.00000000
     atom   24 type  1   force =     0.00000000    0.00000000    0.00000000
     atom   25 type  1   force =     0.00000000    0.00000000    0.00000000
     atom   26 type  1   force =     0.00000000    0.00000000    0.00000000
     atom   27 type  1   force =     0.00000000    0.00000000    0.00000000
     atom   28 type  1   force =     0.00000000    0.00000000    0.00000000
     atom   29 type  1   force =     0.00000000    0.00000000    0.00000000
     atom   30 type  1   force =     0.00000000    0.00000000    0.00000000
     atom   31 type  1   force =     0.00000000    0.00000000    0.00000000
     atom   32 type  1   force =     0.00000000    0.00000000    0.00000000
     atom   33 type  1   force =     0.00000000    0.00000000    0.00000000
     atom   34 type  1   force =     0.00000000    0.00000000    0.00000000
     atom   35 type  1   force =     0.00000000    0.00000000    0.00000000
     atom   36 type  1   force =     0.00000000    0.00000000    0.00000000
     atom   37 type  1   force =     0.00000000    0.00000000    0.00000000
     atom   38 type  1   force =     0.00000000    0.00000000    0.00000000
     atom   39 type  1   force =     0.00000000    0.00000000    0.00000000
     atom   40 type  1   force =     0.00000000    0.00000000    0.00000000
     atom   41 type  1   force =     0.00000000    0.00000000    0.00000000
     atom   42 type  1   force =     0.00000000    0.00000000    0.00000000
     atom   43 type  1   force =     0.00000000    0.00000000    0.00000000
     atom   44 type  1   force =     0.00000000    0.00000000    0.00000000
     atom   45 type  1   force =     0.00000000    0.00000000    0.00000000
     atom   46 type  1   force =     0.00000000    0.00000000    0.00000000
     atom   47 type  1   force =     0.00000000    0.00000000    0.00000000
     atom   48 type  1   force =     0.00000000    0.00000000    0.00000000
     atom   49 type  1   force =     0.00000000    0.00000000    0.00000000
     atom   50 type  1   force =     0.00000000    0.00000000    0.00000000
     atom   51 type  1   force =     0.00000000    0.00000000    0.00000000
     atom   52 type  1   force =     0.00000000    0.00000000    0.00000000
     atom   53 type  1   force =     0.00000000    0.00000000    0.00000000
     atom   54 type  1   force =     0.00000000    0.00000000    0.00000000
     atom   55 type  1   force =     0.00000000    0.00000000    0.00000000
     atom   56 type  1   force =     0.00000000    0.00000000    0.00000000
     atom   57 type  1   force =     0.00000000    0.00000000    0.00000000
     atom   58 type  1   force =     0.00000000    0.00000000    0.00000000
     atom   59 type  1   force =     0.00000000    0.00000000    0.00000000
     atom   60 type  1   force =     0.00000000    0.00000000    0.00000000
     atom   61 type  1   force =     0.00000000    0.00000000    0.00000000
     atom   62 type  1   force =     0.00000000    0.00000000    0.00000000
     atom   63 type  1   force =     0.00000000    0.00000000    0.00000000
     atom   64 type  1   force =     0.00000000    0.00000000    0.00000000
     atom   65 type  2   force =     0.00000000    0.00000000    0.00000000
     atom   66 type  2   force =     0.00000000    0.00000000    0.00000000
     atom   67 type  2   force =     0.00000000    0.00000000    0.00000000
     atom   68 type  2   force =     0.00000000    0.00000000    0.00000000
     atom   69 type  2   force =     0.00000000    0.00000000    0.00000000
     atom   70 type  2   force =     0.00000000    0.00000000    0.00000000
     atom   71 type  2   force =     0.00000000    0.00000000    0.00000000
     atom   72 type  2   force =     0.00000000    0.00000000    0.00000000
     atom   73 type  2   force =     0.00000000    0.00000000    0.00000000
     atom   74 type  2   force =     0.00000000    0.00000000    0.00000000
     atom   75 type  2   force =     0.00000000    0.00000000    0.00000000
     atom   76 type  2   force =     0.00000000    0.00000000    0.00000000
     atom   77 type  2   force =     0.00000000    0.00000000    0.00000000
     atom   78 type  2   force =     0.00000000    0.00000000    0.00000000
     atom   79 type  2   force =     0.00000000    0.00000000    0.00000000
     atom   80 type  2   force =     0.00000000    0.00000000    0.00000000
     atom   81 type  2   force =     0.00000000    0.00000000    0.00000000
     atom   82 type  2   force =     0.00000000    0.00000000    0.00000000
     atom   83 type  2   force =     0.00000000    0.00000000    0.00000000
     atom   84 type  2   force =     0.00000000    0.00000000    0.00000000
     atom   85 type  2   force =     0.00000000    0.00000000    0.00000000
     atom   86 type  2   force =     0.00000000    0.00000000    0.00000000
     atom   87 type  2   force =     0.00000000    0.00000000    0.00000000
     atom   88 type  2   force =     0.00000000    0.00000000    0.00000000
     atom   89 type  2   force =     0.00000000    0.00000000    0.00000000
     atom   90 type  2   force =     0.00000000    0.00000000    0.00000000
     atom   91 type  2   force =     0.00000000    0.00000000    0.00000000
     atom   92 type  2   force =     0.00000000    0.00000000    0.00000000
     atom   93 type  2   force =     0.00000000    0.00000000    0.00000000
     atom   94 type  2   force =     0.00000000    0.00000000    0.00000000
     atom   95 type  2   force =     0.00000000    0.00000000    0.00000000
     atom   96 type  2   force =     0.00000000    0.00000000    0.00000000
     atom   97 type  2   force =     0.00000000    0.00000000    0.00000000
     atom   98 type  2   force =     0.00000000    0.00000000    0.00000000
     atom   99 type  2   force =     0.00000000    0.00000000    0.00000000
     atom  100 type  2   force =     0.00000000    0.00000000    0.00000000
     atom  101 type  2   force =     0.00000000    0.00000000    0.00000000
     atom  102 type  2   force =     0.00000000    0.00000000    0.00000000
     atom  103 type  2   force =     0.00000000    0.00000000    0.00000000
     atom  104 type  2   force =     0.00000000    0.00000000    0.00000000
     atom  105 type  2   force =     0.00000000    0.00000000    0.00000000
     atom  106 type  2   force =     0.00000000    0.00000000    0.00000000
     atom  107 type  2   force =     0.00000000    0.00000000    0.00000000
     atom  108 type  2   force =     0.00000000    0.00000000    0.00000000
     atom  109 type  2   force =     0.00000000    0.00000000    0.00000000
     atom  110 type  2   force =     0.00000000    0.00000000    0.00000000
     atom  111 type  2   force =     0.00000000    0.00000000    0.00000000
     atom  112 type  2   force =     0.00000000    0.00000000    0.00000000
     atom  113 type  2   force =     0.00000000    0.00000000    0.00000000
     atom  114 type  2   force =     0.00000000    0.00000000    0.00000000
     atom  115 type  2   force =     0.00000000    0.00000000    0.00000000
     atom  116 type  2   force =     0.00000000    0.00000000    0.00000000
     atom  117 type  2   force =     0.00000000    0.00000000    0.00000000
     atom  118 type  2   force =     0.00000000    0.00000000    0.00000000
     atom  119 type  2   force =     0.00000000    0.00000000    0.00000000
     atom  120 type  2   force =     0.00000000    0.00000000    0.00000000
     atom  121 type  2   force =     0.00000000    0.00000000    0.00000000
     atom  122 type  2   force =     0.00000000    0.00000000    0.00000000
     atom  123 type  2   force =     0.00000000    0.00000000    0.00000000
     atom  124 type  2   force =     0.00000000    0.00000000    0.00000000
     atom  125 type  2   force =     0.00000000    0.00000000    0.00000000
     atom  126 type  2   force =     0.00000000    0.00000000    0.00000000
     atom  127 type  2   force =     0.00000000    0.00000000    0.00000000
     The SCF correction term to forces
     atom    1 type  1   force =     0.00000014    0.00000008    0.00000006
     atom    2 type  1   force =    -0.00000105   -0.00000061    0.00000086
     atom    3 type  1   force =    -0.00000000   -0.00000000   -0.00000018
     atom    4 type  1   force =    -0.00000063   -0.00000036    0.00000052
     atom    5 type  1   force =    -0.00000105    0.00000060   -0.00000085
     atom    6 type  1   force =    -0.00000000    0.00000121    0.00000086
     atom    7 type  1   force =    -0.00000097    0.00000172   -0.00000244
     atom    8 type  1   force =     0.00000100    0.00000286    0.00000080
     atom    9 type  1   force =    -0.00000001   -0.00000017    0.00000006
     atom   10 type  1   force =    -0.00000097   -0.00000172    0.00000244
     atom   11 type  1   force =    -0.00000264    0.00000153    0.00000107
     atom   12 type  1   force =    -0.00000198   -0.00000230    0.00000079
     atom   13 type  1   force =    -0.00000063    0.00000037   -0.00000051
     atom   14 type  1   force =     0.00000101    0.00000171    0.00000244
     atom   15 type  1   force =    -0.00000198   -0.00000002   -0.00000244
     atom   16 type  1   force =    -0.00000001    0.00000074    0.00000052
     atom   17 type  1   force =    -0.00000000   -0.00000121   -0.00000085
     atom   18 type  1   force =     0.00000105   -0.00000060    0.00000086
     atom   19 type  1   force =     0.00000100   -0.00000170   -0.00000244
     atom   20 type  1   force =     0.00000298   -0.00000056    0.00000080
     atom   21 type  1   force =     0.00000105    0.00000061   -0.00000085
     atom   22 type  1   force =    -0.00000264   -0.00000152   -0.00000107
     atom   23 type  1   force =    -0.00001856   -0.00001071    0.00001514
     atom   24 type  1   force =    -0.00000000    0.00000000    0.00000324
     atom   25 type  1   force =     0.00000100   -0.00000286   -0.00000079
     atom   26 type  1   force =    -0.00001855    0.00001070   -0.00001515
     atom   27 type  1   force =    -0.00000000    0.00002144    0.00001516
     atom   28 type  1   force =     0.00000197   -0.00000230    0.00000079
     atom   29 type  1   force =     0.00000298    0.00000057   -0.00000079
     atom   30 type  1   force =    -0.00000001    0.00000305   -0.00000107
     atom   31 type  1   force =     0.00000197   -0.00000002   -0.00000244
     atom   32 type  1   force =     0.00000015   -0.00000008   -0.00000006
     atom   33 type  1   force =    -0.00000015    0.00000008    0.00000006
     atom   34 type  1   force =    -0.00000197    0.00000002    0.00000244
     atom   35 type  1   force =     0.00000001   -0.00000305    0.00000107
     atom   36 type  1   force =    -0.00000298   -0.00000057    0.00000079
     atom   37 type  1   force =    -0.00000197    0.00000230   -0.00000079
     atom   38 type  1   force =    -0.00000001   -0.00002142   -0.00001515
     atom   39 type  1   force =     0.00001856   -0.00001072    0.00001516
     atom   40 type  1   force =    -0.00000100    0.00000286    0.00000079
     atom   41 type  1   force =     0.00000000   -0.00000000   -0.00000323
     atom   42 type  1   force =     0.00001856    0.00001072   -0.00001516
     atom   43 type  1   force =     0.00000265    0.00000152    0.00000108
     atom   44 type  1   force =    -0.00000104   -0.00000061    0.00000085
     atom   45 type  1   force =    -0.00000298    0.00000056   -0.00000080
     atom   46 type  1   force =    -0.00000100    0.00000170    0.00000244
     atom   47 type  1   force =    -0.00000105    0.00000060   -0.00000086
     atom   48 type  1   force =     0.00000000    0.00000121    0.00000085
     atom   49 type  1   force =     0.00000001   -0.00000074   -0.00000052
     atom   50 type  1   force =     0.00000198    0.00000002    0.00000244
     atom   51 type  1   force =    -0.00000100   -0.00000171   -0.00000244
     atom   52 type  1   force =     0.00000063   -0.00000037    0.00000051
     atom   53 type  1   force =     0.00000198    0.00000230   -0.00000079
     atom   54 type  1   force =     0.00000264   -0.00000153   -0.00000107
     atom   55 type  1   force =     0.00000097    0.00000172   -0.00000244
     atom   56 type  1   force =     0.00000001    0.00000017   -0.00000006
     atom   57 type  1   force =    -0.00000100   -0.00000286   -0.00000080
     atom   58 type  1   force =     0.00000098   -0.00000172    0.00000244
     atom   59 type  1   force =     0.00000000   -0.00000121   -0.00000086
     atom   60 type  1   force =     0.00000105   -0.00000060    0.00000085
     atom   61 type  1   force =     0.00000063    0.00000036   -0.00000052
     atom   62 type  1   force =     0.00000000    0.00000000    0.00000018
     atom   63 type  1   force =     0.00000105    0.00000061   -0.00000086
     atom   64 type  1   force =    -0.00000014   -0.00000008   -0.00000006
     atom   65 type  2   force =    -0.00000000   -0.00000000   -0.00000000
     atom   66 type  2   force =     0.00000051    0.00000029    0.00000083
     atom   67 type  2   force =     0.00000000   -0.00000000    0.00000000
     atom   68 type  2   force =    -0.00000051   -0.00000029   -0.00000083
     atom   69 type  2   force =     0.00000051    0.00000087    0.00000000
     atom   70 type  2   force =    -0.00000060    0.00000121    0.00000086
     atom   71 type  2   force =    -0.00000135    0.00000077   -0.00000037
     atom   72 type  2   force =     0.00000000    0.00000058   -0.00000083
     atom   73 type  2   force =     0.00000000    0.00000000   -0.00000000
     atom   74 type  2   force =    -0.00000135   -0.00000009    0.00000086
     atom   75 type  2   force =     0.00000000    0.00000000    0.00000000
     atom   76 type  2   force =     0.00000135    0.00000009   -0.00000086
     atom   77 type  2   force =    -0.00000051   -0.00000087   -0.00000000
     atom   78 type  2   force =    -0.00000000   -0.00000058    0.00000083
     atom   79 type  2   force =     0.00000135   -0.00000077    0.00000037
     atom   80 type  2   force =     0.00000060   -0.00000121   -0.00000086
     atom   81 type  2   force =     0.00000101    0.00000001    0.00000000
     atom   82 type  2   force =     0.00000075   -0.00000112    0.00000086
     atom   83 type  2   force =    -0.00000001   -0.00000156   -0.00000037
     atom   84 type  2   force =     0.00000050   -0.00000029   -0.00000083
     atom   85 type  2   force =     0.00000075    0.00000043   -0.00000134
     atom   86 type  2   force =    -0.00000000   -0.00000000    0.00000000
     atom   87 type  2   force =     0.00000134    0.00000078   -0.00000037
     atom   88 type  2   force =     0.00000031    0.00000018   -0.00000025
     atom   89 type  2   force =    -0.00000000   -0.00000087   -0.00000134
     atom   90 type  2   force =     0.00000134   -0.00000009    0.00000086
     atom   91 type  2   force =     0.00000374    0.00000000   -0.00000000
     atom   92 type  2   force =     0.00000187   -0.00000108   -0.00000305
     atom   93 type  2   force =     0.00000050   -0.00000087    0.00000000
     atom   94 type  2   force =     0.00000031   -0.00000018    0.00000026
     atom   95 type  2   force =     0.00000186   -0.00000323   -0.00000000
     atom   96 type  2   force =    -0.00000001   -0.00000036   -0.00000026
     atom   97 type  2   force =     0.00000000    0.00000000    0.00000000
     atom   98 type  2   force =    -0.00000075   -0.00000112    0.00000086
     atom   99 type  2   force =     0.00000000    0.00000000    0.00000000
     atom  100 type  2   force =     0.00000075    0.00000112   -0.00000086
     atom  101 type  2   force =    -0.00000075    0.00000043   -0.00000134
     atom  102 type  2   force =     0.00000059    0.00000121    0.00000086
     atom  103 type  2   force =     0.00000187    0.00000324   -0.00000000
     atom  104 type  2   force =     0.00000000    0.00000216   -0.00000305
     atom  105 type  2   force =     0.00000000    0.00000000    0.00000000
     atom  106 type  2   force =     0.00000187    0.00000108    0.00000306
     atom  107 type  2   force =    -0.00000187   -0.00000108   -0.00000305
     atom  108 type  2   force =     0.00000075   -0.00000043    0.00000134
     atom  109 type  2   force =    -0.00000000   -0.00000216    0.00000305
     atom  110 type  2   force =    -0.00000187   -0.00000323    0.00000000
     atom  111 type  2   force =    -0.00000059   -0.00000121   -0.00000086
     atom  112 type  2   force =    -0.00000101   -0.00000001   -0.00000000
     atom  113 type  2   force =    -0.00000050    0.00000029    0.00000083
     atom  114 type  2   force =     0.00000001    0.00000156    0.00000037
     atom  115 type  2   force =    -0.00000074    0.00000112   -0.00000086
     atom  116 type  2   force =    -0.00000050    0.00000087   -0.00000000
     atom  117 type  2   force =     0.00000001    0.00000036    0.00000026
     atom  118 type  2   force =    -0.00000186    0.00000323    0.00000000
     atom  119 type  2   force =    -0.00000031    0.00000018   -0.00000026
     atom  120 type  2   force =     0.00000000    0.00000087    0.00000134
     atom  121 type  2   force =    -0.00000187    0.00000108    0.00000305
     atom  122 type  2   force =    -0.00000373   -0.00000000    0.00000000
     atom  123 type  2   force =    -0.00000134    0.00000009   -0.00000086
     atom  124 type  2   force =    -0.00000075   -0.00000043    0.00000134
     atom  125 type  2   force =    -0.00000031   -0.00000018    0.00000025
     atom  126 type  2   force =    -0.00000134   -0.00000078    0.00000037
     atom  127 type  2   force =     0.00000000   -0.00000000   -0.00000000

     Total force =     0.002602     Total SCF correction =     0.000069

     Writing output data file pwscf.save
 
     init_run     :      0.87s CPU      0.93s WALL (       1 calls)
     electrons    :   3278.54s CPU   3311.16s WALL (       7 calls)
     forces       :      0.24s CPU      0.24s WALL (       1 calls)

     Called by init_run:
     wfcinit      :      0.72s CPU      0.75s WALL (       1 calls)
     wfcinit:atom :      0.00s CPU      0.00s WALL (       1 calls)
     wfcinit:wfcr :      0.71s CPU      0.74s WALL (       1 calls)
     potinit      :      0.06s CPU      0.06s WALL (       1 calls)

     Called by electrons:
     c_bands      :   3272.26s CPU   3304.32s WALL (      38 calls)
     sum_band     :      4.77s CPU      4.84s WALL (      38 calls)
     v_of_rho     :      0.69s CPU      0.70s WALL (      39 calls)
     v_h          :      0.06s CPU      0.06s WALL (      39 calls)
     v_xc         :      0.63s CPU      0.64s WALL (      39 calls)
     mix_rho      :      0.07s CPU      0.07s WALL (      38 calls)

     Called by c_bands:
     init_us_2    :      0.28s CPU      0.31s WALL (      90 calls)
     regterg      :   3271.57s CPU   3303.54s WALL (      38 calls)

     Called by sum_band:

     Called by *egterg:
     h_psi        :   3019.54s CPU   3049.93s WALL (     288 calls)
     g_psi        :      0.07s CPU      0.07s WALL (     249 calls)
     rdiaghg      :    228.62s CPU    228.84s WALL (     280 calls)
     regterg:over :      8.92s CPU      8.97s WALL (     249 calls)
     regterg:upda :      4.08s CPU      4.10s WALL (     249 calls)
     regterg:last :      2.12s CPU      2.14s WALL (      45 calls)

     Called by h_psi:
     h_psi:pot    :     36.09s CPU     36.62s WALL (     288 calls)
     h_psi:calbec :      4.45s CPU      4.51s WALL (     288 calls)
     vloc_psi     :     27.80s CPU     28.27s WALL (     288 calls)
     add_vuspsi   :      3.83s CPU      3.85s WALL (     288 calls)

     General routines
     calbec       :      5.03s CPU      5.08s WALL (     305 calls)
     fft          :      0.65s CPU      0.66s WALL (     423 calls)
     fftw         :     31.18s CPU     31.69s WALL (   70908 calls)
     fftc         :   2009.31s CPU   2027.74s WALL ( 3961221 calls)
     fftcw        :     67.04s CPU     67.85s WALL (  170336 calls)
 
     Parallel routines
     fft_scatter  :   1052.50s CPU   1064.18s WALL ( 4202888 calls)

     EXX routines
     exx_grid     :      0.00s CPU      0.00s WALL (       1 calls)
     exxinit      :      1.19s CPU      1.24s WALL (       7 calls)
     vexx         :   2983.26s CPU   3013.11s WALL (     197 calls)
     exxenergy    :    225.58s CPU    227.69s WALL (      13 calls)
 
     PWSCF        : 58m28.91s CPU    59m 4.11s WALL

 
   This run was terminated on:   8:56:35   4May2023            

=------------------------------------------------------------------------------=
   JOB DONE.
=------------------------------------------------------------------------------=
