
     Program PWSCF v.6.1 starts on  5Jul2022 at 16:59:55 

     This program is part of the open-source Quantum ESPRESSO suite
     for quantum simulation of materials; please cite
         "P. Giannozzi et al., J. Phys.:Condens. Matter 21 395502 (2009);
          URL http://www.quantum-espresso.org", 
     in publications or presentations arising from this work. More details at
     http://www.quantum-espresso.org/quote

     Parallel version (MPI & OpenMP), running on      80 processor cores
     Number of MPI processes:                80
     Threads/MPI process:                     1
     K-points division:     npool     =       2
     R & G space division:  proc/nbgrp/npool/nimage =      40
     Waiting for input...
     Reading input from standard input

     Current dimensions of program PWSCF are:
     Max number of different atomic species (ntypx) = 10
     Max number of k-points (npk) =  40000
     Max angular momentum in pseudopotentials (lmaxx) =  3

     gamma-point specific algorithms are used

     Subspace diagonalization in iterative solution of the eigenvalue problem:
     one sub-group per band group will be used
     scalapack distributed-memory algorithm (size of sub-group:  4*  4 procs)

 
     Parallelization info
     --------------------
     sticks:   dense  smooth     PW     G-vecs:    dense   smooth      PW
     Min         275     275     68                21888    21888    2724
     Max         278     278     70                21902    21902    2734
     Sum       11057   11057   2757               875727   875727  109127
 


     bravais-lattice index     =            0
     lattice parameter (alat)  =      20.2276  a.u.
     unit-cell volume          =    8276.2749 (a.u.)^3
     number of atoms/cell      =          215
     number of atomic types    =            2
     number of electrons       =       862.00 (up: 432.00, down: 430.00)
     number of Kohn-Sham states=          800
     kinetic-energy cutoff     =      85.0000  Ry
     charge density cutoff     =     340.0000  Ry
     convergence threshold     =      1.0E-10
     mixing beta               =       0.7000
     number of iterations used =            8  plain     mixing
     Exchange-correlation      = PBE ( 1  4  3  4 0 0)

     celldm(1)=  20.227629  celldm(2)=   0.000000  celldm(3)=   0.000000
     celldm(4)=   0.000000  celldm(5)=   0.000000  celldm(6)=   0.000000

     crystal axes: (cart. coord. in units of alat)
               a(1) = (   1.000000   0.000000   0.000000 )  
               a(2) = (   0.000000   1.000000   0.000000 )  
               a(3) = (   0.000000   0.000000   1.000000 )  

     reciprocal axes: (cart. coord. in units 2 pi/alat)
               b(1) = (  1.000000  0.000000  0.000000 )  
               b(2) = (  0.000000  1.000000  0.000000 )  
               b(3) = (  0.000000  0.000000  1.000000 )  


     PseudoPot. # 1 for C  read from file:
     /home/jinyuchem/program/QE/pseudo-potential/C_ONCV_PBE-1.0.upf
     MD5 check sum: 40f8c33130f0afa4272e9dcc1c4fb0df
     Pseudo is Norm-conserving, Zval =  4.0
     Generated using ONCVPSP code by D. R. Hamann
     Using radial grid of  602 points,  4 beta functions with: 
                l(1) =   0
                l(2) =   0
                l(3) =   1
                l(4) =   1

     PseudoPot. # 2 for N  read from file:
     /home/jinyuchem/program/QE/pseudo-potential/N_ONCV_PBE-1.0.upf
     MD5 check sum: e7391ac1e3da9302b4611eea0a09cd4a
     Pseudo is Norm-conserving, Zval =  5.0
     Generated using ONCVPSP code by D. R. Hamann
     Using radial grid of  602 points,  4 beta functions with: 
                l(1) =   0
                l(2) =   0
                l(3) =   1
                l(4) =   1

     atomic species   valence    mass     pseudopotential
        C              4.00    12.01100     C ( 1.00)
        N              5.00    14.00700     N ( 1.00)

     Starting magnetic structure 
     atomic species   magnetization
        C            0.000
        N            0.000

      2 Sym. Ops. (no inversion) found ( 1 have fractional translation)


                                    s                        frac. trans.

      isym =  1     identity                                     

 cryst.   s( 1) = (     1          0          0      )
                  (     0          1          0      )
                  (     0          0          1      )

 cart.    s( 1) = (  1.0000000  0.0000000  0.0000000 )
                  (  0.0000000  1.0000000  0.0000000 )
                  (  0.0000000  0.0000000  1.0000000 )


      isym =  2     inv. 180 deg rotation - cart. axis [-1,0,1]  

 cryst.   s( 2) = (     0          0          1      )    f =( -0.1666669 )
                  (     0          1          0      )       ( -0.0000000 )
                  (     1          0          0      )       (  0.1666668 )

 cart.    s( 2) = (  0.0000000  0.0000000  1.0000000 )    f =( -0.1666669 )
                  (  0.0000000  1.0000000  0.0000000 )       ( -0.0000000 )
                  (  1.0000000  0.0000000  0.0000000 )       (  0.1666668 )


   Cartesian axes

     site n.     atom                  positions (alat units)
         1           C   tau(   1) = (   0.0000225   0.0000601   0.0000746  )
         2           C   tau(   2) = (   0.0832790   0.0834079   0.0834125  )
         3           C   tau(   3) = (  -0.0001771   0.1668151   0.1668164  )
         4           C   tau(   4) = (   0.0828793   0.2502133   0.2502107  )
         5           C   tau(   5) = (   0.1666296  -0.0000351   0.1667391  )
         6           C   tau(   6) = (   0.2498616   0.0832034   0.2500115  )
         7           C   tau(   7) = (   0.1666382   0.1667384  -0.0000287  )
         8           C   tau(   8) = (   0.2498685   0.2500218   0.0832017  )
         9           C   tau(   9) = (  -0.0000711   0.0001679   0.3334642  )
        10           C   tau(  10) = (   0.0830782   0.0835887   0.4167287  )
        11           C   tau(  11) = (  -0.0004687   0.1671974   0.5001921  )
        12           C   tau(  12) = (   0.0834616   0.2499458   0.5834437  )
        13           C   tau(  13) = (   0.1669551   0.0002865   0.5001548  )
        14           C   tau(  14) = (   0.2500268   0.0833586   0.5833002  )
        15           C   tau(  15) = (   0.1663141   0.1667207   0.3333687  )
        16           C   tau(  16) = (   0.2495606   0.2499101   0.4165472  )
        17           C   tau(  17) = (   0.0000984   0.0002286   0.6667428  )
        18           C   tau(  18) = (   0.0834094   0.0834767   0.7500685  )
        19           C   tau(  19) = (   0.0000615   0.1667875   0.8333948  )
        20           C   tau(  20) = (   0.0833250   0.2501944   0.9166583  )
        21           C   tau(  21) = (   0.1667414   0.0000601   0.8333556  )
        22           C   tau(  22) = (   0.2500792   0.0834078   0.9166122  )
        23           C   tau(  23) = (   0.1668556   0.1666578   0.6666103  )
        24           C   tau(  24) = (   0.2501603   0.2501689   0.7499094  )
        25           C   tau(  25) = (  -0.0000620   0.3334663   0.0001789  )
        26           C   tau(  26) = (   0.0830732   0.4167424   0.0836097  )
        27           C   tau(  27) = (  -0.0005003   0.5002057   0.1672351  )
        28           C   tau(  28) = (   0.0833711   0.5834510   0.2500346  )
        29           C   tau(  29) = (   0.1663155   0.3333780   0.1667216  )
        30           C   tau(  30) = (   0.2495587   0.4165636   0.2499050  )
        31           C   tau(  31) = (   0.1669632   0.5001584   0.0002966  )
        32           C   tau(  32) = (   0.2500308   0.5833056   0.0833640  )
        33           C   tau(  33) = (  -0.0006912   0.3338268   0.3338299  )
        34           C   tau(  34) = (   0.0825196   0.4172304   0.4172301  )
        35           C   tau(  35) = (  -0.0009496   0.5007261   0.5007698  )
        36           C   tau(  36) = (   0.0828863   0.5835665   0.5835727  )
        37           C   tau(  37) = (   0.1663437   0.3334780   0.5000494  )
        38           C   tau(  38) = (   0.2499092   0.4167710   0.5832748  )
        39           C   tau(  39) = (   0.1663242   0.5000574   0.3334870  )
        40           C   tau(  40) = (   0.2498963   0.5832824   0.4167681  )
        41           C   tau(  41) = (   0.0005675   0.3329064   0.6666264  )
        42           C   tau(  42) = (   0.0834409   0.4168709   0.7500926  )
        43           C   tau(  43) = (   0.0011482   0.5003876   0.8344817  )
        44           C   tau(  44) = (   0.0839388   0.5833625   0.9172720  )
        45           C   tau(  45) = (   0.1668455   0.3334663   0.8332712  )
        46           C   tau(  46) = (   0.2502765   0.4167424   0.9164063  )
        47           C   tau(  47) = (   0.1667029   0.5001502   0.6666635  )
        48           C   tau(  48) = (   0.2502579   0.5834056   0.7498533  )
        49           C   tau(  49) = (   0.0000740   0.6667323   0.0002095  )
        50           C   tau(  50) = (   0.0833796   0.7500595   0.0834841  )
        51           C   tau(  51) = (   0.0000311   0.8333706   0.1668161  )
        52           C   tau(  52) = (   0.0833057   0.9166439   0.2501965  )
        53           C   tau(  53) = (   0.1668084   0.6666114   0.1666883  )
        54           C   tau(  54) = (   0.2501347   0.7499070   0.2501710  )
        55           C   tau(  55) = (   0.1667347   0.8333482   0.0000678  )
        56           C   tau(  56) = (   0.2500730   0.9166089   0.0834063  )
        57           C   tau(  57) = (   0.0004124   0.6666364   0.3330846  )
        58           C   tau(  58) = (   0.0833793   0.7500929   0.4169170  )
        59           C   tau(  59) = (   0.0011062   0.8344909   0.5004195  )
        60           C   tau(  60) = (   0.0839289   0.9172743   0.5833680  )
        61           C   tau(  61) = (   0.1666846   0.6666613   0.5001530  )
        62           C   tau(  62) = (   0.2502430   0.7498587   0.5833974  )
        63           C   tau(  63) = (   0.1668086   0.8332590   0.3334732  )
        64           C   tau(  64) = (   0.2502509   0.9164008   0.4167305  )
        65           C   tau(  65) = (  -0.0002676   0.6665826   0.6665668  )
        66           C   tau(  66) = (   0.0831834   0.7498657   0.7498656  )
        67           C   tau(  67) = (  -0.0000078   0.8333335   0.8333256  )
        68           C   tau(  68) = (   0.0833662   0.9166906   0.9166996  )
        69           C   tau(  69) = (   0.1668762   0.6667323   0.8334073  )
        70           C   tau(  70) = (   0.2501508   0.7500595   0.9167128  )
        71           C   tau(  71) = (   0.1668685   0.8334064   0.6667314  )
        72           C   tau(  72) = (   0.2501442   0.9167143   0.7500575  )
        73           C   tau(  73) = (   0.3334060  -0.0000351  -0.0000372  )
        74           C   tau(  74) = (   0.4166783   0.0832034   0.0831949  )
        75           C   tau(  75) = (   0.3331604   0.1665019   0.1664937  )
        76           C   tau(  76) = (   0.4163440   0.2496963   0.2496774  )
        77           C   tau(  77) = (   0.5000297  -0.0003491   0.1667029  )
        78           C   tau(  78) = (   0.5832054   0.0829138   0.2498796  )
        79           C   tau(  79) = (   0.5000354   0.1667206  -0.0003525  )
        80           C   tau(  80) = (   0.5832139   0.2499099   0.0828940  )
        81           C   tau(  81) = (   0.3333695  -0.0003490   0.3333630  )
        82           C   tau(  82) = (   0.4165461   0.0829138   0.4165388  )
        83           C   tau(  83) = (   0.3329668   0.1663195   0.4998552  )
        84           C   tau(  84) = (   0.4160707   0.2494076   0.5829263  )
        85           C   tau(  85) = (   0.5001104  -0.0002897   0.5000290  )
        86           C   tau(  86) = (   0.5834133   0.0832494   0.5832700  )
        87           C   tau(  87) = (   0.4996389   0.1660580   0.3329722  )
        88           C   tau(  88) = (   0.5827291   0.2491050   0.4160626  )
        89           C   tau(  89) = (   0.3333235   0.0001696   0.6666006  )
        90           C   tau(  90) = (   0.4168243   0.0834773   0.7499076  )
        91           C   tau(  91) = (   0.3334829   0.1668150   0.8331560  )
        92           C   tau(  92) = (   0.4168775   0.2502132   0.9162125  )
        93           C   tau(  93) = (   0.5001307   0.0001678   0.8332621  )
        94           C   tau(  94) = (   0.5833954   0.0835886   0.9164115  )
        95           C   tau(  95) = (   0.5000765   0.1668376   0.6663353  )
        96           C   tau(  96) = (   0.5836720   0.2510856   0.7489364  )
        97           C   tau(  97) = (   0.3333884   0.3333780  -0.0003512  )
        98           C   tau(  98) = (   0.4165717   0.4165635   0.0828920  )
        99           C   tau(  99) = (   0.3329865   0.4998695   0.1663196  )
       100           C   tau( 100) = (   0.4160930   0.5829348   0.2494264  )
       101           C   tau( 101) = (   0.4996523   0.3329981   0.1660498  )
       102           C   tau( 102) = (   0.5827437   0.4160741   0.2491245  )
       103           C   tau( 103) = (   0.5001537   0.5000573  -0.0003424  )
       104           C   tau( 104) = (   0.5834349   0.5832824   0.0832298  )
       105           C   tau( 105) = (   0.3327166   0.3329982   0.3329856  )
       106           C   tau( 106) = (   0.4157911   0.4160742   0.4160771  )
       107           C   tau( 107) = (   0.3332431   0.4998506   0.4998395  )
       108           C   tau( 108) = (   0.4172592   0.5831715   0.5831497  )
       109           C   tau( 109) = (   0.4985888   0.3319027   0.4994038  )
       110           C   tau( 110) = (   0.5834063   0.4166708   0.5791271  )
       111           C   tau( 111) = (   0.4986214   0.4994091   0.3319547  )
       112           C   tau( 112) = (   0.5834587   0.5791285   0.4167920  )
       113           C   tau( 113) = (   0.3335194   0.3334328   0.6663299  )
       114           C   tau( 114) = (   0.4178031   0.4170266   0.7489153  )
       115           C   tau( 115) = (   0.3339017   0.5002056   0.8328329  )
       116           C   tau( 116) = (   0.4167012   0.5834511   0.9167045  )
       117           C   tau( 117) = (   0.5004967   0.3338267   0.8326421  )
       118           C   tau( 118) = (   0.5838967   0.4172303   0.9158535  )
       119           C   tau( 119) = (   0.5017799   0.5007881   0.6648356  )
       120           C   tau( 120) = (   0.5858183   0.5845489   0.7479839  )
       121           C   tau( 121) = (   0.3333550   0.6666114   0.0001418  )
       122           C   tau( 122) = (   0.4168377   0.7499070   0.0834680  )
       123           C   tau( 123) = (   0.3334720   0.8331533   0.1668054  )
       124           C   tau( 124) = (   0.4168629   0.9162173   0.2501962  )
       125           C   tau( 125) = (   0.5000943   0.6663387   0.1668426  )
       126           C   tau( 126) = (   0.5836767   0.7489332   0.2511204  )
       127           C   tau( 127) = (   0.5001398   0.8332589   0.0001420  )
       128           C   tau( 128) = (   0.5833972   0.9164007   0.0835843  )
       129           C   tau( 129) = (   0.3335092   0.6663386   0.3334277  )
       130           C   tau( 130) = (   0.4177871   0.7489332   0.4170101  )
       131           C   tau( 131) = (   0.3338731   0.8328511   0.5001906  )
       132           C   tau( 132) = (   0.4166301   0.9167873   0.5834311  )
       133           C   tau( 133) = (   0.5017667   0.6648986   0.5007957  )
       134           C   tau( 134) = (   0.5856458   0.7482965   0.5845202  )
       135           C   tau( 135) = (   0.5004806   0.8326654   0.3338139  )
       136           C   tau( 136) = (   0.5838605   0.9159343   0.4171939  )
       137           C   tau( 137) = (   0.3337028   0.6665973   0.6665843  )
       138           C   tau( 138) = (   0.4169581   0.7500058   0.7499573  )
       139           C   tau( 139) = (   0.3334829   0.8333706   0.8333643  )
       140           C   tau( 140) = (   0.4168633   0.9166438   0.9166389  )
       141           C   tau( 141) = (   0.4997513   0.6666364   0.8337457  )
       142           C   tau( 142) = (   0.5835835   0.7500929   0.9167127  )
       143           C   tau( 143) = (   0.4996540   0.8338968   0.6665861  )
       144           C   tau( 144) = (   0.5835526   0.9167791   0.7500760  )
       145           C   tau( 145) = (   0.6668214   0.0002864   0.0002885  )
       146           C   tau( 146) = (   0.7499671   0.0833585   0.0833603  )
       147           C   tau( 147) = (   0.6665219   0.1663194   0.1663000  )
       148           C   tau( 148) = (   0.7495931   0.2494076   0.2494042  )
       149           C   tau( 149) = (   0.8332673   0.0001697   0.1666569  )
       150           C   tau( 150) = (   0.9165745   0.0834773   0.2501576  )
       151           C   tau( 151) = (   0.8332770   0.1666577   0.0001891  )
       152           C   tau( 152) = (   0.9165762   0.2501688   0.0834936  )
       153           C   tau( 153) = (   0.6666957  -0.0002897   0.3334438  )
       154           C   tau( 154) = (   0.7499366   0.0832494   0.4167466  )
       155           C   tau( 155) = (   0.6664983   0.1665579   0.4998317  )
       156           C   tau( 156) = (   0.7498301   0.2505199   0.5831635  )
       157           C   tau( 157) = (   0.8333252   0.0000659   0.5001410  )
       158           C   tau( 158) = (   0.9165393   0.0835819   0.5834007  )
       159           C   tau( 159) = (   0.8330017   0.1668376   0.3334100  )
       160           C   tau( 160) = (   0.9156031   0.2510856   0.4170053  )
       161           C   tau( 161) = (   0.6668075   0.0000658   0.6666585  )
       162           C   tau( 162) = (   0.7500672   0.0835818   0.7498729  )
       163           C   tau( 163) = (   0.6668588   0.1671973   0.8328647  )
       164           C   tau( 164) = (   0.7501105   0.2499457   0.9167951  )
       165           C   tau( 165) = (   0.8334096   0.0002285   0.8334318  )
       166           C   tau( 166) = (   0.9167352   0.0834767   0.9167427  )
       167           C   tau( 167) = (   0.8332724   0.1669964   0.6666058  )
       168           C   tau( 168) = (   0.9166810   0.2502101   0.7500145  )
       169           C   tau( 169) = (   0.6667162   0.3334778  -0.0003229  )
       170           C   tau( 170) = (   0.7499415   0.4167709   0.0832427  )
       171           C   tau( 171) = (   0.6665062   0.4998505   0.1665766  )
       172           C   tau( 172) = (   0.7498163   0.5831715   0.2505928  )
       173           C   tau( 173) = (   0.8329965   0.3334328   0.1668528  )
       174           C   tau( 174) = (   0.9155820   0.4170267   0.2511364  )
       175           C   tau( 175) = (   0.8333302   0.5001502   0.0000364  )
       176           C   tau( 176) = (   0.9165199   0.5834056   0.0835915  )
       177           C   tau( 177) = (   0.6660704   0.3319027   0.3319221  )
       178           C   tau( 178) = (   0.7457937   0.4166708   0.4167396  )
       179           C   tau( 179) = (   0.8315540   0.3349941   0.5007819  )
       180           C   tau( 180) = (   0.9149189   0.4188133   0.5845546  )
       181           C   tau( 181) = (   0.8315023   0.5007881   0.3351132  )
       182           C   tau( 182) = (   0.9146503   0.5845491   0.4191516  )
       183           C   tau( 183) = (   0.6674487   0.3349941   0.6648874  )
       184           C   tau( 184) = (   0.7512211   0.4188132   0.7482525  )
       185           C   tau( 185) = (   0.6674364   0.5007260   0.8323838  )
       186           C   tau( 186) = (   0.7502393   0.5835664   0.9162199  )
       187           C   tau( 187) = (   0.8332933   0.3329063   0.8339010  )
       188           C   tau( 188) = (   0.9167593   0.4168709   0.9167743  )
       189           C   tau( 189) = (   0.8404387   0.4951057   0.6737721  )
       190           C   tau( 190) = (   0.9161010   0.5826272   0.7494345  )
       191           C   tau( 191) = (   0.6668196   0.6666613   0.0000181  )
       192           C   tau( 192) = (   0.7500638   0.7498589   0.0835767  )
       193           C   tau( 193) = (   0.6668573   0.8328511   0.1672065  )
       194           C   tau( 194) = (   0.7500978   0.9167873   0.2499635  )
       195           C   tau( 195) = (   0.8332511   0.6665972   0.1670363  )
       196           C   tau( 196) = (   0.9166240   0.7500058   0.2502915  )
       197           C   tau( 197) = (   0.8333982   0.8334064   0.0002019  )
       198           C   tau( 198) = (   0.9167242   0.9167144   0.0834775  )
       199           C   tau( 199) = (   0.6674623   0.6648986   0.3351000  )
       200           C   tau( 200) = (   0.7511870   0.7482965   0.4189789  )
       201           C   tau( 201) = (   0.6673463   0.8325454   0.5006797  )
       202           C   tau( 202) = (   0.7502226   0.9163120   0.5835560  )
       203           C   tau( 203) = (   0.8398639   0.6736422   0.4958318  )
       204           C   tau( 204) = (   0.9160370   0.7495164   0.5826713  )
       205           C   tau( 205) = (   0.8332528   0.8338970   0.3329871  )
       206           C   tau( 206) = (   0.9167427   0.9167792   0.4168860  )
       207           C   tau( 207) = (   0.6624985   0.6736419   0.6731974  )
       208           C   tau( 208) = (   0.7493380   0.7495164   0.7493705  )
       209           C   tau( 209) = (   0.6670861   0.8344908   0.8344398  )
       210           C   tau( 210) = (   0.7500348   0.9172742   0.9172622  )
       211           C   tau( 211) = (   0.8332333   0.6665826   0.8330660  )
       212           C   tau( 212) = (   0.9165322   0.7498658   0.9165169  )
       213           C   tau( 213) = (   0.8332788   0.8332223   0.6666124  )
       214           C   tau( 214) = (   0.9165525   0.9165877   0.7498858  )
       215           N   tau( 215) = (   0.6586007   0.4917736   0.4919341  )

   Crystallographic axes

     site n.     atom                  positions (cryst. coord.)
         1           C   tau(   1) = (  0.0000225  0.0000601  0.0000746  )
         2           C   tau(   2) = (  0.0832790  0.0834079  0.0834125  )
         3           C   tau(   3) = ( -0.0001771  0.1668151  0.1668164  )
         4           C   tau(   4) = (  0.0828793  0.2502133  0.2502107  )
         5           C   tau(   5) = (  0.1666296 -0.0000351  0.1667391  )
         6           C   tau(   6) = (  0.2498616  0.0832034  0.2500115  )
         7           C   tau(   7) = (  0.1666382  0.1667384 -0.0000287  )
         8           C   tau(   8) = (  0.2498685  0.2500218  0.0832017  )
         9           C   tau(   9) = ( -0.0000711  0.0001679  0.3334642  )
        10           C   tau(  10) = (  0.0830782  0.0835887  0.4167287  )
        11           C   tau(  11) = ( -0.0004687  0.1671974  0.5001921  )
        12           C   tau(  12) = (  0.0834616  0.2499458  0.5834437  )
        13           C   tau(  13) = (  0.1669551  0.0002865  0.5001548  )
        14           C   tau(  14) = (  0.2500268  0.0833586  0.5833002  )
        15           C   tau(  15) = (  0.1663141  0.1667207  0.3333687  )
        16           C   tau(  16) = (  0.2495606  0.2499101  0.4165472  )
        17           C   tau(  17) = (  0.0000984  0.0002286  0.6667428  )
        18           C   tau(  18) = (  0.0834094  0.0834767  0.7500685  )
        19           C   tau(  19) = (  0.0000615  0.1667875  0.8333948  )
        20           C   tau(  20) = (  0.0833250  0.2501944  0.9166583  )
        21           C   tau(  21) = (  0.1667414  0.0000601  0.8333556  )
        22           C   tau(  22) = (  0.2500792  0.0834078  0.9166122  )
        23           C   tau(  23) = (  0.1668556  0.1666578  0.6666103  )
        24           C   tau(  24) = (  0.2501603  0.2501689  0.7499094  )
        25           C   tau(  25) = ( -0.0000620  0.3334663  0.0001789  )
        26           C   tau(  26) = (  0.0830732  0.4167424  0.0836097  )
        27           C   tau(  27) = ( -0.0005003  0.5002057  0.1672351  )
        28           C   tau(  28) = (  0.0833711  0.5834510  0.2500346  )
        29           C   tau(  29) = (  0.1663155  0.3333780  0.1667216  )
        30           C   tau(  30) = (  0.2495587  0.4165636  0.2499050  )
        31           C   tau(  31) = (  0.1669632  0.5001584  0.0002966  )
        32           C   tau(  32) = (  0.2500308  0.5833056  0.0833640  )
        33           C   tau(  33) = ( -0.0006912  0.3338268  0.3338299  )
        34           C   tau(  34) = (  0.0825196  0.4172304  0.4172301  )
        35           C   tau(  35) = ( -0.0009496  0.5007261  0.5007698  )
        36           C   tau(  36) = (  0.0828863  0.5835665  0.5835727  )
        37           C   tau(  37) = (  0.1663437  0.3334780  0.5000494  )
        38           C   tau(  38) = (  0.2499092  0.4167710  0.5832748  )
        39           C   tau(  39) = (  0.1663242  0.5000574  0.3334870  )
        40           C   tau(  40) = (  0.2498963  0.5832824  0.4167681  )
        41           C   tau(  41) = (  0.0005675  0.3329064  0.6666264  )
        42           C   tau(  42) = (  0.0834409  0.4168709  0.7500926  )
        43           C   tau(  43) = (  0.0011482  0.5003876  0.8344817  )
        44           C   tau(  44) = (  0.0839388  0.5833625  0.9172720  )
        45           C   tau(  45) = (  0.1668455  0.3334663  0.8332712  )
        46           C   tau(  46) = (  0.2502765  0.4167424  0.9164063  )
        47           C   tau(  47) = (  0.1667029  0.5001502  0.6666635  )
        48           C   tau(  48) = (  0.2502579  0.5834056  0.7498533  )
        49           C   tau(  49) = (  0.0000740  0.6667323  0.0002095  )
        50           C   tau(  50) = (  0.0833796  0.7500595  0.0834841  )
        51           C   tau(  51) = (  0.0000311  0.8333706  0.1668161  )
        52           C   tau(  52) = (  0.0833057  0.9166439  0.2501965  )
        53           C   tau(  53) = (  0.1668084  0.6666114  0.1666883  )
        54           C   tau(  54) = (  0.2501347  0.7499070  0.2501710  )
        55           C   tau(  55) = (  0.1667347  0.8333482  0.0000678  )
        56           C   tau(  56) = (  0.2500730  0.9166089  0.0834063  )
        57           C   tau(  57) = (  0.0004124  0.6666364  0.3330846  )
        58           C   tau(  58) = (  0.0833793  0.7500929  0.4169170  )
        59           C   tau(  59) = (  0.0011062  0.8344909  0.5004195  )
        60           C   tau(  60) = (  0.0839289  0.9172743  0.5833680  )
        61           C   tau(  61) = (  0.1666846  0.6666613  0.5001530  )
        62           C   tau(  62) = (  0.2502430  0.7498587  0.5833974  )
        63           C   tau(  63) = (  0.1668086  0.8332590  0.3334732  )
        64           C   tau(  64) = (  0.2502509  0.9164008  0.4167305  )
        65           C   tau(  65) = ( -0.0002676  0.6665826  0.6665668  )
        66           C   tau(  66) = (  0.0831834  0.7498657  0.7498656  )
        67           C   tau(  67) = ( -0.0000078  0.8333335  0.8333256  )
        68           C   tau(  68) = (  0.0833662  0.9166906  0.9166996  )
        69           C   tau(  69) = (  0.1668762  0.6667323  0.8334073  )
        70           C   tau(  70) = (  0.2501508  0.7500595  0.9167128  )
        71           C   tau(  71) = (  0.1668685  0.8334064  0.6667314  )
        72           C   tau(  72) = (  0.2501442  0.9167143  0.7500575  )
        73           C   tau(  73) = (  0.3334060 -0.0000351 -0.0000372  )
        74           C   tau(  74) = (  0.4166783  0.0832034  0.0831949  )
        75           C   tau(  75) = (  0.3331604  0.1665019  0.1664937  )
        76           C   tau(  76) = (  0.4163440  0.2496963  0.2496774  )
        77           C   tau(  77) = (  0.5000297 -0.0003491  0.1667029  )
        78           C   tau(  78) = (  0.5832054  0.0829138  0.2498796  )
        79           C   tau(  79) = (  0.5000354  0.1667206 -0.0003525  )
        80           C   tau(  80) = (  0.5832139  0.2499099  0.0828940  )
        81           C   tau(  81) = (  0.3333695 -0.0003490  0.3333630  )
        82           C   tau(  82) = (  0.4165461  0.0829138  0.4165388  )
        83           C   tau(  83) = (  0.3329668  0.1663195  0.4998552  )
        84           C   tau(  84) = (  0.4160707  0.2494076  0.5829263  )
        85           C   tau(  85) = (  0.5001104 -0.0002897  0.5000290  )
        86           C   tau(  86) = (  0.5834133  0.0832494  0.5832700  )
        87           C   tau(  87) = (  0.4996389  0.1660580  0.3329722  )
        88           C   tau(  88) = (  0.5827291  0.2491050  0.4160626  )
        89           C   tau(  89) = (  0.3333235  0.0001696  0.6666006  )
        90           C   tau(  90) = (  0.4168243  0.0834773  0.7499076  )
        91           C   tau(  91) = (  0.3334829  0.1668150  0.8331560  )
        92           C   tau(  92) = (  0.4168775  0.2502132  0.9162125  )
        93           C   tau(  93) = (  0.5001307  0.0001678  0.8332621  )
        94           C   tau(  94) = (  0.5833954  0.0835886  0.9164115  )
        95           C   tau(  95) = (  0.5000765  0.1668376  0.6663353  )
        96           C   tau(  96) = (  0.5836720  0.2510856  0.7489364  )
        97           C   tau(  97) = (  0.3333884  0.3333780 -0.0003512  )
        98           C   tau(  98) = (  0.4165717  0.4165635  0.0828920  )
        99           C   tau(  99) = (  0.3329865  0.4998695  0.1663196  )
       100           C   tau( 100) = (  0.4160930  0.5829348  0.2494264  )
       101           C   tau( 101) = (  0.4996523  0.3329981  0.1660498  )
       102           C   tau( 102) = (  0.5827437  0.4160741  0.2491245  )
       103           C   tau( 103) = (  0.5001537  0.5000573 -0.0003424  )
       104           C   tau( 104) = (  0.5834349  0.5832824  0.0832298  )
       105           C   tau( 105) = (  0.3327166  0.3329982  0.3329856  )
       106           C   tau( 106) = (  0.4157911  0.4160742  0.4160771  )
       107           C   tau( 107) = (  0.3332431  0.4998506  0.4998395  )
       108           C   tau( 108) = (  0.4172592  0.5831715  0.5831497  )
       109           C   tau( 109) = (  0.4985888  0.3319027  0.4994038  )
       110           C   tau( 110) = (  0.5834063  0.4166708  0.5791271  )
       111           C   tau( 111) = (  0.4986214  0.4994091  0.3319547  )
       112           C   tau( 112) = (  0.5834587  0.5791285  0.4167920  )
       113           C   tau( 113) = (  0.3335194  0.3334328  0.6663299  )
       114           C   tau( 114) = (  0.4178031  0.4170266  0.7489153  )
       115           C   tau( 115) = (  0.3339017  0.5002056  0.8328329  )
       116           C   tau( 116) = (  0.4167012  0.5834511  0.9167045  )
       117           C   tau( 117) = (  0.5004967  0.3338267  0.8326421  )
       118           C   tau( 118) = (  0.5838967  0.4172303  0.9158535  )
       119           C   tau( 119) = (  0.5017799  0.5007881  0.6648356  )
       120           C   tau( 120) = (  0.5858183  0.5845489  0.7479839  )
       121           C   tau( 121) = (  0.3333550  0.6666114  0.0001418  )
       122           C   tau( 122) = (  0.4168377  0.7499070  0.0834680  )
       123           C   tau( 123) = (  0.3334720  0.8331533  0.1668054  )
       124           C   tau( 124) = (  0.4168629  0.9162173  0.2501962  )
       125           C   tau( 125) = (  0.5000943  0.6663387  0.1668426  )
       126           C   tau( 126) = (  0.5836767  0.7489332  0.2511204  )
       127           C   tau( 127) = (  0.5001398  0.8332589  0.0001420  )
       128           C   tau( 128) = (  0.5833972  0.9164007  0.0835843  )
       129           C   tau( 129) = (  0.3335092  0.6663386  0.3334277  )
       130           C   tau( 130) = (  0.4177871  0.7489332  0.4170101  )
       131           C   tau( 131) = (  0.3338731  0.8328511  0.5001906  )
       132           C   tau( 132) = (  0.4166301  0.9167873  0.5834311  )
       133           C   tau( 133) = (  0.5017667  0.6648986  0.5007957  )
       134           C   tau( 134) = (  0.5856458  0.7482965  0.5845202  )
       135           C   tau( 135) = (  0.5004806  0.8326654  0.3338139  )
       136           C   tau( 136) = (  0.5838605  0.9159343  0.4171939  )
       137           C   tau( 137) = (  0.3337028  0.6665973  0.6665843  )
       138           C   tau( 138) = (  0.4169581  0.7500058  0.7499573  )
       139           C   tau( 139) = (  0.3334829  0.8333706  0.8333643  )
       140           C   tau( 140) = (  0.4168633  0.9166438  0.9166389  )
       141           C   tau( 141) = (  0.4997513  0.6666364  0.8337457  )
       142           C   tau( 142) = (  0.5835835  0.7500929  0.9167127  )
       143           C   tau( 143) = (  0.4996540  0.8338968  0.6665861  )
       144           C   tau( 144) = (  0.5835526  0.9167791  0.7500760  )
       145           C   tau( 145) = (  0.6668214  0.0002864  0.0002885  )
       146           C   tau( 146) = (  0.7499671  0.0833585  0.0833603  )
       147           C   tau( 147) = (  0.6665219  0.1663194  0.1663000  )
       148           C   tau( 148) = (  0.7495931  0.2494076  0.2494042  )
       149           C   tau( 149) = (  0.8332673  0.0001697  0.1666569  )
       150           C   tau( 150) = (  0.9165745  0.0834773  0.2501576  )
       151           C   tau( 151) = (  0.8332770  0.1666577  0.0001891  )
       152           C   tau( 152) = (  0.9165762  0.2501688  0.0834936  )
       153           C   tau( 153) = (  0.6666957 -0.0002897  0.3334438  )
       154           C   tau( 154) = (  0.7499366  0.0832494  0.4167466  )
       155           C   tau( 155) = (  0.6664983  0.1665579  0.4998317  )
       156           C   tau( 156) = (  0.7498301  0.2505199  0.5831635  )
       157           C   tau( 157) = (  0.8333252  0.0000659  0.5001410  )
       158           C   tau( 158) = (  0.9165393  0.0835819  0.5834007  )
       159           C   tau( 159) = (  0.8330017  0.1668376  0.3334100  )
       160           C   tau( 160) = (  0.9156031  0.2510856  0.4170053  )
       161           C   tau( 161) = (  0.6668075  0.0000658  0.6666585  )
       162           C   tau( 162) = (  0.7500672  0.0835818  0.7498729  )
       163           C   tau( 163) = (  0.6668588  0.1671973  0.8328647  )
       164           C   tau( 164) = (  0.7501105  0.2499457  0.9167951  )
       165           C   tau( 165) = (  0.8334096  0.0002285  0.8334318  )
       166           C   tau( 166) = (  0.9167352  0.0834767  0.9167427  )
       167           C   tau( 167) = (  0.8332724  0.1669964  0.6666058  )
       168           C   tau( 168) = (  0.9166810  0.2502101  0.7500145  )
       169           C   tau( 169) = (  0.6667162  0.3334778 -0.0003229  )
       170           C   tau( 170) = (  0.7499415  0.4167709  0.0832427  )
       171           C   tau( 171) = (  0.6665062  0.4998505  0.1665766  )
       172           C   tau( 172) = (  0.7498163  0.5831715  0.2505928  )
       173           C   tau( 173) = (  0.8329965  0.3334328  0.1668528  )
       174           C   tau( 174) = (  0.9155820  0.4170267  0.2511364  )
       175           C   tau( 175) = (  0.8333302  0.5001502  0.0000364  )
       176           C   tau( 176) = (  0.9165199  0.5834056  0.0835915  )
       177           C   tau( 177) = (  0.6660704  0.3319027  0.3319221  )
       178           C   tau( 178) = (  0.7457937  0.4166708  0.4167396  )
       179           C   tau( 179) = (  0.8315540  0.3349941  0.5007819  )
       180           C   tau( 180) = (  0.9149189  0.4188133  0.5845546  )
       181           C   tau( 181) = (  0.8315023  0.5007881  0.3351132  )
       182           C   tau( 182) = (  0.9146503  0.5845491  0.4191516  )
       183           C   tau( 183) = (  0.6674487  0.3349941  0.6648874  )
       184           C   tau( 184) = (  0.7512211  0.4188132  0.7482525  )
       185           C   tau( 185) = (  0.6674364  0.5007260  0.8323838  )
       186           C   tau( 186) = (  0.7502393  0.5835664  0.9162199  )
       187           C   tau( 187) = (  0.8332933  0.3329063  0.8339010  )
       188           C   tau( 188) = (  0.9167593  0.4168709  0.9167743  )
       189           C   tau( 189) = (  0.8404387  0.4951057  0.6737721  )
       190           C   tau( 190) = (  0.9161010  0.5826272  0.7494345  )
       191           C   tau( 191) = (  0.6668196  0.6666613  0.0000181  )
       192           C   tau( 192) = (  0.7500638  0.7498589  0.0835767  )
       193           C   tau( 193) = (  0.6668573  0.8328511  0.1672065  )
       194           C   tau( 194) = (  0.7500978  0.9167873  0.2499635  )
       195           C   tau( 195) = (  0.8332511  0.6665972  0.1670363  )
       196           C   tau( 196) = (  0.9166240  0.7500058  0.2502915  )
       197           C   tau( 197) = (  0.8333982  0.8334064  0.0002019  )
       198           C   tau( 198) = (  0.9167242  0.9167144  0.0834775  )
       199           C   tau( 199) = (  0.6674623  0.6648986  0.3351000  )
       200           C   tau( 200) = (  0.7511870  0.7482965  0.4189789  )
       201           C   tau( 201) = (  0.6673463  0.8325454  0.5006797  )
       202           C   tau( 202) = (  0.7502226  0.9163120  0.5835560  )
       203           C   tau( 203) = (  0.8398639  0.6736422  0.4958318  )
       204           C   tau( 204) = (  0.9160370  0.7495164  0.5826713  )
       205           C   tau( 205) = (  0.8332528  0.8338970  0.3329871  )
       206           C   tau( 206) = (  0.9167427  0.9167792  0.4168860  )
       207           C   tau( 207) = (  0.6624985  0.6736419  0.6731974  )
       208           C   tau( 208) = (  0.7493380  0.7495164  0.7493705  )
       209           C   tau( 209) = (  0.6670861  0.8344908  0.8344398  )
       210           C   tau( 210) = (  0.7500348  0.9172742  0.9172622  )
       211           C   tau( 211) = (  0.8332333  0.6665826  0.8330660  )
       212           C   tau( 212) = (  0.9165322  0.7498658  0.9165169  )
       213           C   tau( 213) = (  0.8332788  0.8332223  0.6666124  )
       214           C   tau( 214) = (  0.9165525  0.9165877  0.7498858  )
       215           N   tau( 215) = (  0.6586007  0.4917736  0.4919341  )

     number of k points=     1
                       cart. coord. in units 2pi/alat
        k(    1) = (   0.0000000   0.0000000   0.0000000), wk =   1.0000000

                       cryst. coord.
        k(    1) = (   0.0000000   0.0000000   0.0000000), wk =   1.0000000

     Dense  grid:   437864 G-vectors     FFT dimensions: ( 120, 120, 120)

     Estimated max dynamical RAM per process >     152.26MB

     Estimated total allocated dynamical RAM >   12180.52MB
     Generating pointlists ...
     new r_m :   0.0567 (alat units)  1.1470 (a.u.) for type    1
     new r_m :   0.0567 (alat units)  1.1470 (a.u.) for type    2

     Initial potential from superposition of free atoms

     starting charge  859.50659, renormalised to  862.00000
     Starting wfc are random

     total cpu time spent up to now is        3.5 secs

     per-process dynamical memory:    92.3 Mb

     Self-consistent Calculation

     iteration #  1     ecut=    85.00 Ry     beta=0.70
     Davidson diagonalization with overlap
     ethr =  1.00E-02,  avg # of iterations =  8.0

     total cpu time spent up to now is       47.0 secs

     total energy              =   -2455.46876385 Ry
     Harris-Foulkes estimate   =   -2461.08720885 Ry
     estimated scf accuracy    <      12.62932910 Ry

     total magnetization       =     2.00 Bohr mag/cell
     absolute magnetization    =     2.00 Bohr mag/cell

     iteration #  2     ecut=    85.00 Ry     beta=0.70
     Davidson diagonalization with overlap
     ethr =  1.47E-03,  avg # of iterations =  7.0

     total cpu time spent up to now is       67.3 secs

     total energy              =   -2455.93881705 Ry
     Harris-Foulkes estimate   =   -2456.64285698 Ry
     estimated scf accuracy    <       1.03298104 Ry

     total magnetization       =     2.00 Bohr mag/cell
     absolute magnetization    =     2.09 Bohr mag/cell

     iteration #  3     ecut=    85.00 Ry     beta=0.70
     Davidson diagonalization with overlap
     ethr =  1.20E-04,  avg # of iterations =  6.0

     total cpu time spent up to now is      104.9 secs

     total energy              =   -2455.29640018 Ry
     Harris-Foulkes estimate   =   -2457.46927639 Ry
     estimated scf accuracy    <       6.90976745 Ry

     total magnetization       =     2.00 Bohr mag/cell
     absolute magnetization    =     2.21 Bohr mag/cell

     iteration #  4     ecut=    85.00 Ry     beta=0.70
     Davidson diagonalization with overlap
     ethr =  1.20E-04,  avg # of iterations =  6.5

     total cpu time spent up to now is      135.2 secs

     total energy              =   -2456.48847992 Ry
     Harris-Foulkes estimate   =   -2456.52070994 Ry
     estimated scf accuracy    <       0.10036154 Ry

     total magnetization       =     2.00 Bohr mag/cell
     absolute magnetization    =     2.16 Bohr mag/cell

     iteration #  5     ecut=    85.00 Ry     beta=0.70
     Davidson diagonalization with overlap
     ethr =  1.16E-05,  avg # of iterations =  8.0

     total cpu time spent up to now is      163.3 secs

     total energy              =   -2456.50322633 Ry
     Harris-Foulkes estimate   =   -2456.50945973 Ry
     estimated scf accuracy    <       0.02290921 Ry

     total magnetization       =     2.00 Bohr mag/cell
     absolute magnetization    =     2.19 Bohr mag/cell

     iteration #  6     ecut=    85.00 Ry     beta=0.70
     Davidson diagonalization with overlap
     ethr =  2.66E-06,  avg # of iterations =  6.5

     total cpu time spent up to now is      189.1 secs

     total energy              =   -2456.50744186 Ry
     Harris-Foulkes estimate   =   -2456.50880715 Ry
     estimated scf accuracy    <       0.00491355 Ry

     total magnetization       =     2.00 Bohr mag/cell
     absolute magnetization    =     2.23 Bohr mag/cell

     iteration #  7     ecut=    85.00 Ry     beta=0.70
     Davidson diagonalization with overlap
     ethr =  5.70E-07,  avg # of iterations =  7.0

     total cpu time spent up to now is      214.9 secs

     total energy              =   -2456.50860215 Ry
     Harris-Foulkes estimate   =   -2456.50873547 Ry
     estimated scf accuracy    <       0.00066325 Ry

     total magnetization       =     2.00 Bohr mag/cell
     absolute magnetization    =     2.25 Bohr mag/cell

     iteration #  8     ecut=    85.00 Ry     beta=0.70
     Davidson diagonalization with overlap
     ethr =  7.69E-08,  avg # of iterations =  7.0

     total cpu time spent up to now is      244.1 secs

     total energy              =   -2456.50880686 Ry
     Harris-Foulkes estimate   =   -2456.50886753 Ry
     estimated scf accuracy    <       0.00031782 Ry

     total magnetization       =     2.00 Bohr mag/cell
     absolute magnetization    =     2.26 Bohr mag/cell

     iteration #  9     ecut=    85.00 Ry     beta=0.70
     Davidson diagonalization with overlap
     ethr =  3.69E-08,  avg # of iterations =  7.0

     total cpu time spent up to now is      269.8 secs

     total energy              =   -2456.50889126 Ry
     Harris-Foulkes estimate   =   -2456.50889401 Ry
     estimated scf accuracy    <       0.00006453 Ry

     total magnetization       =     2.00 Bohr mag/cell
     absolute magnetization    =     2.27 Bohr mag/cell

     iteration # 10     ecut=    85.00 Ry     beta=0.70
     Davidson diagonalization with overlap
     ethr =  7.49E-09,  avg # of iterations =  7.0

     total cpu time spent up to now is      295.6 secs

     total energy              =   -2456.50891305 Ry
     Harris-Foulkes estimate   =   -2456.50890889 Ry
     estimated scf accuracy    <       0.00001117 Ry

     total magnetization       =     2.00 Bohr mag/cell
     absolute magnetization    =     2.28 Bohr mag/cell

     iteration # 11     ecut=    85.00 Ry     beta=0.70
     Davidson diagonalization with overlap
     ethr =  1.30E-09,  avg # of iterations =  7.0

     total cpu time spent up to now is      324.6 secs

     total energy              =   -2456.50891715 Ry
     Harris-Foulkes estimate   =   -2456.50891808 Ry
     estimated scf accuracy    <       0.00000371 Ry

     total magnetization       =     2.00 Bohr mag/cell
     absolute magnetization    =     2.29 Bohr mag/cell

     iteration # 12     ecut=    85.00 Ry     beta=0.70
     Davidson diagonalization with overlap
     ethr =  4.30E-10,  avg # of iterations =  7.0

     total cpu time spent up to now is      351.6 secs

     total energy              =   -2456.50891810 Ry
     Harris-Foulkes estimate   =   -2456.50891834 Ry
     estimated scf accuracy    <       0.00000093 Ry

     total magnetization       =     2.00 Bohr mag/cell
     absolute magnetization    =     2.29 Bohr mag/cell

     iteration # 13     ecut=    85.00 Ry     beta=0.70
     Davidson diagonalization with overlap
     ethr =  1.08E-10,  avg # of iterations =  7.0

     total cpu time spent up to now is      377.7 secs

     total energy              =   -2456.50891836 Ry
     Harris-Foulkes estimate   =   -2456.50891837 Ry
     estimated scf accuracy    <       0.00000018 Ry

     total magnetization       =     2.00 Bohr mag/cell
     absolute magnetization    =     2.29 Bohr mag/cell

     iteration # 14     ecut=    85.00 Ry     beta=0.70
     Davidson diagonalization with overlap
     ethr =  2.05E-11,  avg # of iterations =  7.0

     total cpu time spent up to now is      405.1 secs

     total energy              =   -2456.50891841 Ry
     Harris-Foulkes estimate   =   -2456.50891841 Ry
     estimated scf accuracy    <       0.00000003 Ry

     total magnetization       =     2.00 Bohr mag/cell
     absolute magnetization    =     2.29 Bohr mag/cell

     iteration # 15     ecut=    85.00 Ry     beta=0.70
     Davidson diagonalization with overlap
     ethr =  3.57E-12,  avg # of iterations =  6.0

     total cpu time spent up to now is      431.6 secs

     total energy              =   -2456.50891842 Ry
     Harris-Foulkes estimate   =   -2456.50891842 Ry
     estimated scf accuracy    <       0.00000002 Ry

     total magnetization       =     2.00 Bohr mag/cell
     absolute magnetization    =     2.29 Bohr mag/cell

     iteration # 16     ecut=    85.00 Ry     beta=0.70
     Davidson diagonalization with overlap
     ethr =  1.84E-12,  avg # of iterations =  6.0

     total cpu time spent up to now is      456.2 secs

     total energy              =   -2456.50891843 Ry
     Harris-Foulkes estimate   =   -2456.50891843 Ry
     estimated scf accuracy    <          4.0E-09 Ry

     total magnetization       =     2.00 Bohr mag/cell
     absolute magnetization    =     2.29 Bohr mag/cell

     iteration # 17     ecut=    85.00 Ry     beta=0.70
     Davidson diagonalization with overlap
     ethr =  4.59E-13,  avg # of iterations =  6.0

     total cpu time spent up to now is      481.6 secs

     total energy              =   -2456.50891843 Ry
     Harris-Foulkes estimate   =   -2456.50891843 Ry
     estimated scf accuracy    <          1.3E-09 Ry

     total magnetization       =     2.00 Bohr mag/cell
     absolute magnetization    =     2.29 Bohr mag/cell

     iteration # 18     ecut=    85.00 Ry     beta=0.70
     Davidson diagonalization with overlap
     ethr =  1.56E-13,  avg # of iterations =  7.0

     total cpu time spent up to now is      509.0 secs

     total energy              =   -2456.50891843 Ry
     Harris-Foulkes estimate   =   -2456.50891843 Ry
     estimated scf accuracy    <          4.2E-10 Ry

     total magnetization       =     2.00 Bohr mag/cell
     absolute magnetization    =     2.29 Bohr mag/cell

     iteration # 19     ecut=    85.00 Ry     beta=0.70
     Davidson diagonalization with overlap
     ethr =  1.00E-13,  avg # of iterations =  7.0

     total cpu time spent up to now is      533.6 secs

     total energy              =   -2456.50891843 Ry
     Harris-Foulkes estimate   =   -2456.50891843 Ry
     estimated scf accuracy    <          2.8E-10 Ry

     total magnetization       =     2.00 Bohr mag/cell
     absolute magnetization    =     2.29 Bohr mag/cell

     iteration # 20     ecut=    85.00 Ry     beta=0.70
     Davidson diagonalization with overlap
     ethr =  1.00E-13,  avg # of iterations =  7.0
 
     Magnetic moment per site:
     atom:    1    charge:    1.8027    magn:    0.0002    constr:    0.0000
     atom:    2    charge:    1.8020    magn:   -0.0000    constr:    0.0000
     atom:    3    charge:    1.8030    magn:    0.0002    constr:    0.0000
     atom:    4    charge:    1.8011    magn:    0.0001    constr:    0.0000
     atom:    5    charge:    1.8027    magn:    0.0005    constr:    0.0000
     atom:    6    charge:    1.8015    magn:    0.0000    constr:    0.0000
     atom:    7    charge:    1.8028    magn:    0.0005    constr:    0.0000
     atom:    8    charge:    1.8015    magn:    0.0000    constr:    0.0000
     atom:    9    charge:    1.8031    magn:    0.0012    constr:    0.0000
     atom:   10    charge:    1.8012    magn:   -0.0001    constr:    0.0000
     atom:   11    charge:    1.7997    magn:    0.0002    constr:    0.0000
     atom:   12    charge:    1.8057    magn:    0.0031    constr:    0.0000
     atom:   13    charge:    1.8035    magn:    0.0013    constr:    0.0000
     atom:   14    charge:    1.8070    magn:    0.0013    constr:    0.0000
     atom:   15    charge:    1.8032    magn:    0.0001    constr:    0.0000
     atom:   16    charge:    1.8030    magn:   -0.0000    constr:    0.0000
     atom:   17    charge:    1.8015    magn:    0.0002    constr:    0.0000
     atom:   18    charge:    1.8030    magn:   -0.0001    constr:    0.0000
     atom:   19    charge:    1.8028    magn:    0.0012    constr:    0.0000
     atom:   20    charge:    1.8021    magn:   -0.0001    constr:    0.0000
     atom:   21    charge:    1.8027    magn:    0.0002    constr:    0.0000
     atom:   22    charge:    1.8020    magn:   -0.0000    constr:    0.0000
     atom:   23    charge:    1.8034    magn:    0.0017    constr:    0.0000
     atom:   24    charge:    1.8025    magn:   -0.0001    constr:    0.0000
     atom:   25    charge:    1.8030    magn:    0.0012    constr:    0.0000
     atom:   26    charge:    1.8011    magn:   -0.0001    constr:    0.0000
     atom:   27    charge:    1.7997    magn:    0.0002    constr:    0.0000
     atom:   28    charge:    1.8052    magn:    0.0030    constr:    0.0000
     atom:   29    charge:    1.8032    magn:    0.0001    constr:    0.0000
     atom:   30    charge:    1.8029    magn:   -0.0000    constr:    0.0000
     atom:   31    charge:    1.8035    magn:    0.0013    constr:    0.0000
     atom:   32    charge:    1.8067    magn:    0.0013    constr:    0.0000
     atom:   33    charge:    1.8026    magn:    0.0004    constr:    0.0000
     atom:   34    charge:    1.8002    magn:   -0.0007    constr:    0.0000
     atom:   35    charge:    1.8025    magn:    0.0062    constr:    0.0000
     atom:   36    charge:    1.8037    magn:   -0.0010    constr:    0.0000
     atom:   37    charge:    1.8015    magn:    0.0001    constr:    0.0000
     atom:   38    charge:    1.8029    magn:   -0.0001    constr:    0.0000
     atom:   39    charge:    1.8015    magn:    0.0001    constr:    0.0000
     atom:   40    charge:    1.8029    magn:   -0.0001    constr:    0.0000
     atom:   41    charge:    1.7985    magn:    0.0188    constr:    0.0000
     atom:   42    charge:    1.8017    magn:   -0.0012    constr:    0.0000
     atom:   43    charge:    1.8028    magn:    0.0178    constr:    0.0000
     atom:   44    charge:    1.8071    magn:    0.0018    constr:    0.0000
     atom:   45    charge:    1.8030    magn:    0.0012    constr:    0.0000
     atom:   46    charge:    1.8011    magn:   -0.0001    constr:    0.0000
     atom:   47    charge:    1.8024    magn:    0.0016    constr:    0.0000
     atom:   48    charge:    1.8027    magn:   -0.0001    constr:    0.0000
     atom:   49    charge:    1.8013    magn:    0.0002    constr:    0.0000
     atom:   50    charge:    1.8029    magn:   -0.0001    constr:    0.0000
     atom:   51    charge:    1.8027    magn:    0.0012    constr:    0.0000
     atom:   52    charge:    1.8021    magn:   -0.0001    constr:    0.0000
     atom:   53    charge:    1.8030    magn:    0.0016    constr:    0.0000
     atom:   54    charge:    1.8024    magn:   -0.0001    constr:    0.0000
     atom:   55    charge:    1.8026    magn:    0.0002    constr:    0.0000
     atom:   56    charge:    1.8020    magn:   -0.0000    constr:    0.0000
     atom:   57    charge:    1.7976    magn:    0.0185    constr:    0.0000
     atom:   58    charge:    1.8017    magn:   -0.0012    constr:    0.0000
     atom:   59    charge:    1.8029    magn:    0.0176    constr:    0.0000
     atom:   60    charge:    1.8071    magn:    0.0017    constr:    0.0000
     atom:   61    charge:    1.8024    magn:    0.0016    constr:    0.0000
     atom:   62    charge:    1.8027    magn:   -0.0001    constr:    0.0000
     atom:   63    charge:    1.8029    magn:    0.0012    constr:    0.0000
     atom:   64    charge:    1.8011    magn:   -0.0001    constr:    0.0000
     atom:   65    charge:    1.8009    magn:    0.0073    constr:    0.0000
     atom:   66    charge:    1.8007    magn:   -0.0004    constr:    0.0000
     atom:   67    charge:    1.8016    magn:    0.0002    constr:    0.0000
     atom:   68    charge:    1.8023    magn:   -0.0001    constr:    0.0000
     atom:   69    charge:    1.8013    magn:    0.0002    constr:    0.0000
     atom:   70    charge:    1.8029    magn:   -0.0001    constr:    0.0000
     atom:   71    charge:    1.8013    magn:    0.0002    constr:    0.0000
     atom:   72    charge:    1.8029    magn:   -0.0001    constr:    0.0000
     atom:   73    charge:    1.8027    magn:    0.0005    constr:    0.0000
     atom:   74    charge:    1.8015    magn:    0.0000    constr:    0.0000
     atom:   75    charge:    1.8032    magn:    0.0001    constr:    0.0000
     atom:   76    charge:    1.8025    magn:    0.0000    constr:    0.0000
     atom:   77    charge:    1.8032    magn:    0.0001    constr:    0.0000
     atom:   78    charge:    1.8031    magn:   -0.0000    constr:    0.0000
     atom:   79    charge:    1.8032    magn:    0.0001    constr:    0.0000
     atom:   80    charge:    1.8030    magn:   -0.0000    constr:    0.0000
     atom:   81    charge:    1.8032    magn:    0.0001    constr:    0.0000
     atom:   82    charge:    1.8031    magn:   -0.0000    constr:    0.0000
     atom:   83    charge:    1.8048    magn:    0.0002    constr:    0.0000
     atom:   84    charge:    1.8078    magn:    0.0002    constr:    0.0000
     atom:   85    charge:    1.8017    magn:    0.0001    constr:    0.0000
     atom:   86    charge:    1.8030    magn:   -0.0001    constr:    0.0000
     atom:   87    charge:    1.8053    magn:    0.0000    constr:    0.0000
     atom:   88    charge:    1.8041    magn:   -0.0001    constr:    0.0000
     atom:   89    charge:    1.8033    magn:    0.0016    constr:    0.0000
     atom:   90    charge:    1.8025    magn:   -0.0001    constr:    0.0000
     atom:   91    charge:    1.8030    magn:    0.0002    constr:    0.0000
     atom:   92    charge:    1.8011    magn:    0.0001    constr:    0.0000
     atom:   93    charge:    1.8031    magn:    0.0012    constr:    0.0000
     atom:   94    charge:    1.8012    magn:   -0.0001    constr:    0.0000
     atom:   95    charge:    1.8015    magn:    0.0002    constr:    0.0000
     atom:   96    charge:    1.7971    magn:   -0.0002    constr:    0.0000
     atom:   97    charge:    1.8032    magn:    0.0001    constr:    0.0000
     atom:   98    charge:    1.8029    magn:   -0.0000    constr:    0.0000
     atom:   99    charge:    1.8047    magn:    0.0002    constr:    0.0000
     atom:  100    charge:    1.8076    magn:    0.0002    constr:    0.0000
     atom:  101    charge:    1.8052    magn:    0.0000    constr:    0.0000
     atom:  102    charge:    1.8040    magn:   -0.0001    constr:    0.0000
     atom:  103    charge:    1.8015    magn:    0.0001    constr:    0.0000
     atom:  104    charge:    1.8029    magn:   -0.0001    constr:    0.0000
     atom:  105    charge:    1.8052    magn:    0.0000    constr:    0.0000
     atom:  106    charge:    1.8040    magn:   -0.0001    constr:    0.0000
     atom:  107    charge:    1.8024    magn:    0.0008    constr:    0.0000
     atom:  108    charge:    1.8061    magn:   -0.0006    constr:    0.0000
     atom:  109    charge:    1.8127    magn:    0.0002    constr:    0.0000
     atom:  110    charge:    1.7833    magn:    0.0006    constr:    0.0000
     atom:  111    charge:    1.8123    magn:    0.0002    constr:    0.0000
     atom:  112    charge:    1.7825    magn:    0.0006    constr:    0.0000
     atom:  113    charge:    1.8014    magn:    0.0002    constr:    0.0000
     atom:  114    charge:    1.7969    magn:   -0.0002    constr:    0.0000
     atom:  115    charge:    1.7997    magn:    0.0002    constr:    0.0000
     atom:  116    charge:    1.8052    magn:    0.0030    constr:    0.0000
     atom:  117    charge:    1.8026    magn:    0.0004    constr:    0.0000
     atom:  118    charge:    1.8002    magn:   -0.0007    constr:    0.0000
     atom:  119    charge:    1.7987    magn:    0.0039    constr:    0.0000
     atom:  120    charge:    1.8045    magn:   -0.0045    constr:    0.0000
     atom:  121    charge:    1.8030    magn:    0.0016    constr:    0.0000
     atom:  122    charge:    1.8024    magn:   -0.0001    constr:    0.0000
     atom:  123    charge:    1.8029    magn:    0.0002    constr:    0.0000
     atom:  124    charge:    1.8012    magn:    0.0001    constr:    0.0000
     atom:  125    charge:    1.8014    magn:    0.0002    constr:    0.0000
     atom:  126    charge:    1.7969    magn:   -0.0002    constr:    0.0000
     atom:  127    charge:    1.8029    magn:    0.0012    constr:    0.0000
     atom:  128    charge:    1.8011    magn:   -0.0001    constr:    0.0000
     atom:  129    charge:    1.8014    magn:    0.0002    constr:    0.0000
     atom:  130    charge:    1.7969    magn:   -0.0002    constr:    0.0000
     atom:  131    charge:    1.7996    magn:    0.0002    constr:    0.0000
     atom:  132    charge:    1.8056    magn:    0.0030    constr:    0.0000
     atom:  133    charge:    1.7986    magn:    0.0039    constr:    0.0000
     atom:  134    charge:    1.8059    magn:   -0.0045    constr:    0.0000
     atom:  135    charge:    1.8026    magn:    0.0003    constr:    0.0000
     atom:  136    charge:    1.8005    magn:   -0.0007    constr:    0.0000
     atom:  137    charge:    1.8022    magn:    0.0009    constr:    0.0000
     atom:  138    charge:    1.8022    magn:   -0.0012    constr:    0.0000
     atom:  139    charge:    1.8027    magn:    0.0012    constr:    0.0000
     atom:  140    charge:    1.8021    magn:   -0.0001    constr:    0.0000
     atom:  141    charge:    1.7976    magn:    0.0185    constr:    0.0000
     atom:  142    charge:    1.8017    magn:   -0.0012    constr:    0.0000
     atom:  143    charge:    1.7984    magn:    0.0185    constr:    0.0000
     atom:  144    charge:    1.8018    magn:   -0.0012    constr:    0.0000
     atom:  145    charge:    1.8035    magn:    0.0013    constr:    0.0000
     atom:  146    charge:    1.8070    magn:    0.0013    constr:    0.0000
     atom:  147    charge:    1.8048    magn:    0.0002    constr:    0.0000
     atom:  148    charge:    1.8078    magn:    0.0002    constr:    0.0000
     atom:  149    charge:    1.8033    magn:    0.0016    constr:    0.0000
     atom:  150    charge:    1.8025    magn:   -0.0001    constr:    0.0000
     atom:  151    charge:    1.8034    magn:    0.0017    constr:    0.0000
     atom:  152    charge:    1.8025    magn:   -0.0001    constr:    0.0000
     atom:  153    charge:    1.8017    magn:    0.0001    constr:    0.0000
     atom:  154    charge:    1.8030    magn:   -0.0001    constr:    0.0000
     atom:  155    charge:    1.8026    magn:    0.0009    constr:    0.0000
     atom:  156    charge:    1.8062    magn:   -0.0006    constr:    0.0000
     atom:  157    charge:    1.8026    magn:    0.0016    constr:    0.0000
     atom:  158    charge:    1.8028    magn:   -0.0001    constr:    0.0000
     atom:  159    charge:    1.8015    magn:    0.0002    constr:    0.0000
     atom:  160    charge:    1.7971    magn:   -0.0002    constr:    0.0000
     atom:  161    charge:    1.8026    magn:    0.0016    constr:    0.0000
     atom:  162    charge:    1.8028    magn:   -0.0001    constr:    0.0000
     atom:  163    charge:    1.7997    magn:    0.0002    constr:    0.0000
     atom:  164    charge:    1.8057    magn:    0.0031    constr:    0.0000
     atom:  165    charge:    1.8015    magn:    0.0002    constr:    0.0000
     atom:  166    charge:    1.8030    magn:   -0.0001    constr:    0.0000
     atom:  167    charge:    1.8024    magn:    0.0009    constr:    0.0000
     atom:  168    charge:    1.8024    magn:   -0.0012    constr:    0.0000
     atom:  169    charge:    1.8015    magn:    0.0001    constr:    0.0000
     atom:  170    charge:    1.8029    magn:   -0.0001    constr:    0.0000
     atom:  171    charge:    1.8024    magn:    0.0008    constr:    0.0000
     atom:  172    charge:    1.8061    magn:   -0.0006    constr:    0.0000
     atom:  173    charge:    1.8014    magn:    0.0002    constr:    0.0000
     atom:  174    charge:    1.7969    magn:   -0.0002    constr:    0.0000
     atom:  175    charge:    1.8024    magn:    0.0016    constr:    0.0000
     atom:  176    charge:    1.8027    magn:   -0.0001    constr:    0.0000
     atom:  177    charge:    1.8127    magn:    0.0002    constr:    0.0000
     atom:  178    charge:    1.7833    magn:    0.0006    constr:    0.0000
     atom:  179    charge:    1.7987    magn:    0.0040    constr:    0.0000
     atom:  180    charge:    1.8061    magn:   -0.0048    constr:    0.0000
     atom:  181    charge:    1.7987    magn:    0.0039    constr:    0.0000
     atom:  182    charge:    1.8045    magn:   -0.0045    constr:    0.0000
     atom:  183    charge:    1.7987    magn:    0.0040    constr:    0.0000
     atom:  184    charge:    1.8061    magn:   -0.0048    constr:    0.0000
     atom:  185    charge:    1.8025    magn:    0.0062    constr:    0.0000
     atom:  186    charge:    1.8037    magn:   -0.0010    constr:    0.0000
     atom:  187    charge:    1.7985    magn:    0.0188    constr:    0.0000
     atom:  188    charge:    1.8017    magn:   -0.0012    constr:    0.0000
     atom:  189    charge:    1.8203    magn:    0.2498    constr:    0.0000
     atom:  190    charge:    1.8100    magn:   -0.0086    constr:    0.0000
     atom:  191    charge:    1.8024    magn:    0.0016    constr:    0.0000
     atom:  192    charge:    1.8027    magn:   -0.0001    constr:    0.0000
     atom:  193    charge:    1.7996    magn:    0.0002    constr:    0.0000
     atom:  194    charge:    1.8056    magn:    0.0030    constr:    0.0000
     atom:  195    charge:    1.8022    magn:    0.0009    constr:    0.0000
     atom:  196    charge:    1.8022    magn:   -0.0012    constr:    0.0000
     atom:  197    charge:    1.8013    magn:    0.0002    constr:    0.0000
     atom:  198    charge:    1.8029    magn:   -0.0001    constr:    0.0000
     atom:  199    charge:    1.7986    magn:    0.0039    constr:    0.0000
     atom:  200    charge:    1.8059    magn:   -0.0045    constr:    0.0000
     atom:  201    charge:    1.8028    magn:    0.0062    constr:    0.0000
     atom:  202    charge:    1.8037    magn:   -0.0010    constr:    0.0000
     atom:  203    charge:    1.8191    magn:    0.2468    constr:    0.0000
     atom:  204    charge:    1.8102    magn:   -0.0085    constr:    0.0000
     atom:  205    charge:    1.7984    magn:    0.0185    constr:    0.0000
     atom:  206    charge:    1.8018    magn:   -0.0012    constr:    0.0000
     atom:  207    charge:    1.8191    magn:    0.2468    constr:    0.0000
     atom:  208    charge:    1.8102    magn:   -0.0085    constr:    0.0000
     atom:  209    charge:    1.8029    magn:    0.0176    constr:    0.0000
     atom:  210    charge:    1.8071    magn:    0.0017    constr:    0.0000
     atom:  211    charge:    1.8009    magn:    0.0073    constr:    0.0000
     atom:  212    charge:    1.8007    magn:   -0.0004    constr:    0.0000
     atom:  213    charge:    1.8015    magn:    0.0073    constr:    0.0000
     atom:  214    charge:    1.8011    magn:   -0.0004    constr:    0.0000
     atom:  215    charge:    2.8944    magn:   -0.0007    constr:    0.0000

     total cpu time spent up to now is      554.6 secs

     End of self-consistent calculation

 ------ SPIN UP ------------


          k = 0.0000 0.0000 0.0000 ( 54564 PWs)   bands (ev):

    -8.2697  -7.4500  -7.2603  -7.2601  -7.2174  -7.2161  -7.1344  -6.6081
    -6.2594  -6.2593  -6.2505  -6.2500  -6.2360  -6.2124  -6.2117  -6.1974
    -6.1606  -6.1578  -5.9910  -5.4911  -5.2342  -5.2267  -5.2255  -5.2084
    -5.2065  -5.2005  -5.0470  -4.4347  -4.2400  -4.2392  -4.2226  -4.2219
    -4.1641  -3.8441  -3.3517  -3.3515  -3.3419  -3.3417  -3.3414  -3.3285
    -3.3276  -3.3275  -3.3157  -3.3090  -3.3087  -3.3029  -3.3025  -3.3010
    -3.2786  -3.2773  -3.2598  -3.2590  -3.2560  -3.2338  -3.1834  -3.1814
    -3.0010  -2.8007  -2.5785  -2.5778  -2.5452  -2.5448  -2.5442  -2.5316
    -2.5272  -2.5270  -2.5227  -2.5168  -2.5165  -2.4946  -2.4892  -2.4891
    -2.4719  -2.4711  -2.4366  -2.4363  -2.4328  -2.3965  -2.3142  -2.3122
    -1.6360  -1.0352  -0.8693  -0.8691  -0.8303  -0.8289  -0.8229  -0.8223
    -0.8218  -0.8106  -0.7768  -0.7758  -0.4330   0.3778   0.4314   0.4317
     0.4536   0.4545   0.4935   0.7088   0.8858   0.8866   0.9309   0.9377
     0.9379   0.9472   0.9480   0.9517   0.9520   0.9689   0.9697   0.9768
     0.9768   0.9996   1.0350   1.0449   1.0456   1.0661   1.0666   1.0716
     1.0833   1.0837   1.1162   1.1389   1.1392   1.1440   1.1601   1.1604
     1.1613   1.1650   1.1701   1.1710   1.1774   1.1927   1.1932   1.2114
     1.2118   1.2152   1.2216   1.2232   1.2259   1.2259   1.2351   1.4526
     1.5687   1.5712   1.9694   2.2285   2.2285   2.2308   2.2734   2.2747
     2.2749   2.2792   2.3049   2.3050   2.4267   2.4277   3.3997   3.7365
     3.7367   3.7547   3.8085   3.8169   3.8171   3.8181   3.8208   3.8235
     3.8235   3.8302   3.8439   3.8446   3.8493   3.8618   3.8631   3.9853
     3.9860   3.9947   4.0241   4.3879   4.3882   4.4083   4.4853   4.4893
     4.4928   4.4932   4.4944   4.4945   4.5060   4.5062   4.5087   4.5159
     4.5163   4.5177   4.5248   4.5257   4.5438   4.5489   4.5521   4.5531
     4.7479   4.7483   5.2675   5.2679   5.2780   5.3317   5.3325   5.3327
     5.3357   5.3427   5.3432   5.3537   5.3541   5.3615   5.3729   5.3730
     5.4220   5.4230   5.4249   5.4408   5.4530   5.4788   5.4793   5.5473
     5.5608   5.5610   5.6335   5.7629   5.7632   5.8480   5.8614   5.8616
     5.8725   5.8760   5.8769   5.8809   5.8818   5.8856   5.8888   5.9030
     5.9077   5.9081   5.9224   5.9233   5.9359   5.9385   5.9593   5.9594
     5.9664   5.9895   5.9899   6.0435   6.0447   6.3259   6.3623   6.3642
     6.8641   6.8646   6.9234   6.9415   6.9522   6.9528   7.0714   7.4036
     7.4042   7.4755   7.4872   7.4874   7.5019   7.5019   7.5024   7.5273
     7.5819   7.5824   7.7397   7.7400   7.8554   7.8774   7.8806   7.8848
     7.8851   7.8870   7.8870   7.9188   7.9469   7.9474   7.9483   8.0896
     8.0912   8.1182   8.1456   8.1500   8.1502   8.1636   8.1670   8.1673
     8.1690   8.1701   8.1772   8.1773   8.1845   8.1852   8.2105   8.2105
     8.2234   8.2240   8.2311   8.2334   8.2335   8.2391   8.2915   8.2922
     8.3183   8.3357   8.3501   8.3534   8.3536   8.3559   8.3595   8.3596
     8.3607   8.3607   8.3648   8.3669   8.3750   8.3751   8.3794   8.3800
     8.3825   8.3840   8.3845   8.3912   8.3924   8.3942   8.3948   8.4037
     8.4041   8.4176   8.4307   8.4310   8.4448   8.4495   8.4495   8.4711
     8.4719   8.4904   8.4912   8.5116   8.5147   8.5564   8.5564   8.5595
     8.5732   8.6554   8.6606   8.9334   8.9393   8.9394   9.1096   9.1103
     9.1752   9.1755   9.1761   9.1845   9.2021   9.2095   9.2101   9.2134
     9.2290   9.2290   9.2321   9.2334   9.2434   9.2486   9.2505   9.2754
     9.3209   9.3213   9.3881  10.0410  10.1511  10.1526  10.5006  10.5422
    10.5425  10.5955  10.5972  10.5978  10.6117  10.6133  10.6134  10.6187
    10.6898  10.6909  10.6992  10.7882  10.7891  10.8475  10.8517  10.8517
    10.8554  10.8555  10.8637  10.8643  10.8764  10.8928  10.8933  10.9210
    10.9238  10.9251  10.9268  10.9588  10.9602  11.5159  11.5377  11.5377
    11.7637  11.7645  11.7751  11.8018  11.8019  11.8021  11.8254  11.8611
    11.8649  11.8959  12.9415  13.0268  13.0270  13.8991  14.9789  15.0081
    17.3561  17.3575  17.3774  17.4110  17.4113  17.4358  17.9325  18.0034
    18.0037  18.0192  18.0198  18.0748  18.1271  18.1287  18.1851  18.2289
    18.2292  18.2493  18.8437  18.8446  18.8675  19.4589  19.5345  19.5348
    19.5453  19.5824  19.5828  19.5935  19.5943  19.6002  19.6106  19.6113
    19.6517  20.0744  20.2396  20.2398  20.2732  20.2736  20.2755  20.2799
    20.2799  20.2809  20.2855  20.2857  20.2990  20.3086  20.3184  20.3189
    20.3361  20.3369  20.3390  20.3823  20.3830  20.3992  20.4245  20.4267
    20.4280  20.6983  20.7052  20.7073  20.7447  20.7492  20.7667  20.7667
    20.7712  20.7720  20.7728  20.7862  20.7863  20.8115  20.8300  20.8308
    20.8560  20.8595  20.8599  20.8767  20.8768  20.8786  20.8800  20.8947
    20.8971  20.8994  20.9157  20.9157  20.9211  20.9228  20.9469  20.9477
    20.9627  20.9777  20.9783  20.9793  21.0168  21.0692  21.0780  21.0796
    21.1253  21.1262  21.1407  21.2599  21.3399  21.3408  21.3609  21.3848
    21.3854  21.3910  21.3991  21.3992  21.4008  21.4039  21.4048  21.4164
    21.4171  21.4227  21.4412  21.4412  21.4417  21.4461  21.4465  21.4479
    21.4721  21.4726  21.4798  21.4799  21.4908  21.4950  21.4959  21.5132
    21.5137  21.5150  21.5294  21.5458  21.5481  21.5850  21.6832  21.6832
    21.6850  21.7148  21.7219  21.7307  21.7312  21.7411  21.7416  21.7434
    21.7513  21.7513  21.7854  21.8007  21.8016  21.8124  21.8529  21.8660
    21.8683  22.0072  22.0192  22.0219  22.0398  22.0421  22.1461  22.1464
    22.1472  22.2094  22.2118  22.2283  22.2330  22.2350  22.2353  22.3818
    22.3830  22.3833  22.4643  22.5033  22.5036  22.5205  22.5310  22.5310
    22.7136  22.7173  22.7178  22.8489  23.0014  23.0045  23.0235  23.1500
    23.1503  23.1597  23.1672  23.1674  23.1726  23.1732  23.1897  23.1924
    23.1936  23.1942  23.2016  23.2299  23.2550  23.2560  23.2727  23.3085
    23.3390  23.3404  23.3998  23.3998  23.4703  23.4892  23.4893  23.8183
    23.8261  23.8263  23.8272  23.8447  23.8452  23.8457  23.8669  23.8675
    23.8686  23.8900  23.8910  23.9032  23.9034  23.9232  23.9340  23.9535
    24.0061  24.0155  24.0160  24.1605  24.1607  24.2486  24.2501  24.2989
    24.2997  24.3021  24.3174  24.3525  24.3528  24.3560  24.3564  24.3571
    24.3761  24.4100  24.4106  24.4152  24.4578  24.4582  24.4643  24.4650
    24.4744  24.4752  24.4764  24.5015  24.5211  24.5456  24.5480  24.5515
    24.5556  24.5560  24.5667  24.5769  24.5888  24.5891  24.5959  24.6193
    24.6193  24.6378  24.6387  24.6610  24.6882  24.7010  24.7032  24.8243
    24.8285  24.9413  24.9480  25.5319  25.5617  25.5660  25.6902  25.8565
    25.8691  25.8697  25.8828  25.8829  26.0170  26.0334  26.0414  26.0416
    26.0995  26.1008  26.1589  26.1813  26.1847  26.1853  26.2676  26.3129
    26.3163  26.5355  26.6343  26.6344  26.6514  26.6728  26.6918  26.6962
    26.6964  26.7281  26.7287  26.7433  26.7441  26.7601  26.8227  26.8240
    26.8255  26.8336  26.8576  26.8582  26.9019  26.9027  26.9112  26.9874
    26.9883  27.1041  27.1048  27.1277  27.1328  27.1413  27.1419  27.1433
    27.1616  27.1617  27.1636  27.1663  27.1664  27.1937  27.1941  27.2241
    27.2324  27.2561  27.2574  27.2729  27.2851  27.2852  27.2947  27.2950
    27.3086  27.3092  27.3096  27.3186  27.3358  27.3415  27.3418  27.3501
    27.3505  27.3565  27.3590  27.3780  27.3781  27.4047  27.4100  27.4115
    27.4119  27.4243  27.4245  27.4277  27.4365  27.4371  27.4639  27.4706

     occupation numbers 
     1.0000   1.0000   1.0000   1.0000   1.0000   1.0000   1.0000   1.0000
     1.0000   1.0000   1.0000   1.0000   1.0000   1.0000   1.0000   1.0000
     1.0000   1.0000   1.0000   1.0000   1.0000   1.0000   1.0000   1.0000
     1.0000   1.0000   1.0000   1.0000   1.0000   1.0000   1.0000   1.0000
     1.0000   1.0000   1.0000   1.0000   1.0000   1.0000   1.0000   1.0000
     1.0000   1.0000   1.0000   1.0000   1.0000   1.0000   1.0000   1.0000
     1.0000   1.0000   1.0000   1.0000   1.0000   1.0000   1.0000   1.0000
     1.0000   1.0000   1.0000   1.0000   1.0000   1.0000   1.0000   1.0000
     1.0000   1.0000   1.0000   1.0000   1.0000   1.0000   1.0000   1.0000
     1.0000   1.0000   1.0000   1.0000   1.0000   1.0000   1.0000   1.0000
     1.0000   1.0000   1.0000   1.0000   1.0000   1.0000   1.0000   1.0000
     1.0000   1.0000   1.0000   1.0000   1.0000   1.0000   1.0000   1.0000
     1.0000   1.0000   1.0000   1.0000   1.0000   1.0000   1.0000   1.0000
     1.0000   1.0000   1.0000   1.0000   1.0000   1.0000   1.0000   1.0000
     1.0000   1.0000   1.0000   1.0000   1.0000   1.0000   1.0000   1.0000
     1.0000   1.0000   1.0000   1.0000   1.0000   1.0000   1.0000   1.0000
     1.0000   1.0000   1.0000   1.0000   1.0000   1.0000   1.0000   1.0000
     1.0000   1.0000   1.0000   1.0000   1.0000   1.0000   1.0000   1.0000
     1.0000   1.0000   1.0000   1.0000   1.0000   1.0000   1.0000   1.0000
     1.0000   1.0000   1.0000   1.0000   1.0000   1.0000   1.0000   1.0000
     1.0000   1.0000   1.0000   1.0000   1.0000   1.0000   1.0000   1.0000
     1.0000   1.0000   1.0000   1.0000   1.0000   1.0000   1.0000   1.0000
     1.0000   1.0000   1.0000   1.0000   1.0000   1.0000   1.0000   1.0000
     1.0000   1.0000   1.0000   1.0000   1.0000   1.0000   1.0000   1.0000
     1.0000   1.0000   1.0000   1.0000   1.0000   1.0000   1.0000   1.0000
     1.0000   1.0000   1.0000   1.0000   1.0000   1.0000   1.0000   1.0000
     1.0000   1.0000   1.0000   1.0000   1.0000   1.0000   1.0000   1.0000
     1.0000   1.0000   1.0000   1.0000   1.0000   1.0000   1.0000   1.0000
     1.0000   1.0000   1.0000   1.0000   1.0000   1.0000   1.0000   1.0000
     1.0000   1.0000   1.0000   1.0000   1.0000   1.0000   1.0000   1.0000
     1.0000   1.0000   1.0000   1.0000   1.0000   1.0000   1.0000   1.0000
     1.0000   1.0000   1.0000   1.0000   1.0000   1.0000   1.0000   1.0000
     1.0000   1.0000   1.0000   1.0000   1.0000   1.0000   1.0000   1.0000
     1.0000   1.0000   1.0000   1.0000   1.0000   1.0000   1.0000   1.0000
     1.0000   1.0000   1.0000   1.0000   1.0000   1.0000   1.0000   1.0000
     1.0000   1.0000   1.0000   1.0000   1.0000   1.0000   1.0000   1.0000
     1.0000   1.0000   1.0000   1.0000   1.0000   1.0000   1.0000   1.0000
     1.0000   1.0000   1.0000   1.0000   1.0000   1.0000   1.0000   1.0000
     1.0000   1.0000   1.0000   1.0000   1.0000   1.0000   1.0000   1.0000
     1.0000   1.0000   1.0000   1.0000   1.0000   1.0000   1.0000   1.0000
     1.0000   1.0000   1.0000   1.0000   1.0000   1.0000   1.0000   1.0000
     1.0000   1.0000   1.0000   1.0000   1.0000   1.0000   1.0000   1.0000
     1.0000   1.0000   1.0000   1.0000   1.0000   1.0000   1.0000   1.0000
     1.0000   1.0000   1.0000   1.0000   1.0000   1.0000   1.0000   1.0000
     1.0000   1.0000   1.0000   1.0000   1.0000   1.0000   1.0000   1.0000
     1.0000   1.0000   1.0000   1.0000   1.0000   1.0000   1.0000   1.0000
     1.0000   1.0000   1.0000   1.0000   1.0000   1.0000   1.0000   1.0000
     1.0000   1.0000   1.0000   1.0000   1.0000   1.0000   1.0000   1.0000
     1.0000   1.0000   1.0000   1.0000   1.0000   1.0000   1.0000   1.0000
     1.0000   1.0000   1.0000   1.0000   1.0000   1.0000   1.0000   1.0000
     1.0000   1.0000   1.0000   1.0000   1.0000   1.0000   1.0000   1.0000
     1.0000   1.0000   1.0000   1.0000   1.0000   1.0000   1.0000   1.0000
     1.0000   1.0000   1.0000   1.0000   1.0000   1.0000   1.0000   1.0000
     1.0000   1.0000   1.0000   1.0000   1.0000   1.0000   1.0000   1.0000
     0.0000   0.0000   0.0000   0.0000   0.0000   0.0000   0.0000   0.0000
     0.0000   0.0000   0.0000   0.0000   0.0000   0.0000   0.0000   0.0000
     0.0000   0.0000   0.0000   0.0000   0.0000   0.0000   0.0000   0.0000
     0.0000   0.0000   0.0000   0.0000   0.0000   0.0000   0.0000   0.0000
     0.0000   0.0000   0.0000   0.0000   0.0000   0.0000   0.0000   0.0000
     0.0000   0.0000   0.0000   0.0000   0.0000   0.0000   0.0000   0.0000
     0.0000   0.0000   0.0000   0.0000   0.0000   0.0000   0.0000   0.0000
     0.0000   0.0000   0.0000   0.0000   0.0000   0.0000   0.0000   0.0000
     0.0000   0.0000   0.0000   0.0000   0.0000   0.0000   0.0000   0.0000
     0.0000   0.0000   0.0000   0.0000   0.0000   0.0000   0.0000   0.0000
     0.0000   0.0000   0.0000   0.0000   0.0000   0.0000   0.0000   0.0000
     0.0000   0.0000   0.0000   0.0000   0.0000   0.0000   0.0000   0.0000
     0.0000   0.0000   0.0000   0.0000   0.0000   0.0000   0.0000   0.0000
     0.0000   0.0000   0.0000   0.0000   0.0000   0.0000   0.0000   0.0000
     0.0000   0.0000   0.0000   0.0000   0.0000   0.0000   0.0000   0.0000
     0.0000   0.0000   0.0000   0.0000   0.0000   0.0000   0.0000   0.0000
     0.0000   0.0000   0.0000   0.0000   0.0000   0.0000   0.0000   0.0000
     0.0000   0.0000   0.0000   0.0000   0.0000   0.0000   0.0000   0.0000
     0.0000   0.0000   0.0000   0.0000   0.0000   0.0000   0.0000   0.0000
     0.0000   0.0000   0.0000   0.0000   0.0000   0.0000   0.0000   0.0000
     0.0000   0.0000   0.0000   0.0000   0.0000   0.0000   0.0000   0.0000
     0.0000   0.0000   0.0000   0.0000   0.0000   0.0000   0.0000   0.0000
     0.0000   0.0000   0.0000   0.0000   0.0000   0.0000   0.0000   0.0000
     0.0000   0.0000   0.0000   0.0000   0.0000   0.0000   0.0000   0.0000
     0.0000   0.0000   0.0000   0.0000   0.0000   0.0000   0.0000   0.0000
     0.0000   0.0000   0.0000   0.0000   0.0000   0.0000   0.0000   0.0000
     0.0000   0.0000   0.0000   0.0000   0.0000   0.0000   0.0000   0.0000
     0.0000   0.0000   0.0000   0.0000   0.0000   0.0000   0.0000   0.0000
     0.0000   0.0000   0.0000   0.0000   0.0000   0.0000   0.0000   0.0000
     0.0000   0.0000   0.0000   0.0000   0.0000   0.0000   0.0000   0.0000
     0.0000   0.0000   0.0000   0.0000   0.0000   0.0000   0.0000   0.0000
     0.0000   0.0000   0.0000   0.0000   0.0000   0.0000   0.0000   0.0000
     0.0000   0.0000   0.0000   0.0000   0.0000   0.0000   0.0000   0.0000
     0.0000   0.0000   0.0000   0.0000   0.0000   0.0000   0.0000   0.0000
     0.0000   0.0000   0.0000   0.0000   0.0000   0.0000   0.0000   0.0000
     0.0000   0.0000   0.0000   0.0000   0.0000   0.0000   0.0000   0.0000
     0.0000   0.0000   0.0000   0.0000   0.0000   0.0000   0.0000   0.0000
     0.0000   0.0000   0.0000   0.0000   0.0000   0.0000   0.0000   0.0000
     0.0000   0.0000   0.0000   0.0000   0.0000   0.0000   0.0000   0.0000
     0.0000   0.0000   0.0000   0.0000   0.0000   0.0000   0.0000   0.0000
     0.0000   0.0000   0.0000   0.0000   0.0000   0.0000   0.0000   0.0000
     0.0000   0.0000   0.0000   0.0000   0.0000   0.0000   0.0000   0.0000
     0.0000   0.0000   0.0000   0.0000   0.0000   0.0000   0.0000   0.0000
     0.0000   0.0000   0.0000   0.0000   0.0000   0.0000   0.0000   0.0000
     0.0000   0.0000   0.0000   0.0000   0.0000   0.0000   0.0000   0.0000
     0.0000   0.0000   0.0000   0.0000   0.0000   0.0000   0.0000   0.0000

 ------ SPIN DOWN ----------


          k = 0.0000 0.0000 0.0000 ( 54564 PWs)   bands (ev):

    -8.2645  -7.4469  -7.2577  -7.2575  -7.2100  -7.2089  -7.1227  -6.6046
    -6.2573  -6.2571  -6.2482  -6.2478  -6.2315  -6.2052  -6.2048  -6.1942
    -6.1439  -6.1413  -5.9678  -5.4863  -5.2290  -5.2207  -5.2196  -5.1942
    -5.1914  -5.1903  -5.0228  -4.4223  -4.2345  -4.2338  -4.2121  -4.2117
    -4.1561  -3.8314  -3.3483  -3.3482  -3.3410  -3.3387  -3.3386  -3.3253
    -3.3238  -3.3237  -3.3142  -3.3062  -3.3062  -3.2987  -3.2987  -3.2981
    -3.2629  -3.2620  -3.2501  -3.2496  -3.2451  -3.2308  -3.1576  -3.1558
    -2.9884  -2.7972  -2.5765  -2.5757  -2.5428  -2.5401  -2.5396  -2.5293
    -2.5222  -2.5221  -2.5137  -2.5105  -2.5103  -2.4865  -2.4842  -2.4841
    -2.4675  -2.4668  -2.4242  -2.4226  -2.4197  -2.3872  -2.2492  -2.2474
    -1.5736  -1.0273  -0.8650  -0.8648  -0.8196  -0.8191  -0.8179  -0.8159
    -0.8158  -0.8048  -0.7452  -0.7443  -0.3727   0.3904   0.4350   0.4353
     0.4611   0.4620   0.5000   0.7282   0.8888   0.8896   0.9313   0.9396
     0.9397   0.9502   0.9509   0.9538   0.9541   0.9732   0.9740   0.9801
     0.9801   1.0066   1.0463   1.0541   1.0546   1.0778   1.0778   1.0785
     1.1024   1.1025   1.1200   1.1424   1.1428   1.1517   1.1638   1.1643
     1.1645   1.1678   1.1768   1.1777   1.1886   1.1989   1.1991   1.2194
     1.2196   1.2223   1.2308   1.2313   1.2402   1.2405   1.2675   1.4678
     1.6207   1.6225   1.9911   2.2344   2.2344   2.2471   2.2764   2.2787
     2.2789   2.2891   2.3107   2.3108   2.4870   2.4875   3.4678   3.7423
     3.7424   3.7661   3.8104   3.8206   3.8207   3.8261   3.8270   3.8273
     3.8299   3.8331   3.8506   3.8512   3.8572   3.8715   3.8729   4.0009
     4.0015   4.0057   4.0449   4.3945   4.3948   4.4288   4.4866   4.4926
     4.4953   4.4955   4.5008   4.5009   4.5107   4.5109   4.5122   4.5218
     4.5223   4.5302   4.5326   4.5334   4.5550   4.5592   4.5640   4.5649
     4.8073   4.8075   5.2719   5.2723   5.2933   5.3339   5.3342   5.3353
     5.3372   5.3454   5.3459   5.3577   5.3581   5.3639   5.3762   5.3764
     5.4291   5.4300   5.4366   5.4489   5.4585   5.4926   5.4930   5.5499
     5.5717   5.5717   5.6726   5.7687   5.7690   5.8598   5.8634   5.8636
     5.8780   5.8800   5.8806   5.8889   5.8895   5.8906   5.8957   5.9108
     5.9129   5.9131   5.9347   5.9357   5.9436   5.9478   5.9743   5.9745
     5.9878   6.0073   6.0078   6.0522   6.0534   6.3489   6.4084   6.4095
     6.8708   6.8713   6.9330   6.9495   6.9702   6.9706   7.1500   7.4174
     7.4178   7.4844   7.4901   7.4903   7.5073   7.5100   7.5101   7.5428
     7.5974   7.5980   7.7444   7.7447   7.8662   7.8868   7.8898   7.8905
     7.8979   7.8984   7.9051   7.9285   7.9581   7.9585   7.9635   8.0991
     8.1005   8.1211   8.1483   8.1524   8.1525   8.1660   8.1688   8.1690
     8.1723   8.1734   8.1798   8.1823   8.1872   8.1879   8.2168   8.2170
     8.2315   8.2323   8.2366   8.2443   8.2445   8.2445   8.2973   8.2979
     8.3252   8.3513   8.3525   8.3554   8.3557   8.3593   8.3625   8.3627
     8.3637   8.3639   8.3688   8.3715   8.3791   8.3794   8.3850   8.3854
     8.3856   8.3893   8.3895   8.3988   8.4012   8.4013   8.4093   8.4150
     8.4153   8.4225   8.4396   8.4402   8.4508   8.4586   8.4588   8.4776
     8.4784   8.5023   8.5034   8.5323   8.5416   8.5667   8.5771   8.5773
     8.5819   8.6954   8.7004   8.9456   8.9592   8.9596   9.1154   9.1160
     9.1778   9.1781   9.1792   9.1865   9.2110   9.2143   9.2151   9.2222
     9.2381   9.2383   9.2492   9.2501   9.2511   9.2634   9.2654   9.2807
     9.3460   9.3467   9.4226  10.0582  10.2282  10.2284  10.5580  10.5584
    10.5993  10.5998  10.6019  10.6126  10.6217  10.6287  10.6288  10.6622
    10.6953  10.6965  10.7068  10.7929  10.7938  10.8556  10.8568  10.8568
    10.8646  10.8651  10.8728  10.8729  10.8823  10.9101  10.9107  10.9303
    10.9342  10.9353  10.9460  10.9657  10.9670  11.5280  11.5697  11.5701
    11.7707  11.7714  11.7770  11.8071  11.8075  11.8077  11.8385  11.8782
    11.8822  12.2333  13.0620  13.0700  13.0707  14.5154  16.3761  16.3940
    17.3599  17.3613  17.3887  17.4240  17.4244  17.4462  17.9378  18.0124
    18.0128  18.0255  18.0259  18.0825  18.1319  18.1335  18.2150  18.2490
    18.2493  18.2597  18.8667  18.8680  18.8780  19.4669  19.5377  19.5380
    19.5480  19.5912  19.5918  19.6010  19.6014  19.6046  19.6157  19.6164
    19.6589  20.0789  20.2428  20.2429  20.2765  20.2769  20.2773  20.2826
    20.2853  20.2855  20.2919  20.2919  20.3057  20.3122  20.3240  20.3245
    20.3457  20.3472  20.3474  20.3893  20.3900  20.4066  20.4338  20.4346
    20.4355  20.7029  20.7117  20.7138  20.7473  20.7511  20.7690  20.7691
    20.7740  20.7744  20.7748  20.7893  20.7894  20.8133  20.8341  20.8349
    20.8602  20.8632  20.8635  20.8806  20.8807  20.8829  20.8920  20.9031
    20.9113  20.9122  20.9288  20.9294  20.9330  20.9339  20.9538  20.9546
    20.9657  20.9863  20.9872  20.9891  21.0257  21.0808  21.0836  21.0851
    21.1336  21.1344  21.1468  21.2647  21.3454  21.3463  21.3658  21.3890
    21.3896  21.3979  21.4015  21.4024  21.4025  21.4098  21.4106  21.4205
    21.4211  21.4266  21.4459  21.4460  21.4499  21.4526  21.4527  21.4531
    21.4777  21.4781  21.4883  21.4887  21.4986  21.5171  21.5183  21.5236
    21.5245  21.5268  21.5454  21.5734  21.5763  21.6176  21.6889  21.6951
    21.6965  21.7176  21.7248  21.7365  21.7369  21.7489  21.7492  21.7514
    21.7584  21.7586  21.7952  21.8053  21.8062  21.8183  21.8768  21.8865
    21.8896  22.0142  22.0344  22.0365  22.0652  22.0678  22.1490  22.1492
    22.1502  22.2254  22.2277  22.2392  22.2399  22.2449  22.2449  22.3919
    22.3938  22.3940  22.4822  22.5117  22.5119  22.5296  22.5347  22.5348
    22.7323  22.7655  22.7660  22.9221  23.0203  23.0233  23.0442  23.1557
    23.1562  23.1622  23.1701  23.1702  23.1772  23.1777  23.1952  23.1960
    23.1965  23.1998  23.2070  23.2415  23.2712  23.2716  23.2907  23.3425
    23.3935  23.3942  23.4190  23.4191  23.4880  23.5279  23.5289  23.8216
    23.8317  23.8318  23.8366  23.8472  23.8492  23.8498  23.8698  23.8705
    23.8754  23.9084  23.9092  23.9104  23.9105  23.9412  23.9488  23.9781
    24.0183  24.0406  24.0413  24.1755  24.1757  24.2685  24.2696  24.3037
    24.3046  24.3084  24.3215  24.3559  24.3561  24.3616  24.3617  24.3639
    24.3824  24.4156  24.4162  24.4215  24.4656  24.4657  24.4796  24.4802
    24.4813  24.4922  24.4929  24.5110  24.5262  24.5475  24.5615  24.5620
    24.5766  24.5789  24.5805  24.5867  24.5929  24.5933  24.6019  24.6362
    24.6365  24.6632  24.6635  24.6872  24.7148  24.7320  24.7364  24.9561
    24.9588  25.0083  25.0148  25.5783  25.6077  25.6119  25.7194  25.8631
    25.8827  25.8839  25.8956  25.8964  26.0225  26.0375  26.0470  26.0472
    26.1089  26.1102  26.1708  26.2013  26.2033  26.2039  26.2856  26.3426
    26.3461  26.5528  26.6414  26.6415  26.6649  26.6816  26.6974  26.7022
    26.7024  26.7351  26.7358  26.7526  26.7533  26.7713  26.8351  26.8361
    26.8371  26.8399  26.8631  26.8637  26.9146  26.9154  26.9154  27.0164
    27.0177  27.1098  27.1105  27.1318  27.1406  27.1448  27.1455  27.1496
    27.1661  27.1663  27.1665  27.1710  27.1710  27.2000  27.2003  27.2356
    27.2373  27.2611  27.2624  27.2798  27.2922  27.2922  27.2992  27.2994
    27.3137  27.3183  27.3184  27.3250  27.3424  27.3493  27.3502  27.3567
    27.3569  27.3631  27.3765  27.3975  27.3976  27.4119  27.4149  27.4171
    27.4175  27.4300  27.4303  27.4363  27.4458  27.4462  27.4771  27.4909

     occupation numbers 
     1.0000   1.0000   1.0000   1.0000   1.0000   1.0000   1.0000   1.0000
     1.0000   1.0000   1.0000   1.0000   1.0000   1.0000   1.0000   1.0000
     1.0000   1.0000   1.0000   1.0000   1.0000   1.0000   1.0000   1.0000
     1.0000   1.0000   1.0000   1.0000   1.0000   1.0000   1.0000   1.0000
     1.0000   1.0000   1.0000   1.0000   1.0000   1.0000   1.0000   1.0000
     1.0000   1.0000   1.0000   1.0000   1.0000   1.0000   1.0000   1.0000
     1.0000   1.0000   1.0000   1.0000   1.0000   1.0000   1.0000   1.0000
     1.0000   1.0000   1.0000   1.0000   1.0000   1.0000   1.0000   1.0000
     1.0000   1.0000   1.0000   1.0000   1.0000   1.0000   1.0000   1.0000
     1.0000   1.0000   1.0000   1.0000   1.0000   1.0000   1.0000   1.0000
     1.0000   1.0000   1.0000   1.0000   1.0000   1.0000   1.0000   1.0000
     1.0000   1.0000   1.0000   1.0000   1.0000   1.0000   1.0000   1.0000
     1.0000   1.0000   1.0000   1.0000   1.0000   1.0000   1.0000   1.0000
     1.0000   1.0000   1.0000   1.0000   1.0000   1.0000   1.0000   1.0000
     1.0000   1.0000   1.0000   1.0000   1.0000   1.0000   1.0000   1.0000
     1.0000   1.0000   1.0000   1.0000   1.0000   1.0000   1.0000   1.0000
     1.0000   1.0000   1.0000   1.0000   1.0000   1.0000   1.0000   1.0000
     1.0000   1.0000   1.0000   1.0000   1.0000   1.0000   1.0000   1.0000
     1.0000   1.0000   1.0000   1.0000   1.0000   1.0000   1.0000   1.0000
     1.0000   1.0000   1.0000   1.0000   1.0000   1.0000   1.0000   1.0000
     1.0000   1.0000   1.0000   1.0000   1.0000   1.0000   1.0000   1.0000
     1.0000   1.0000   1.0000   1.0000   1.0000   1.0000   1.0000   1.0000
     1.0000   1.0000   1.0000   1.0000   1.0000   1.0000   1.0000   1.0000
     1.0000   1.0000   1.0000   1.0000   1.0000   1.0000   1.0000   1.0000
     1.0000   1.0000   1.0000   1.0000   1.0000   1.0000   1.0000   1.0000
     1.0000   1.0000   1.0000   1.0000   1.0000   1.0000   1.0000   1.0000
     1.0000   1.0000   1.0000   1.0000   1.0000   1.0000   1.0000   1.0000
     1.0000   1.0000   1.0000   1.0000   1.0000   1.0000   1.0000   1.0000
     1.0000   1.0000   1.0000   1.0000   1.0000   1.0000   1.0000   1.0000
     1.0000   1.0000   1.0000   1.0000   1.0000   1.0000   1.0000   1.0000
     1.0000   1.0000   1.0000   1.0000   1.0000   1.0000   1.0000   1.0000
     1.0000   1.0000   1.0000   1.0000   1.0000   1.0000   1.0000   1.0000
     1.0000   1.0000   1.0000   1.0000   1.0000   1.0000   1.0000   1.0000
     1.0000   1.0000   1.0000   1.0000   1.0000   1.0000   1.0000   1.0000
     1.0000   1.0000   1.0000   1.0000   1.0000   1.0000   1.0000   1.0000
     1.0000   1.0000   1.0000   1.0000   1.0000   1.0000   1.0000   1.0000
     1.0000   1.0000   1.0000   1.0000   1.0000   1.0000   1.0000   1.0000
     1.0000   1.0000   1.0000   1.0000   1.0000   1.0000   1.0000   1.0000
     1.0000   1.0000   1.0000   1.0000   1.0000   1.0000   1.0000   1.0000
     1.0000   1.0000   1.0000   1.0000   1.0000   1.0000   1.0000   1.0000
     1.0000   1.0000   1.0000   1.0000   1.0000   1.0000   1.0000   1.0000
     1.0000   1.0000   1.0000   1.0000   1.0000   1.0000   1.0000   1.0000
     1.0000   1.0000   1.0000   1.0000   1.0000   1.0000   1.0000   1.0000
     1.0000   1.0000   1.0000   1.0000   1.0000   1.0000   1.0000   1.0000
     1.0000   1.0000   1.0000   1.0000   1.0000   1.0000   1.0000   1.0000
     1.0000   1.0000   1.0000   1.0000   1.0000   1.0000   1.0000   1.0000
     1.0000   1.0000   1.0000   1.0000   1.0000   1.0000   1.0000   1.0000
     1.0000   1.0000   1.0000   1.0000   1.0000   1.0000   1.0000   1.0000
     1.0000   1.0000   1.0000   1.0000   1.0000   1.0000   1.0000   1.0000
     1.0000   1.0000   1.0000   1.0000   1.0000   1.0000   1.0000   1.0000
     1.0000   1.0000   1.0000   1.0000   1.0000   1.0000   1.0000   1.0000
     1.0000   1.0000   1.0000   1.0000   1.0000   1.0000   1.0000   1.0000
     1.0000   1.0000   1.0000   1.0000   1.0000   1.0000   1.0000   1.0000
     1.0000   1.0000   1.0000   1.0000   1.0000   1.0000   0.0000   0.0000
     0.0000   0.0000   0.0000   0.0000   0.0000   0.0000   0.0000   0.0000
     0.0000   0.0000   0.0000   0.0000   0.0000   0.0000   0.0000   0.0000
     0.0000   0.0000   0.0000   0.0000   0.0000   0.0000   0.0000   0.0000
     0.0000   0.0000   0.0000   0.0000   0.0000   0.0000   0.0000   0.0000
     0.0000   0.0000   0.0000   0.0000   0.0000   0.0000   0.0000   0.0000
     0.0000   0.0000   0.0000   0.0000   0.0000   0.0000   0.0000   0.0000
     0.0000   0.0000   0.0000   0.0000   0.0000   0.0000   0.0000   0.0000
     0.0000   0.0000   0.0000   0.0000   0.0000   0.0000   0.0000   0.0000
     0.0000   0.0000   0.0000   0.0000   0.0000   0.0000   0.0000   0.0000
     0.0000   0.0000   0.0000   0.0000   0.0000   0.0000   0.0000   0.0000
     0.0000   0.0000   0.0000   0.0000   0.0000   0.0000   0.0000   0.0000
     0.0000   0.0000   0.0000   0.0000   0.0000   0.0000   0.0000   0.0000
     0.0000   0.0000   0.0000   0.0000   0.0000   0.0000   0.0000   0.0000
     0.0000   0.0000   0.0000   0.0000   0.0000   0.0000   0.0000   0.0000
     0.0000   0.0000   0.0000   0.0000   0.0000   0.0000   0.0000   0.0000
     0.0000   0.0000   0.0000   0.0000   0.0000   0.0000   0.0000   0.0000
     0.0000   0.0000   0.0000   0.0000   0.0000   0.0000   0.0000   0.0000
     0.0000   0.0000   0.0000   0.0000   0.0000   0.0000   0.0000   0.0000
     0.0000   0.0000   0.0000   0.0000   0.0000   0.0000   0.0000   0.0000
     0.0000   0.0000   0.0000   0.0000   0.0000   0.0000   0.0000   0.0000
     0.0000   0.0000   0.0000   0.0000   0.0000   0.0000   0.0000   0.0000
     0.0000   0.0000   0.0000   0.0000   0.0000   0.0000   0.0000   0.0000
     0.0000   0.0000   0.0000   0.0000   0.0000   0.0000   0.0000   0.0000
     0.0000   0.0000   0.0000   0.0000   0.0000   0.0000   0.0000   0.0000
     0.0000   0.0000   0.0000   0.0000   0.0000   0.0000   0.0000   0.0000
     0.0000   0.0000   0.0000   0.0000   0.0000   0.0000   0.0000   0.0000
     0.0000   0.0000   0.0000   0.0000   0.0000   0.0000   0.0000   0.0000
     0.0000   0.0000   0.0000   0.0000   0.0000   0.0000   0.0000   0.0000
     0.0000   0.0000   0.0000   0.0000   0.0000   0.0000   0.0000   0.0000
     0.0000   0.0000   0.0000   0.0000   0.0000   0.0000   0.0000   0.0000
     0.0000   0.0000   0.0000   0.0000   0.0000   0.0000   0.0000   0.0000
     0.0000   0.0000   0.0000   0.0000   0.0000   0.0000   0.0000   0.0000
     0.0000   0.0000   0.0000   0.0000   0.0000   0.0000   0.0000   0.0000
     0.0000   0.0000   0.0000   0.0000   0.0000   0.0000   0.0000   0.0000
     0.0000   0.0000   0.0000   0.0000   0.0000   0.0000   0.0000   0.0000
     0.0000   0.0000   0.0000   0.0000   0.0000   0.0000   0.0000   0.0000
     0.0000   0.0000   0.0000   0.0000   0.0000   0.0000   0.0000   0.0000
     0.0000   0.0000   0.0000   0.0000   0.0000   0.0000   0.0000   0.0000
     0.0000   0.0000   0.0000   0.0000   0.0000   0.0000   0.0000   0.0000
     0.0000   0.0000   0.0000   0.0000   0.0000   0.0000   0.0000   0.0000
     0.0000   0.0000   0.0000   0.0000   0.0000   0.0000   0.0000   0.0000
     0.0000   0.0000   0.0000   0.0000   0.0000   0.0000   0.0000   0.0000
     0.0000   0.0000   0.0000   0.0000   0.0000   0.0000   0.0000   0.0000
     0.0000   0.0000   0.0000   0.0000   0.0000   0.0000   0.0000   0.0000
     0.0000   0.0000   0.0000   0.0000   0.0000   0.0000   0.0000   0.0000
     0.0000   0.0000   0.0000   0.0000   0.0000   0.0000   0.0000   0.0000

     highest occupied, lowest unoccupied level (ev):    15.0081   16.3761

!    total energy              =   -2456.50891843 Ry
     Harris-Foulkes estimate   =   -2456.50891843 Ry
     estimated scf accuracy    <          4.8E-11 Ry

     The total energy is the sum of the following terms:

     one-electron contribution =     835.74637465 Ry
     hartree contribution      =     217.70030936 Ry
     xc contribution           =    -767.31517682 Ry
     ewald contribution        =   -2742.64042562 Ry

     total magnetization       =     2.00 Bohr mag/cell
     absolute magnetization    =     2.29 Bohr mag/cell

     convergence has been achieved in  20 iterations

     Forces acting on atoms (cartesian axes, Ry/au):

     atom    1 type  1   force =    -0.00022951   -0.00018313   -0.00017630
     atom    2 type  1   force =     0.00017192    0.00004105    0.00004115
     atom    3 type  1   force =    -0.00014062    0.00005196    0.00005502
     atom    4 type  1   force =    -0.00009736    0.00022976    0.00023488
     atom    5 type  1   force =    -0.00019566   -0.00020427   -0.00000098
     atom    6 type  1   force =     0.00011826    0.00012534   -0.00000653
     atom    7 type  1   force =    -0.00019395   -0.00000290   -0.00019395
     atom    8 type  1   force =     0.00012005   -0.00000741    0.00012005
     atom    9 type  1   force =    -0.00036387   -0.00014913    0.00020510
     atom   10 type  1   force =    -0.00000847    0.00021499   -0.00013513
     atom   11 type  1   force =    -0.00003120   -0.00000906   -0.00016666
     atom   12 type  1   force =    -0.00050282    0.00035575    0.00123227
     atom   13 type  1   force =    -0.00019032   -0.00019067    0.00008903
     atom   14 type  1   force =     0.00011372    0.00007894    0.00028246
     atom   15 type  1   force =    -0.00004084    0.00002076    0.00002940
     atom   16 type  1   force =    -0.00007727    0.00014469    0.00004819
     atom   17 type  1   force =    -0.00000609   -0.00012579    0.00018602
     atom   18 type  1   force =    -0.00010996   -0.00022146    0.00015990
     atom   19 type  1   force =    -0.00040537    0.00001587   -0.00040537
     atom   20 type  1   force =     0.00034669   -0.00026447    0.00034669
     atom   21 type  1   force =    -0.00017630   -0.00018313   -0.00022951
     atom   22 type  1   force =     0.00004115    0.00004105    0.00017192
     atom   23 type  1   force =    -0.00010756    0.00009243   -0.00045061
     atom   24 type  1   force =     0.00024641    0.00002549    0.00021166
     atom   25 type  1   force =    -0.00036206    0.00022221   -0.00011854
     atom   26 type  1   force =    -0.00000340   -0.00014265    0.00020888
     atom   27 type  1   force =    -0.00003069   -0.00017919    0.00000078
     atom   28 type  1   force =    -0.00041768    0.00129201    0.00025428
     atom   29 type  1   force =    -0.00003991    0.00002771    0.00002640
     atom   30 type  1   force =    -0.00006621    0.00004922    0.00013709
     atom   31 type  1   force =    -0.00015911    0.00013057   -0.00015911
     atom   32 type  1   force =     0.00011092    0.00030628    0.00011092
     atom   33 type  1   force =    -0.00001998   -0.00005236   -0.00005059
     atom   34 type  1   force =     0.00023868   -0.00012335   -0.00016515
     atom   35 type  1   force =    -0.00270455   -0.00057029   -0.00041021
     atom   36 type  1   force =     0.00173822   -0.00030737   -0.00029982
     atom   37 type  1   force =     0.00000913    0.00010455   -0.00020349
     atom   38 type  1   force =     0.00008483   -0.00002657   -0.00011259
     atom   39 type  1   force =    -0.00001323   -0.00022289    0.00011485
     atom   40 type  1   force =     0.00010214   -0.00012214   -0.00005245
     atom   41 type  1   force =    -0.00218179    0.00177779   -0.00298756
     atom   42 type  1   force =     0.00109730   -0.00092195    0.00106117
     atom   43 type  1   force =    -0.00243792    0.00293883   -0.00243792
     atom   44 type  1   force =    -0.00006292   -0.00064120   -0.00006292
     atom   45 type  1   force =    -0.00011854    0.00022221   -0.00036206
     atom   46 type  1   force =     0.00020888   -0.00014265   -0.00000340
     atom   47 type  1   force =    -0.00092320    0.00013787   -0.00011537
     atom   48 type  1   force =     0.00012899    0.00006607    0.00003212
     atom   49 type  1   force =     0.00001490    0.00019713   -0.00013400
     atom   50 type  1   force =    -0.00011176    0.00014530   -0.00022353
     atom   51 type  1   force =    -0.00040311   -0.00039105    0.00001293
     atom   52 type  1   force =     0.00035410    0.00036792   -0.00026746
     atom   53 type  1   force =    -0.00009118   -0.00048632    0.00008831
     atom   54 type  1   force =     0.00022974    0.00021560    0.00000876
     atom   55 type  1   force =    -0.00018226   -0.00023258   -0.00018226
     atom   56 type  1   force =     0.00003801    0.00018438    0.00003801
     atom   57 type  1   force =    -0.00232441   -0.00331197    0.00186086
     atom   58 type  1   force =     0.00115329    0.00107606   -0.00095258
     atom   59 type  1   force =    -0.00256588   -0.00265537    0.00264847
     atom   60 type  1   force =    -0.00014132   -0.00015782   -0.00054030
     atom   61 type  1   force =    -0.00096226   -0.00009059    0.00015938
     atom   62 type  1   force =     0.00013945    0.00000298    0.00007540
     atom   63 type  1   force =    -0.00012460   -0.00036716    0.00022325
     atom   64 type  1   force =     0.00019284    0.00002005   -0.00014332
     atom   65 type  1   force =    -0.00425825    0.00104459    0.00103459
     atom   66 type  1   force =    -0.00001721   -0.00003070   -0.00000744
     atom   67 type  1   force =    -0.00026236   -0.00026572   -0.00026236
     atom   68 type  1   force =    -0.00009113   -0.00008182   -0.00009113
     atom   69 type  1   force =    -0.00013400    0.00019713    0.00001490
     atom   70 type  1   force =    -0.00022353    0.00014530   -0.00011176
     atom   71 type  1   force =    -0.00012421    0.00002470    0.00018378
     atom   72 type  1   force =    -0.00022653   -0.00010201    0.00014592
     atom   73 type  1   force =    -0.00000098   -0.00020427   -0.00019566
     atom   74 type  1   force =    -0.00000653    0.00012534    0.00011826
     atom   75 type  1   force =    -0.00002305   -0.00002283   -0.00002305
     atom   76 type  1   force =    -0.00002816   -0.00003315   -0.00002816
     atom   77 type  1   force =     0.00002688   -0.00004780    0.00002477
     atom   78 type  1   force =     0.00003649   -0.00005625    0.00012349
     atom   79 type  1   force =     0.00002940    0.00002076   -0.00004084
     atom   80 type  1   force =     0.00004819    0.00014469   -0.00007727
     atom   81 type  1   force =     0.00002477   -0.00004780    0.00002688
     atom   82 type  1   force =     0.00012349   -0.00005625    0.00003649
     atom   83 type  1   force =    -0.00008222   -0.00009560    0.00004688
     atom   84 type  1   force =     0.00015257    0.00015997   -0.00013144
     atom   85 type  1   force =     0.00013162    0.00002284   -0.00020023
     atom   86 type  1   force =    -0.00003167    0.00008804   -0.00011139
     atom   87 type  1   force =    -0.00001870   -0.00013164   -0.00001870
     atom   88 type  1   force =    -0.00010196    0.00007400   -0.00010196
     atom   89 type  1   force =     0.00014185   -0.00014631   -0.00039227
     atom   90 type  1   force =     0.00002251    0.00024719    0.00020375
     atom   91 type  1   force =     0.00005502    0.00005196   -0.00014062
     atom   92 type  1   force =     0.00023488    0.00022976   -0.00009736
     atom   93 type  1   force =     0.00020510   -0.00014913   -0.00036387
     atom   94 type  1   force =    -0.00013513    0.00021499   -0.00000847
     atom   95 type  1   force =    -0.00001181   -0.00007114    0.00008062
     atom   96 type  1   force =    -0.00009163    0.00004691    0.00004302
     atom   97 type  1   force =     0.00002640    0.00002771   -0.00003991
     atom   98 type  1   force =     0.00013709    0.00004922   -0.00006621
     atom   99 type  1   force =    -0.00009040    0.00004338   -0.00009040
     atom  100 type  1   force =     0.00013124   -0.00016260    0.00013124
     atom  101 type  1   force =    -0.00002402   -0.00001574   -0.00013320
     atom  102 type  1   force =    -0.00009140   -0.00008948    0.00007906
     atom  103 type  1   force =     0.00011485   -0.00022289   -0.00001323
     atom  104 type  1   force =    -0.00005245   -0.00012214    0.00010214
     atom  105 type  1   force =    -0.00013320   -0.00001574   -0.00002402
     atom  106 type  1   force =     0.00007906   -0.00008948   -0.00009140
     atom  107 type  1   force =     0.00003923   -0.00000688   -0.00001226
     atom  108 type  1   force =    -0.00039802   -0.00025766   -0.00025065
     atom  109 type  1   force =     0.00007422    0.00009538   -0.00016582
     atom  110 type  1   force =    -0.00038220   -0.00032503    0.00016309
     atom  111 type  1   force =     0.00005416   -0.00006340    0.00005416
     atom  112 type  1   force =    -0.00060236   -0.00004909   -0.00060236
     atom  113 type  1   force =    -0.00005404   -0.00000170    0.00006558
     atom  114 type  1   force =     0.00007631   -0.00009036    0.00007696
     atom  115 type  1   force =     0.00000078   -0.00017919   -0.00003069
     atom  116 type  1   force =     0.00025428    0.00129201   -0.00041768
     atom  117 type  1   force =    -0.00005059   -0.00005236   -0.00001998
     atom  118 type  1   force =    -0.00016515   -0.00012335    0.00023868
     atom  119 type  1   force =     0.00136300    0.00044782    0.00049929
     atom  120 type  1   force =    -0.00974725   -0.00193060    0.01056225
     atom  121 type  1   force =     0.00008831   -0.00048632   -0.00009118
     atom  122 type  1   force =     0.00000876    0.00021560    0.00022974
     atom  123 type  1   force =     0.00005972   -0.00014275    0.00005972
     atom  124 type  1   force =     0.00023526   -0.00008681    0.00023526
     atom  125 type  1   force =    -0.00000878    0.00007495   -0.00006701
     atom  126 type  1   force =    -0.00010142    0.00005529    0.00001504
     atom  127 type  1   force =     0.00022325   -0.00036716   -0.00012460
     atom  128 type  1   force =    -0.00014332    0.00002005    0.00019284
     atom  129 type  1   force =    -0.00006701    0.00007495   -0.00000878
     atom  130 type  1   force =     0.00001504    0.00005529   -0.00010142
     atom  131 type  1   force =    -0.00000486   -0.00003646   -0.00015838
     atom  132 type  1   force =     0.00042089   -0.00059535    0.00113076
     atom  133 type  1   force =     0.00113149    0.00057398    0.00047975
     atom  134 type  1   force =    -0.00926450    0.00982136   -0.00366118
     atom  135 type  1   force =    -0.00003875   -0.00003336   -0.00003875
     atom  136 type  1   force =    -0.00019126    0.00028073   -0.00019126
     atom  137 type  1   force =    -0.00001845    0.00031761    0.00026224
     atom  138 type  1   force =    -0.00105828    0.00102503    0.00106655
     atom  139 type  1   force =     0.00001293   -0.00039105   -0.00040311
     atom  140 type  1   force =    -0.00026746    0.00036792    0.00035410
     atom  141 type  1   force =     0.00186086   -0.00331197   -0.00232441
     atom  142 type  1   force =    -0.00095258    0.00107606    0.00115329
     atom  143 type  1   force =     0.00190974   -0.00245231   -0.00275743
     atom  144 type  1   force =    -0.00094532    0.00116864    0.00110531
     atom  145 type  1   force =     0.00008903   -0.00019067   -0.00019032
     atom  146 type  1   force =     0.00028246    0.00007894    0.00011372
     atom  147 type  1   force =     0.00004688   -0.00009560   -0.00008222
     atom  148 type  1   force =    -0.00013144    0.00015997    0.00015257
     atom  149 type  1   force =    -0.00039227   -0.00014631    0.00014185
     atom  150 type  1   force =     0.00020375    0.00024719    0.00002251
     atom  151 type  1   force =    -0.00045061    0.00009243   -0.00010756
     atom  152 type  1   force =     0.00021166    0.00002549    0.00024641
     atom  153 type  1   force =    -0.00020023    0.00002284    0.00013162
     atom  154 type  1   force =    -0.00011139    0.00008804   -0.00003167
     atom  155 type  1   force =    -0.00000530    0.00004679   -0.00000530
     atom  156 type  1   force =    -0.00024699   -0.00040711   -0.00024699
     atom  157 type  1   force =    -0.00009517   -0.00092623    0.00011651
     atom  158 type  1   force =     0.00001748    0.00014927    0.00007653
     atom  159 type  1   force =     0.00008062   -0.00007114   -0.00001181
     atom  160 type  1   force =     0.00004302    0.00004691   -0.00009163
     atom  161 type  1   force =     0.00011651   -0.00092623   -0.00009517
     atom  162 type  1   force =     0.00007653    0.00014927    0.00001748
     atom  163 type  1   force =    -0.00016666   -0.00000906   -0.00003120
     atom  164 type  1   force =     0.00123227    0.00035575   -0.00050282
     atom  165 type  1   force =     0.00018602   -0.00012579   -0.00000609
     atom  166 type  1   force =     0.00015990   -0.00022146   -0.00010996
     atom  167 type  1   force =     0.00027249   -0.00005916    0.00027249
     atom  168 type  1   force =     0.00103052   -0.00103409    0.00103052
     atom  169 type  1   force =    -0.00020349    0.00010455    0.00000913
     atom  170 type  1   force =    -0.00011259   -0.00002657    0.00008483
     atom  171 type  1   force =    -0.00001226   -0.00000688    0.00003923
     atom  172 type  1   force =    -0.00025065   -0.00025766   -0.00039802
     atom  173 type  1   force =     0.00006558   -0.00000170   -0.00005404
     atom  174 type  1   force =     0.00007696   -0.00009036    0.00007631
     atom  175 type  1   force =    -0.00011537    0.00013787   -0.00092320
     atom  176 type  1   force =     0.00003212    0.00006607    0.00012899
     atom  177 type  1   force =    -0.00016582    0.00009538    0.00007422
     atom  178 type  1   force =     0.00016309   -0.00032503   -0.00038220
     atom  179 type  1   force =     0.00056583    0.00129509    0.00051505
     atom  180 type  1   force =     0.01001999   -0.00913982   -0.00276744
     atom  181 type  1   force =     0.00049929    0.00044782    0.00136300
     atom  182 type  1   force =     0.01056225   -0.00193060   -0.00974725
     atom  183 type  1   force =     0.00051505    0.00129509    0.00056583
     atom  184 type  1   force =    -0.00276744   -0.00913982    0.01001999
     atom  185 type  1   force =    -0.00041021   -0.00057029   -0.00270455
     atom  186 type  1   force =    -0.00029982   -0.00030737    0.00173822
     atom  187 type  1   force =    -0.00298756    0.00177779   -0.00218179
     atom  188 type  1   force =     0.00106117   -0.00092195    0.00109730
     atom  189 type  1   force =    -0.00988275    0.01050254   -0.00988275
     atom  190 type  1   force =     0.01050439    0.00244299    0.01050439
     atom  191 type  1   force =     0.00015938   -0.00009059   -0.00096226
     atom  192 type  1   force =     0.00007540    0.00000298    0.00013945
     atom  193 type  1   force =    -0.00015838   -0.00003646   -0.00000486
     atom  194 type  1   force =     0.00113076   -0.00059535    0.00042089
     atom  195 type  1   force =     0.00026224    0.00031761   -0.00001845
     atom  196 type  1   force =     0.00106655    0.00102503   -0.00105828
     atom  197 type  1   force =     0.00018378    0.00002470   -0.00012421
     atom  198 type  1   force =     0.00014592   -0.00010201   -0.00022653
     atom  199 type  1   force =     0.00047975    0.00057398    0.00113149
     atom  200 type  1   force =    -0.00366118    0.00982136   -0.00926450
     atom  201 type  1   force =    -0.00028363   -0.00259016   -0.00028363
     atom  202 type  1   force =    -0.00030945    0.00179344   -0.00030945
     atom  203 type  1   force =    -0.00611065   -0.01063138    0.00556314
     atom  204 type  1   force =     0.01052336    0.01026305    0.00350813
     atom  205 type  1   force =    -0.00275743   -0.00245231    0.00190974
     atom  206 type  1   force =     0.00110531    0.00116864   -0.00094532
     atom  207 type  1   force =     0.00556314   -0.01063138   -0.00611065
     atom  208 type  1   force =     0.00350813    0.01026305    0.01052336
     atom  209 type  1   force =     0.00264847   -0.00265537   -0.00256588
     atom  210 type  1   force =    -0.00054030   -0.00015782   -0.00014132
     atom  211 type  1   force =     0.00103459    0.00104459   -0.00425825
     atom  212 type  1   force =    -0.00000744   -0.00003070   -0.00001721
     atom  213 type  1   force =     0.00085429   -0.00440185    0.00085429
     atom  214 type  1   force =     0.00003048   -0.00009543    0.00003048
     atom  215 type  2   force =    -0.00055192    0.00056162   -0.00055192
     The non-local contrib.  to forces
     atom    1 type  1   force =     0.00498089    0.00328023    0.00320643
     atom    2 type  1   force =     0.00386782    0.00209034    0.00197839
     atom    3 type  1   force =     0.00528123   -0.00200988   -0.00207170
     atom    4 type  1   force =     0.00433832   -0.00249968   -0.00249886
     atom    5 type  1   force =     0.00290672    0.00291968   -0.00300833
     atom    6 type  1   force =     0.00186621    0.00195961   -0.00073832
     atom    7 type  1   force =     0.00286523   -0.00297459    0.00286523
     atom    8 type  1   force =     0.00185286   -0.00069160    0.00185286
     atom    9 type  1   force =     0.01100596    0.01000883   -0.01216000
     atom   10 type  1   force =     0.00536716    0.00285014   -0.00005820
     atom   11 type  1   force =     0.00232831   -0.00277521   -0.01095307
     atom   12 type  1   force =     0.01482521   -0.01669065   -0.01762820
     atom   13 type  1   force =     0.00575346    0.00583923   -0.01557758
     atom   14 type  1   force =     0.00326332    0.00328291   -0.00058526
     atom   15 type  1   force =     0.00369316   -0.00178189   -0.00733044
     atom   16 type  1   force =     0.00313315   -0.00452734   -0.00282119
     atom   17 type  1   force =     0.00559861    0.01114934   -0.00127375
     atom   18 type  1   force =     0.00755515    0.00131808    0.00446364
     atom   19 type  1   force =     0.00984770   -0.00684436    0.00984770
     atom   20 type  1   force =     0.00586400   -0.00404017    0.00586400
     atom   21 type  1   force =     0.00320643    0.00328023    0.00498089
     atom   22 type  1   force =     0.00197839    0.00209034    0.00386782
     atom   23 type  1   force =     0.00547147   -0.00253305    0.00867218
     atom   24 type  1   force =     0.00393151   -0.00368186    0.00088438
     atom   25 type  1   force =     0.01086861   -0.01205117    0.00975783
     atom   26 type  1   force =     0.00527628   -0.00010438    0.00269730
     atom   27 type  1   force =     0.00234374   -0.01121994   -0.00308252
     atom   28 type  1   force =     0.01527150   -0.01735017   -0.01713084
     atom   29 type  1   force =     0.00368327   -0.00740489   -0.00181469
     atom   30 type  1   force =     0.00317495   -0.00287052   -0.00452278
     atom   31 type  1   force =     0.00575797   -0.01568589    0.00575797
     atom   32 type  1   force =     0.00325283   -0.00033428    0.00325283
     atom   33 type  1   force =     0.00438389   -0.01119739   -0.01106966
     atom   34 type  1   force =     0.02214953   -0.02093969   -0.02066527
     atom   35 type  1   force =     0.06033268   -0.00739792   -0.00599460
     atom   36 type  1   force =     0.03612347   -0.00441812   -0.00426174
     atom   37 type  1   force =     0.01111710   -0.00570156   -0.00319237
     atom   38 type  1   force =     0.00542290   -0.00814570   -0.00244162
     atom   39 type  1   force =     0.01123046   -0.00342529   -0.00562590
     atom   40 type  1   force =     0.00552741   -0.00247967   -0.00808881
     atom   41 type  1   force =     0.03090113   -0.03051640    0.04780729
     atom   42 type  1   force =     0.02709601   -0.01023919    0.00474882
     atom   43 type  1   force =     0.03437155   -0.05573910    0.03437155
     atom   44 type  1   force =     0.01836335    0.01926580    0.01836335
     atom   45 type  1   force =     0.00975783   -0.01205117    0.01086861
     atom   46 type  1   force =     0.00269730   -0.00010438    0.00527628
     atom   47 type  1   force =     0.01660657   -0.00779427    0.00428124
     atom   48 type  1   force =     0.00310408    0.00001487    0.00691642
     atom   49 type  1   force =     0.00565881   -0.00123627    0.01092439
     atom   50 type  1   force =     0.00757096    0.00443550    0.00109129
     atom   51 type  1   force =     0.00995785    0.01003556   -0.00708719
     atom   52 type  1   force =     0.00597645    0.00604295   -0.00415079
     atom   53 type  1   force =     0.00561704    0.00834132   -0.00272508
     atom   54 type  1   force =     0.00403673    0.00100903   -0.00375790
     atom   55 type  1   force =     0.00320892    0.00494928    0.00320892
     atom   56 type  1   force =     0.00199102    0.00398581    0.00199102
     atom   57 type  1   force =     0.03182061    0.04733242   -0.03156535
     atom   58 type  1   force =     0.02766087    0.00492732   -0.01016432
     atom   59 type  1   force =     0.03474966    0.03479736   -0.05603645
     atom   60 type  1   force =     0.01843860    0.01841569    0.01940878
     atom   61 type  1   force =     0.01672124    0.00410266   -0.00753497
     atom   62 type  1   force =     0.00319961    0.00694636    0.00005942
     atom   63 type  1   force =     0.00995470    0.01100326   -0.01207947
     atom   64 type  1   force =     0.00277407    0.00548609   -0.00009913
     atom   65 type  1   force =     0.06062635    0.00215436    0.00335118
     atom   66 type  1   force =     0.02618651    0.02005123    0.02009797
     atom   67 type  1   force =     0.00995514    0.00989734    0.00995514
     atom   68 type  1   force =     0.00830713    0.00843245    0.00830713
     atom   69 type  1   force =     0.01092439   -0.00123627    0.00565881
     atom   70 type  1   force =     0.00109129    0.00443550    0.00757096
     atom   71 type  1   force =     0.01098142    0.00566609   -0.00111697
     atom   72 type  1   force =     0.00113314    0.00765725    0.00436679
     atom   73 type  1   force =    -0.00300833    0.00291968    0.00290672
     atom   74 type  1   force =    -0.00073832    0.00195961    0.00186621
     atom   75 type  1   force =    -0.00217733   -0.00218862   -0.00217733
     atom   76 type  1   force =    -0.00180043   -0.00177825   -0.00180043
     atom   77 type  1   force =    -0.00732166    0.00370038   -0.00178720
     atom   78 type  1   force =    -0.00295644    0.00327655   -0.00462654
     atom   79 type  1   force =    -0.00733044   -0.00178189    0.00369316
     atom   80 type  1   force =    -0.00282119   -0.00452734    0.00313315
     atom   81 type  1   force =    -0.00178720    0.00370038   -0.00732166
     atom   82 type  1   force =    -0.00462654    0.00327655   -0.00295644
     atom   83 type  1   force =    -0.00110009   -0.00105768   -0.00953700
     atom   84 type  1   force =    -0.00529677   -0.00531460    0.00692101
     atom   85 type  1   force =    -0.00561435    0.01133709   -0.00304456
     atom   86 type  1   force =    -0.00809026    0.00558190   -0.00251143
     atom   87 type  1   force =    -0.00783079   -0.00232214   -0.00783079
     atom   88 type  1   force =    -0.00182614   -0.00656671   -0.00182614
     atom   89 type  1   force =    -0.00255496    0.00553764    0.00873006
     atom   90 type  1   force =    -0.00375017    0.00404695    0.00089386
     atom   91 type  1   force =    -0.00207170   -0.00200988    0.00528123
     atom   92 type  1   force =    -0.00249886   -0.00249968    0.00433832
     atom   93 type  1   force =    -0.01216000    0.01000883    0.01100596
     atom   94 type  1   force =    -0.00005820    0.00285014    0.00536716
     atom   95 type  1   force =    -0.00572249   -0.00127623    0.00228187
     atom   96 type  1   force =    -0.00157153   -0.01128399    0.00341047
     atom   97 type  1   force =    -0.00181469   -0.00740489    0.00368327
     atom   98 type  1   force =    -0.00452278   -0.00287052    0.00317495
     atom   99 type  1   force =    -0.00108086   -0.00965750   -0.00108086
     atom  100 type  1   force =    -0.00533686    0.00677428   -0.00533686
     atom  101 type  1   force =    -0.00782451   -0.00789239   -0.00233289
     atom  102 type  1   force =    -0.00187453   -0.00198256   -0.00651888
     atom  103 type  1   force =    -0.00562590   -0.00342529    0.01123046
     atom  104 type  1   force =    -0.00808881   -0.00247967    0.00552741
     atom  105 type  1   force =    -0.00233289   -0.00789239   -0.00782451
     atom  106 type  1   force =    -0.00651888   -0.00198256   -0.00187453
     atom  107 type  1   force =    -0.00263275   -0.00613485   -0.00605029
     atom  108 type  1   force =    -0.01773624   -0.00401929   -0.00390414
     atom  109 type  1   force =    -0.02964953   -0.02959144   -0.05011284
     atom  110 type  1   force =     0.12288097    0.12210055   -0.12612487
     atom  111 type  1   force =    -0.02967284   -0.04984517   -0.02967284
     atom  112 type  1   force =     0.12209883   -0.12696505    0.12209883
     atom  113 type  1   force =    -0.00142342   -0.00577864    0.00229250
     atom  114 type  1   force =    -0.01130898   -0.00177255    0.00334179
     atom  115 type  1   force =    -0.00308252   -0.01121994    0.00234374
     atom  116 type  1   force =    -0.01713084   -0.01735017    0.01527150
     atom  117 type  1   force =    -0.01106966   -0.01119739    0.00438389
     atom  118 type  1   force =    -0.02066527   -0.02093969    0.02214953
     atom  119 type  1   force =    -0.03986239   -0.03951058   -0.01508330
     atom  120 type  1   force =    -0.10469320   -0.06980005    0.07380260
     atom  121 type  1   force =    -0.00272508    0.00834132    0.00561704
     atom  122 type  1   force =    -0.00375790    0.00100903    0.00403673
     atom  123 type  1   force =    -0.00201964    0.00523122   -0.00201964
     atom  124 type  1   force =    -0.00254243    0.00451221   -0.00254243
     atom  125 type  1   force =    -0.00577967    0.00219166   -0.00142144
     atom  126 type  1   force =    -0.00167499    0.00350705   -0.01147110
     atom  127 type  1   force =    -0.01207947    0.01100326    0.00995470
     atom  128 type  1   force =    -0.00009913    0.00548609    0.00277407
     atom  129 type  1   force =    -0.00142144    0.00219166   -0.00577967
     atom  130 type  1   force =    -0.01147110    0.00350705   -0.00167499
     atom  131 type  1   force =    -0.00296130    0.00235455   -0.01101184
     atom  132 type  1   force =    -0.01676872    0.01487627   -0.01769957
     atom  133 type  1   force =    -0.03999327   -0.01527273   -0.03951770
     atom  134 type  1   force =    -0.10401588    0.07178556   -0.07143945
     atom  135 type  1   force =    -0.01111985    0.00434969   -0.01111985
     atom  136 type  1   force =    -0.02126138    0.02241920   -0.02126138
     atom  137 type  1   force =    -0.00603816   -0.00132123   -0.00133169
     atom  138 type  1   force =    -0.02862859    0.00542698    0.00540219
     atom  139 type  1   force =    -0.00708719    0.01003556    0.00995785
     atom  140 type  1   force =    -0.00415079    0.00604295    0.00597645
     atom  141 type  1   force =    -0.03156535    0.04733242    0.03182061
     atom  142 type  1   force =    -0.01016432    0.00492732    0.02766087
     atom  143 type  1   force =    -0.03108699    0.03140073    0.04812042
     atom  144 type  1   force =    -0.01013965    0.02750064    0.00486033
     atom  145 type  1   force =    -0.01557758    0.00583923    0.00575346
     atom  146 type  1   force =    -0.00058526    0.00328291    0.00326332
     atom  147 type  1   force =    -0.00953700   -0.00105768   -0.00110009
     atom  148 type  1   force =     0.00692101   -0.00531460   -0.00529677
     atom  149 type  1   force =     0.00873006    0.00553764   -0.00255496
     atom  150 type  1   force =     0.00089386    0.00404695   -0.00375017
     atom  151 type  1   force =     0.00867218   -0.00253305    0.00547147
     atom  152 type  1   force =     0.00088438   -0.00368186    0.00393151
     atom  153 type  1   force =    -0.00304456    0.01133709   -0.00561435
     atom  154 type  1   force =    -0.00251143    0.00558190   -0.00809026
     atom  155 type  1   force =    -0.00595770   -0.00237592   -0.00595770
     atom  156 type  1   force =    -0.00388221   -0.01743850   -0.00388221
     atom  157 type  1   force =     0.00435568    0.01699151   -0.00777380
     atom  158 type  1   force =     0.00693529    0.00336549    0.00014161
     atom  159 type  1   force =     0.00228187   -0.00127623   -0.00572249
     atom  160 type  1   force =     0.00341047   -0.01128399   -0.00157153
     atom  161 type  1   force =    -0.00777380    0.01699151    0.00435568
     atom  162 type  1   force =     0.00014161    0.00336549    0.00693529
     atom  163 type  1   force =    -0.01095307   -0.00277521    0.00232831
     atom  164 type  1   force =    -0.01762820   -0.01669065    0.01482521
     atom  165 type  1   force =    -0.00127375    0.01114934    0.00559861
     atom  166 type  1   force =     0.00446364    0.00131808    0.00755515
     atom  167 type  1   force =    -0.00124568   -0.00568353   -0.00124568
     atom  168 type  1   force =     0.00527947   -0.02814996    0.00527947
     atom  169 type  1   force =    -0.00319237   -0.00570156    0.01111710
     atom  170 type  1   force =    -0.00244162   -0.00814570    0.00542290
     atom  171 type  1   force =    -0.00605029   -0.00613485   -0.00263275
     atom  172 type  1   force =    -0.00390414   -0.00401929   -0.01773624
     atom  173 type  1   force =     0.00229250   -0.00577864   -0.00142342
     atom  174 type  1   force =     0.00334179   -0.00177255   -0.01130898
     atom  175 type  1   force =     0.00428124   -0.00779427    0.01660657
     atom  176 type  1   force =     0.00691642    0.00001487    0.00310408
     atom  177 type  1   force =    -0.05011284   -0.02959144   -0.02964953
     atom  178 type  1   force =    -0.12612487    0.12210055    0.12288097
     atom  179 type  1   force =    -0.01469424   -0.03922842   -0.03851397
     atom  180 type  1   force =     0.07112517   -0.10254811   -0.06870500
     atom  181 type  1   force =    -0.01508330   -0.03951058   -0.03986239
     atom  182 type  1   force =     0.07380260   -0.06980005   -0.10469320
     atom  183 type  1   force =    -0.03851397   -0.03922842   -0.01469424
     atom  184 type  1   force =    -0.06870500   -0.10254811    0.07112517
     atom  185 type  1   force =    -0.00599460   -0.00739792    0.06033268
     atom  186 type  1   force =    -0.00426174   -0.00441812    0.03612347
     atom  187 type  1   force =     0.04780729   -0.03051640    0.03090113
     atom  188 type  1   force =     0.00474882   -0.01023919    0.02709601
     atom  189 type  1   force =     0.19406280   -0.21664108    0.19406280
     atom  190 type  1   force =     0.08599670    0.06260542    0.08599670
     atom  191 type  1   force =    -0.00753497    0.00410266    0.01672124
     atom  192 type  1   force =     0.00005942    0.00694636    0.00319961
     atom  193 type  1   force =    -0.01101184    0.00235455   -0.00296130
     atom  194 type  1   force =    -0.01769957    0.01487627   -0.01676872
     atom  195 type  1   force =    -0.00133169   -0.00132123   -0.00603816
     atom  196 type  1   force =     0.00540219    0.00542698   -0.02862859
     atom  197 type  1   force =    -0.00111697    0.00566609    0.01098142
     atom  198 type  1   force =     0.00436679    0.00765725    0.00113314
     atom  199 type  1   force =    -0.03951770   -0.01527273   -0.03999327
     atom  200 type  1   force =    -0.07143945    0.07178556   -0.10401588
     atom  201 type  1   force =    -0.00584506    0.06113181   -0.00584506
     atom  202 type  1   force =    -0.00427555    0.03637312   -0.00427555
     atom  203 type  1   force =     0.20489525    0.19792186   -0.22940018
     atom  204 type  1   force =     0.08766467    0.08628062    0.06599914
     atom  205 type  1   force =     0.04812042    0.03140073   -0.03108699
     atom  206 type  1   force =     0.00486033    0.02750064   -0.01013965
     atom  207 type  1   force =    -0.22940018    0.19792186    0.20489525
     atom  208 type  1   force =     0.06599914    0.08628062    0.08766467
     atom  209 type  1   force =    -0.05603645    0.03479736    0.03474966
     atom  210 type  1   force =     0.01940878    0.01841569    0.01843860
     atom  211 type  1   force =     0.00335118    0.00215436    0.06062635
     atom  212 type  1   force =     0.02009797    0.02005123    0.02618651
     atom  213 type  1   force =     0.00208210    0.06102909    0.00208210
     atom  214 type  1   force =     0.02045756    0.02617578    0.02045756
     atom  215 type  2   force =    -0.76778313   -0.76626046   -0.76778313
     The ionic contribution  to forces
     atom    1 type  1   force =    -0.03614862   -0.05373348   -0.04952379
     atom    2 type  1   force =    -0.02837351   -0.00054368    0.00000832
     atom    3 type  1   force =    -0.01985125    0.02434090    0.02320578
     atom    4 type  1   force =    -0.09061947    0.08622390    0.08262423
     atom    5 type  1   force =    -0.03380480   -0.03671877    0.00298502
     atom    6 type  1   force =    -0.01804065   -0.01779564    0.03788709
     atom    7 type  1   force =    -0.03307879    0.00345518   -0.03307526
     atom    8 type  1   force =    -0.01768881    0.04186519   -0.01768324
     atom    9 type  1   force =    -0.05835369   -0.05441230    0.05915382
     atom   10 type  1   force =    -0.08831151    0.00141385    0.06865598
     atom   11 type  1   force =    -0.11778207    0.11907582   -0.01040363
     atom   12 type  1   force =    -0.14429029    0.11947047   -0.03122711
     atom   13 type  1   force =    -0.05230011   -0.05562524   -0.03734789
     atom   14 type  1   force =    -0.02494431   -0.02608496    0.03329710
     atom   15 type  1   force =    -0.06971341    0.01110853    0.00891049
     atom   16 type  1   force =    -0.08444422    0.04602967    0.05807196
     atom   17 type  1   force =    -0.12820400   -0.12333858   -0.01724341
     atom   18 type  1   force =    -0.07225922   -0.01570860   -0.02522160
     atom   19 type  1   force =    -0.06833252    0.03680961   -0.06832813
     atom   20 type  1   force =    -0.05032589    0.06176206   -0.05032194
     atom   21 type  1   force =    -0.04953926   -0.05373984   -0.03614782
     atom   22 type  1   force =     0.00000963   -0.00054813   -0.02836690
     atom   23 type  1   force =    -0.06454189    0.03773526    0.00756302
     atom   24 type  1   force =    -0.00698947    0.07704432   -0.01529573
     atom   25 type  1   force =    -0.05816480    0.06354845   -0.05022909
     atom   26 type  1   force =    -0.08988425    0.07542563    0.00369818
     atom   27 type  1   force =    -0.11798161   -0.00586693    0.11852835
     atom   28 type  1   force =    -0.15014783   -0.02251982    0.12116000
     atom   29 type  1   force =    -0.06959272    0.01298634    0.00997823
     atom   30 type  1   force =    -0.08496824    0.06410416    0.04278520
     atom   31 type  1   force =    -0.05199885   -0.03430635   -0.05200243
     atom   32 type  1   force =    -0.02477102    0.03754608   -0.02476107
     atom   33 type  1   force =    -0.08761985    0.14453554    0.13835719
     atom   34 type  1   force =    -0.26954377    0.15785922    0.15080132
     atom   35 type  1   force =    -0.71395120    0.19379873    0.18009434
     atom   36 type  1   force =    -0.42324000    0.00557842    0.00168319
     atom   37 type  1   force =    -0.16156165    0.12485091    0.01672597
     atom   38 type  1   force =    -0.08220164    0.09730801    0.04833350
     atom   39 type  1   force =    -0.16273134    0.02148556    0.11873149
     atom   40 type  1   force =    -0.08376306    0.04964946    0.09256301
     atom   41 type  1   force =    -0.25177703    0.27235096   -0.19990561
     atom   42 type  1   force =    -0.19633861    0.13281624   -0.13225188
     atom   43 type  1   force =    -0.24322982    0.17427791   -0.24323200
     atom   44 type  1   force =    -0.12439332    0.07826369   -0.12438311
     atom   45 type  1   force =    -0.05022376    0.06355018   -0.05816257
     atom   46 type  1   force =     0.00369519    0.07541340   -0.08987741
     atom   47 type  1   force =    -0.17221026    0.08654743   -0.05764553
     atom   48 type  1   force =    -0.02541531    0.01575550   -0.06590981
     atom   49 type  1   force =    -0.13088362   -0.01765479   -0.12091664
     atom   50 type  1   force =    -0.07397509   -0.02939138   -0.01468115
     atom   51 type  1   force =    -0.07076566   -0.07667747    0.03780168
     atom   52 type  1   force =    -0.05067745   -0.05518186    0.05784756
     atom   53 type  1   force =    -0.06783976    0.00149135    0.03824043
     atom   54 type  1   force =    -0.00875774   -0.01885883    0.07335146
     atom   55 type  1   force =    -0.05025460   -0.04223126   -0.05025041
     atom   56 type  1   force =    -0.00035519   -0.03178277   -0.00035527
     atom   57 type  1   force =    -0.26182451   -0.21305864    0.27595980
     atom   58 type  1   force =    -0.19844006   -0.13761393    0.12640621
     atom   59 type  1   force =    -0.24322385   -0.25216586    0.16776048
     atom   60 type  1   force =    -0.12319035   -0.12967794    0.07586296
     atom   61 type  1   force =    -0.17448368   -0.05881631    0.08129339
     atom   62 type  1   force =    -0.02705482   -0.06992138    0.01446036
     atom   63 type  1   force =    -0.05327313   -0.06582324    0.06064240
     atom   64 type  1   force =     0.00174240   -0.09353607    0.06919499
     atom   65 type  1   force =    -0.79925982   -0.17727995   -0.17904241
     atom   66 type  1   force =    -0.24469483   -0.13180691   -0.12772810
     atom   67 type  1   force =    -0.15682121   -0.16236269   -0.15682463
     atom   68 type  1   force =    -0.07161385   -0.07597368   -0.07162586
     atom   69 type  1   force =    -0.12092096   -0.01763964   -0.13088610
     atom   70 type  1   force =    -0.01467590   -0.02939240   -0.07398049
     atom   71 type  1   force =    -0.12117320   -0.13527604   -0.01639424
     atom   72 type  1   force =    -0.01510620   -0.07841539   -0.02565730
     atom   73 type  1   force =     0.00297623   -0.03671422   -0.03380070
     atom   74 type  1   force =     0.03787335   -0.01779580   -0.01802983
     atom   75 type  1   force =    -0.02689252   -0.02579562   -0.02689407
     atom   76 type  1   force =     0.00044596    0.00478813    0.00044816
     atom   77 type  1   force =     0.00902879   -0.07266123    0.00869904
     atom   78 type  1   force =     0.05740767   -0.08358519    0.04053186
     atom   79 type  1   force =     0.00890950    0.01111828   -0.06971988
     atom   80 type  1   force =     0.05806681    0.04603028   -0.08444593
     atom   81 type  1   force =     0.00869194   -0.07266974    0.00902685
     atom   82 type  1   force =     0.04053624   -0.08358883    0.05740273
     atom   83 type  1   force =    -0.01894286   -0.01621962   -0.00840380
     atom   84 type  1   force =     0.03230238    0.03652969    0.15114672
     atom   85 type  1   force =     0.11736637   -0.16260924    0.01891871
     atom   86 type  1   force =     0.09150588   -0.08238827    0.04924383
     atom   87 type  1   force =     0.00031201   -0.07659161    0.00031449
     atom   88 type  1   force =     0.09359153   -0.08886978    0.09359136
     atom   89 type  1   force =     0.03591684   -0.06884446    0.00780840
     atom   90 type  1   force =     0.07245811   -0.00882546   -0.01443589
     atom   91 type  1   force =     0.02320485    0.02435234   -0.01984853
     atom   92 type  1   force =     0.08261292    0.08622126   -0.09062482
     atom   93 type  1   force =     0.05915737   -0.05440366   -0.05835378
     atom   94 type  1   force =     0.06865775    0.00140489   -0.08831346
     atom   95 type  1   force =     0.11905855    0.05465509    0.07142432
     atom   96 type  1   force =     0.19510283    0.22165481   -0.07806500
     atom   97 type  1   force =     0.00997555    0.01298833   -0.06960951
     atom   98 type  1   force =     0.04278706    0.06409433   -0.08496729
     atom   99 type  1   force =    -0.01794940   -0.00528192   -0.01793621
     atom  100 type  1   force =     0.03389092    0.14989026    0.03389772
     atom  101 type  1   force =     0.00111414    0.00569518   -0.07840028
     atom  102 type  1   force =     0.09399363    0.09863759   -0.09222657
     atom  103 type  1   force =     0.11872569    0.02150635   -0.16273816
     atom  104 type  1   force =     0.09255596    0.04964464   -0.08376403
     atom  105 type  1   force =    -0.07840280    0.00569576    0.00112113
     atom  106 type  1   force =    -0.09222951    0.09863879    0.09400559
     atom  107 type  1   force =     0.00145832    0.12930772    0.12639384
     atom  108 type  1   force =     0.19233892    0.13020225    0.13150210
     atom  109 type  1   force =    -0.07372823   -0.06725667    0.21178016
     atom  110 type  1   force =     0.28032045    0.28585225    1.31253958
     atom  111 type  1   force =    -0.07077340    0.21787614   -0.07076566
     atom  112 type  1   force =     0.28510763    1.30533429    0.28511641
     atom  113 type  1   force =     0.05294976    0.12546114    0.07163370
     atom  114 type  1   force =     0.22090605    0.20439713   -0.08040752
     atom  115 type  1   force =     0.11854768   -0.00585890   -0.11799614
     atom  116 type  1   force =     0.12116863   -0.02253097   -0.15016499
     atom  117 type  1   force =     0.13836033    0.14455899   -0.08761932
     atom  118 type  1   force =     0.15080253    0.15785834   -0.26956444
     atom  119 type  1   force =     0.71019453    0.22712211    0.15769933
     atom  120 type  1   force =     0.74704386   -0.29632973   -0.70014255
     atom  121 type  1   force =     0.03823321    0.00149790   -0.06783964
     atom  122 type  1   force =     0.07333690   -0.01885972   -0.00874905
     atom  123 type  1   force =     0.02256176   -0.02615521    0.02256489
     atom  124 type  1   force =     0.08146526   -0.09369698    0.08147651
     atom  125 type  1   force =     0.12025758    0.06858513    0.05149551
     atom  126 type  1   force =     0.19791586   -0.08506725    0.21788045
     atom  127 type  1   force =     0.06064240   -0.06581874   -0.05327898
     atom  128 type  1   force =     0.06920235   -0.09353415    0.00174317
     atom  129 type  1   force =     0.05149514    0.06859589    0.12026500
     atom  130 type  1   force =     0.21787244   -0.08506684    0.19792123
     atom  131 type  1   force =     0.11616854   -0.12359580   -0.00904001
     atom  132 type  1   force =     0.11510136   -0.15062007   -0.02805174
     atom  133 type  1   force =     0.71008852    0.14892916    0.22285718
     atom  134 type  1   force =     0.72687310   -0.70187193   -0.30409839
     atom  135 type  1   force =     0.13772975   -0.09267101    0.13774139
     atom  136 type  1   force =     0.14666947   -0.26902281    0.14667061
     atom  137 type  1   force =     0.13508253   -0.04415021   -0.04051823
     atom  138 type  1   force =     0.17244378   -0.12168789   -0.11362119
     atom  139 type  1   force =     0.03779301   -0.07667745   -0.07076623
     atom  140 type  1   force =     0.05784534   -0.05518870   -0.05067438
     atom  141 type  1   force =     0.27595032   -0.21306583   -0.26183527
     atom  142 type  1   force =     0.12640918   -0.13761982   -0.19844213
     atom  143 type  1   force =     0.26820304   -0.26305296   -0.19861019
     atom  144 type  1   force =     0.12603551   -0.20255959   -0.12901597
     atom  145 type  1   force =    -0.03734060   -0.05562288   -0.05230438
     atom  146 type  1   force =     0.03329048   -0.02609376   -0.02494762
     atom  147 type  1   force =    -0.00840384   -0.01622442   -0.01892231
     atom  148 type  1   force =     0.15113279    0.03652309    0.03229661
     atom  149 type  1   force =     0.00782031   -0.06884662    0.03592683
     atom  150 type  1   force =    -0.01443814   -0.00881839    0.07246943
     atom  151 type  1   force =     0.00757476    0.03773551   -0.06454434
     atom  152 type  1   force =    -0.01530058    0.07705022   -0.00698590
     atom  153 type  1   force =     0.01891404   -0.16261251    0.11736964
     atom  154 type  1   force =     0.04924624   -0.08239707    0.09151589
     atom  155 type  1   force =     0.12542508    0.00369993    0.12542818
     atom  156 type  1   force =     0.12921077    0.19514438    0.12920825
     atom  157 type  1   force =    -0.05454553   -0.17241839    0.08069933
     atom  158 type  1   force =    -0.06476346   -0.02720892    0.01343406
     atom  159 type  1   force =     0.07145109    0.05463917    0.11905709
     atom  160 type  1   force =    -0.07806091    0.22165079    0.19508829
     atom  161 type  1   force =     0.08070206   -0.17241356   -0.05454610
     atom  162 type  1   force =     0.01344994   -0.02720963   -0.06477196
     atom  163 type  1   force =    -0.01040226    0.11909697   -0.11777866
     atom  164 type  1   force =    -0.03122598    0.11947413   -0.14430567
     atom  165 type  1   force =    -0.01724852   -0.12332871   -0.12821099
     atom  166 type  1   force =    -0.02521817   -0.01569547   -0.07226042
     atom  167 type  1   force =    -0.04200746    0.13542307   -0.04199048
     atom  168 type  1   force =    -0.11562569    0.17369347   -0.11563614
     atom  169 type  1   force =     0.01673613    0.12485104   -0.16157068
     atom  170 type  1   force =     0.04833736    0.09731683   -0.08221925
     atom  171 type  1   force =     0.12639360    0.12930835    0.00145022
     atom  172 type  1   force =     0.13150254    0.13020632    0.19232946
     atom  173 type  1   force =     0.07165363    0.12545294    0.05294091
     atom  174 type  1   force =    -0.08041258    0.20438793    0.22090264
     atom  175 type  1   force =    -0.05764842    0.08654626   -0.17221545
     atom  176 type  1   force =    -0.06590138    0.01576220   -0.02543528
     atom  177 type  1   force =     0.21177359   -0.06726694   -0.07372285
     atom  178 type  1   force =     1.31254151    0.28584866    0.28032409
     atom  179 type  1   force =     0.15097935    0.71857566    0.22040354
     atom  180 type  1   force =    -0.69586471    0.74653954   -0.32234146
     atom  181 type  1   force =     0.15770297    0.22710675    0.71020359
     atom  182 type  1   force =    -0.70013296   -0.29632782    0.74706468
     atom  183 type  1   force =     0.22040345    0.71857694    0.15098110
     atom  184 type  1   force =    -0.32233027    0.74653246   -0.69585445
     atom  185 type  1   force =     0.18009426    0.19378400   -0.71393264
     atom  186 type  1   force =     0.00168317    0.00556553   -0.42323945
     atom  187 type  1   force =    -0.19992166    0.27235814   -0.25177265
     atom  188 type  1   force =    -0.13225635    0.13281318   -0.19632900
     atom  189 type  1   force =    -2.16789425    2.26856537   -2.16788288
     atom  190 type  1   force =    -0.74674988    0.42885281   -0.74674886
     atom  191 type  1   force =     0.08130026   -0.05881210   -0.17448834
     atom  192 type  1   force =     0.01448258   -0.06993238   -0.02707365
     atom  193 type  1   force =    -0.00904425   -0.12357292    0.11617937
     atom  194 type  1   force =    -0.02805572   -0.15060849    0.11509152
     atom  195 type  1   force =    -0.04052806   -0.04414601    0.13506821
     atom  196 type  1   force =    -0.11360313   -0.12167095    0.17243835
     atom  197 type  1   force =    -0.01640760   -0.13528189   -0.12115743
     atom  198 type  1   force =    -0.02565055   -0.07840738   -0.01510277
     atom  199 type  1   force =     0.22284323    0.14893337    0.71009789
     atom  200 type  1   force =    -0.30411603   -0.70184296    0.72687715
     atom  201 type  1   force =     0.18409809   -0.71131927    0.18408054
     atom  202 type  1   force =     0.00423609   -0.42517987    0.00422420
     atom  203 type  1   force =    -2.16395199   -2.19756554    2.25848311
     atom  204 type  1   force =    -0.72859594   -0.75012446    0.41722068
     atom  205 type  1   force =    -0.19859687   -0.26304255    0.26821170
     atom  206 type  1   force =    -0.12901588   -0.20254801    0.12602956
     atom  207 type  1   force =     2.25846899   -2.19755209   -2.16396756
     atom  208 type  1   force =     0.41721311   -0.75012595   -0.72860206
     atom  209 type  1   force =     0.16775492   -0.25216417   -0.24322877
     atom  210 type  1   force =     0.07585856   -0.12967292   -0.12318463
     atom  211 type  1   force =    -0.17903861   -0.17728303   -0.79925260
     atom  212 type  1   force =    -0.12772220   -0.13181720   -0.24470148
     atom  213 type  1   force =    -0.17300755   -0.79630791   -0.17301306
     atom  214 type  1   force =    -0.12302801   -0.24763388   -0.12304200
     atom  215 type  2   force =     3.09336387    3.10276421    3.09337097
     The local contribution  to forces
     atom    1 type  1   force =     0.03092588    0.05025937    0.04612918
     atom    2 type  1   force =     0.02466445   -0.00151725   -0.00195777
     atom    3 type  1   force =     0.01441618   -0.02228971   -0.02109066
     atom    4 type  1   force =     0.08617167   -0.08350448   -0.07990193
     atom    5 type  1   force =     0.03068951    0.03358303    0.00001026
     atom    6 type  1   force =     0.01628088    0.01594991   -0.03716598
     atom    7 type  1   force =     0.03000694   -0.00049451    0.03000310
     atom    8 type  1   force =     0.01594447   -0.04119011    0.01593811
     atom    9 type  1   force =     0.04697145    0.04424339   -0.04679980
     atom   10 type  1   force =     0.08292364   -0.00406038   -0.06874273
     atom   11 type  1   force =     0.11541106   -0.11632066    0.02117969
     atom   12 type  1   force =     0.12895089   -0.10243461    0.05007652
     atom   13 type  1   force =     0.04634489    0.04958478    0.05300437
     atom   14 type  1   force =     0.02178286    0.02287020   -0.03244020
     atom   15 type  1   force =     0.06596743   -0.00931614   -0.00156056
     atom   16 type  1   force =     0.08122292   -0.04136728   -0.05521270
     atom   17 type  1   force =     0.12258780    0.11205323    0.01869160
     atom   18 type  1   force =     0.06458254    0.01415808    0.02090585
     atom   19 type  1   force =     0.05806761   -0.02996034    0.05806297
     atom   20 type  1   force =     0.04479641   -0.05799678    0.04479201
     atom   21 type  1   force =     0.04614493    0.05026536    0.03092515
     atom   22 type  1   force =    -0.00195908   -0.00151271    0.02465751
     atom   23 type  1   force =     0.05895113   -0.03512041   -0.01669724
     atom   24 type  1   force =     0.00329236   -0.07334738    0.01461025
     atom   25 type  1   force =     0.04692186   -0.05128451    0.04034122
     atom   26 type  1   force =     0.08459286   -0.07547143   -0.00619815
     atom   27 type  1   force =     0.11559546    0.01690070   -0.11545656
     atom   28 type  1   force =     0.13444732    0.04115419   -0.10378639
     atom   29 type  1   force =     0.06585759   -0.00556158   -0.00814850
     atom   30 type  1   force =     0.08171640   -0.06119182   -0.03813649
     atom   31 type  1   force =     0.04607050    0.05011571    0.04607385
     atom   32 type  1   force =     0.02161767   -0.03691299    0.02160781
     atom   33 type  1   force =     0.08320427   -0.13339965   -0.12734984
     atom   34 type  1   force =     0.24762115   -0.13705094   -0.13031181
     atom   35 type  1   force =     0.65090236   -0.18697772   -0.17452072
     atom   36 type  1   force =     0.38884344   -0.00147533    0.00226733
     atom   37 type  1   force =     0.15044263   -0.11905388   -0.01374772
     atom   38 type  1   force =     0.07685210   -0.08919761   -0.04601583
     atom   39 type  1   force =     0.15147609   -0.01829048   -0.11300170
     atom   40 type  1   force =     0.07832587   -0.04729991   -0.08453845
     atom   41 type  1   force =     0.21868280   -0.24006646    0.14909936
     atom   42 type  1   force =     0.17032825   -0.12350795    0.12855227
     atom   43 type  1   force =     0.20640867   -0.11560835    0.20641143
     atom   44 type  1   force =     0.10595613   -0.09817829    0.10594574
     atom   45 type  1   force =     0.04033552   -0.05128634    0.04691921
     atom   46 type  1   force =    -0.00619491   -0.07545913    0.08458528
     atom   47 type  1   force =     0.15466936   -0.07862347    0.05323732
     atom   48 type  1   force =     0.02242918   -0.01571170    0.05901391
     atom   49 type  1   force =     0.12522845    0.01908037    0.10984739
     atom   50 type  1   force =     0.06628078    0.02509175    0.01335480
     atom   51 type  1   force =     0.06039254    0.06624083   -0.03071309
     atom   52 type  1   force =     0.04504238    0.04949526   -0.05397573
     atom   53 type  1   force =     0.06211969   -0.01032717   -0.03543836
     atom   54 type  1   force =     0.00493861    0.01805540   -0.06959632
     atom   55 type  1   force =     0.04685192    0.03703917    0.04684720
     atom   56 type  1   force =    -0.00161004    0.02796942   -0.00161006
     atom   57 type  1   force =     0.22766753    0.16240686   -0.24254488
     atom   58 type  1   force =     0.17192013    0.13375336   -0.11720580
     atom   59 type  1   force =     0.20589597    0.21470331   -0.10908728
     atom   60 type  1   force =     0.10459892    0.11109450   -0.09582339
     atom   61 type  1   force =     0.15678849    0.05461499   -0.07361016
     atom   62 type  1   force =     0.02398325    0.06296893   -0.01445489
     atom   63 type  1   force =     0.04318152    0.05444247   -0.04835078
     atom   64 type  1   force =    -0.00433547    0.08805904   -0.06924912
     atom   65 type  1   force =     0.73436378    0.17616230    0.17671415
     atom   66 type  1   force =     0.21847957    0.11171661    0.10761128
     atom   67 type  1   force =     0.14659238    0.15219050    0.14659573
     atom   68 type  1   force =     0.06320367    0.06744902    0.06321591
     atom   69 type  1   force =     0.10985193    0.01906487    0.12523060
     atom   70 type  1   force =     0.01334995    0.02509311    0.06628602
     atom   71 type  1   force =     0.11005665    0.12962518    0.01768359
     atom   72 type  1   force =     0.01373511    0.07064605    0.02142446
     atom   73 type  1   force =     0.00001963    0.03357812    0.03068537
     atom   74 type  1   force =    -0.03715160    0.01595050    0.01626973
     atom   75 type  1   force =     0.02903576    0.02795141    0.02903767
     atom   76 type  1   force =     0.00131620   -0.00305193    0.00131387
     atom   77 type  1   force =    -0.00169012    0.06890180   -0.00689836
     atom   78 type  1   force =    -0.05442430    0.08024193   -0.03579260
     atom   79 type  1   force =    -0.00155969   -0.00932643    0.06597374
     atom   80 type  1   force =    -0.05520694   -0.04136794    0.08122436
     atom   81 type  1   force =    -0.00689132    0.06891048   -0.00168821
     atom   82 type  1   force =    -0.03579717    0.08024566   -0.05441969
     atom   83 type  1   force =     0.01994948    0.01717088    0.01797745
     atom   84 type  1   force =    -0.02686541   -0.03106594   -0.15821073
     atom   85 type  1   force =    -0.11163166    0.15128462   -0.01608456
     atom   86 type  1   force =    -0.08345859    0.07688327   -0.04685474
     atom   87 type  1   force =     0.00748953    0.07877208    0.00748747
     atom   88 type  1   force =    -0.09187873    0.09549969   -0.09187848
     atom   89 type  1   force =    -0.03323140    0.06314943   -0.01694240
     atom   90 type  1   force =    -0.06869746    0.00501442    0.01373295
     atom   91 type  1   force =    -0.02109016   -0.02230205    0.01441347
     atom   92 type  1   force =    -0.07988996   -0.08350149    0.08617610
     atom   93 type  1   force =    -0.04680352    0.04423409    0.04697097
     atom   94 type  1   force =    -0.06874480   -0.00405077    0.08292566
     atom   95 type  1   force =    -0.11335964   -0.05346177   -0.07363688
     atom   96 type  1   force =    -0.19363380   -0.21033439    0.07468580
     atom   97 type  1   force =    -0.00814566   -0.00556408    0.06587421
     atom   98 type  1   force =    -0.03813783   -0.06118179    0.08171467
     atom   99 type  1   force =     0.01892870    0.01497556    0.01891487
     atom  100 type  1   force =    -0.02843518   -0.15683523   -0.02844153
     atom  101 type  1   force =     0.00667598    0.00217293    0.08058931
     atom  102 type  1   force =    -0.09222178   -0.09675326    0.09881250
     atom  103 type  1   force =    -0.11299641   -0.01831128    0.15148368
     atom  104 type  1   force =    -0.08453050   -0.04729496    0.07832713
     atom  105 type  1   force =     0.08059150    0.00217245    0.00666902
     atom  106 type  1   force =     0.09881552   -0.09675447   -0.09223373
     atom  107 type  1   force =     0.00120164   -0.12318788   -0.12036712
     atom  108 type  1   force =    -0.17501251   -0.12644798   -0.12785944
     atom  109 type  1   force =     0.10344095    0.09693420   -0.16184437
     atom  110 type  1   force =    -0.40359416   -0.40828527   -1.18626336
     atom  111 type  1   force =     0.10048925   -0.16810275    0.10048170
     atom  112 type  1   force =    -0.40781918   -1.17842661   -0.40782776
     atom  113 type  1   force =    -0.05159267   -0.11969417   -0.07387200
     atom  114 type  1   force =    -0.20953249   -0.20272283    0.07713079
     atom  115 type  1   force =    -0.11547629    0.01689228    0.11561018
     atom  116 type  1   force =    -0.10379531    0.04116652    0.13446386
     atom  117 type  1   force =    -0.12735228   -0.13342356    0.08320396
     atom  118 type  1   force =    -0.13031355   -0.13705007    0.24764343
     atom  119 type  1   force =    -0.66898027   -0.18717116   -0.14212849
     atom  120 type  1   force =    -0.65210920    0.36419244    0.63689084
     atom  121 type  1   force =    -0.03543134   -0.01033410    0.06211997
     atom  122 type  1   force =    -0.06958205    0.01805650    0.00493010
     atom  123 type  1   force =    -0.02049453    0.02077001   -0.02049713
     atom  124 type  1   force =    -0.07869843    0.08908673   -0.07871000
     atom  125 type  1   force =    -0.11449835   -0.07071071   -0.05015326
     atom  126 type  1   force =    -0.19635308    0.08160653   -0.20640633
     atom  127 type  1   force =    -0.04835087    0.05443741    0.04318767
     atom  128 type  1   force =    -0.06925631    0.08805744   -0.00433588
     atom  129 type  1   force =    -0.05015324   -0.07072095   -0.11450538
     atom  130 type  1   force =    -0.20639808    0.08160600   -0.19635783
     atom  131 type  1   force =    -0.11322388    0.12119529    0.01988348
     atom  132 type  1   force =    -0.09792343    0.13513785    0.04687152
     atom  133 type  1   force =    -0.66897447   -0.13309126   -0.18287006
     atom  134 type  1   force =    -0.63213236    0.63989883    0.37186596
     atom  135 type  1   force =    -0.12665953    0.08827825   -0.12667146
     atom  136 type  1   force =    -0.12560995    0.24687441   -0.12561073
     atom  137 type  1   force =    -0.12907426    0.04578113    0.04210125
     atom  138 type  1   force =    -0.14488459    0.11727710    0.10927355
     atom  139 type  1   force =    -0.03070397    0.06624069    0.06039305
     atom  140 type  1   force =    -0.05397330    0.04950270    0.04503932
     atom  141 type  1   force =    -0.24253557    0.16241349    0.22767822
     atom  142 type  1   force =    -0.11720904    0.13375946    0.17192236
     atom  143 type  1   force =    -0.23521715    0.22918961    0.14772147
     atom  144 type  1   force =    -0.11685257    0.17621676    0.12524876
     atom  145 type  1   force =     0.05299725    0.04958200    0.04634881
     atom  146 type  1   force =    -0.03243314    0.02287888    0.02178711
     atom  147 type  1   force =     0.01797762    0.01717589    0.01992850
     atom  148 type  1   force =    -0.15819613   -0.03105966   -0.02685931
     atom  149 type  1   force =    -0.01695376    0.06315213   -0.03324149
     atom  150 type  1   force =     0.01373585    0.00500709   -0.06870806
     atom  151 type  1   force =    -0.01670897   -0.03512114    0.05895415
     atom  152 type  1   force =     0.01461574   -0.07335355    0.00328920
     atom  153 type  1   force =    -0.01607990    0.15128773   -0.11163452
     atom  154 type  1   force =    -0.04685750    0.07689160   -0.08346874
     atom  155 type  1   force =    -0.11948401   -0.00128847   -0.11948701
     atom  156 type  1   force =    -0.12558633   -0.17812379   -0.12558428
     atom  157 type  1   force =     0.05008334    0.15448982   -0.07282018
     atom  158 type  1   force =     0.05783387    0.02398191   -0.01350956
     atom  159 type  1   force =    -0.07366425   -0.05344569   -0.11335783
     atom  160 type  1   force =     0.07468197   -0.21033141   -0.19361939
     atom  161 type  1   force =    -0.07282298    0.15448466    0.05008360
     atom  162 type  1   force =    -0.01352629    0.02398257    0.05784308
     atom  163 type  1   force =     0.02117828   -0.11634246    0.11540753
     atom  164 type  1   force =     0.05007626   -0.10243870    0.12896643
     atom  165 type  1   force =     0.01869726    0.11204316    0.12259481
     atom  166 type  1   force =     0.02090264    0.01414497    0.06458378
     atom  167 type  1   force =     0.04351431   -0.12980990    0.04349785
     atom  168 type  1   force =     0.11136534   -0.14658837    0.11137561
     atom  169 type  1   force =    -0.01375757   -0.11905459    0.15045184
     atom  170 type  1   force =    -0.04601936   -0.08920665    0.07686951
     atom  171 type  1   force =    -0.12036666   -0.12318860    0.00121033
     atom  172 type  1   force =    -0.12785964   -0.12645217   -0.17500239
     atom  173 type  1   force =    -0.07389244   -0.11968543   -0.05158380
     atom  174 type  1   force =     0.07713642   -0.20271408   -0.20952982
     atom  175 type  1   force =     0.05324033   -0.07862214    0.15467478
     atom  176 type  1   force =     0.05900582   -0.01571853    0.02244962
     atom  177 type  1   force =    -0.16183825    0.09694458    0.10343521
     atom  178 type  1   force =    -1.18626546   -0.40828229   -0.40359816
     atom  179 type  1   force =    -0.13573110   -0.67806149   -0.18138605
     atom  180 type  1   force =     0.63474817   -0.65314007    0.38826801
     atom  181 type  1   force =    -0.14213244   -0.18715544   -0.66898941
     atom  182 type  1   force =     0.63688052    0.36419118   -0.65212994
     atom  183 type  1   force =    -0.18138517   -0.67806299   -0.13573311
     atom  184 type  1   force =     0.38825667   -0.65313295    0.63473828
     atom  185 type  1   force =    -0.17452154   -0.18696439    0.65088465
     atom  186 type  1   force =     0.00226715   -0.00146237    0.38884275
     atom  187 type  1   force =     0.14911621   -0.24007449    0.21867854
     atom  188 type  1   force =     0.12855710   -0.12350522    0.17031915
     atom  189 type  1   force =     1.96393737   -2.04142999    1.96392594
     atom  190 type  1   force =     0.67124586   -0.48902277    0.67124551
     atom  191 type  1   force =    -0.07361729    0.05461040    0.15679357
     atom  192 type  1   force =    -0.01447760    0.06298060    0.02400289
     atom  193 type  1   force =     0.01988756    0.12117207   -0.11323465
     atom  194 type  1   force =     0.04687589    0.13512677   -0.09791330
     atom  195 type  1   force =     0.04211089    0.04577706   -0.12905953
     atom  196 type  1   force =     0.10925600    0.11725986   -0.14487911
     atom  197 type  1   force =     0.01769718    0.12963117    0.11004080
     atom  198 type  1   force =     0.02141776    0.07063765    0.01373177
     atom  199 type  1   force =    -0.18285612   -0.13309515   -0.66898401
     atom  200 type  1   force =     0.37188508    0.63986983   -0.63213655
     atom  201 type  1   force =    -0.17854685    0.64758760   -0.17852974
     atom  202 type  1   force =    -0.00028137    0.39058948   -0.00026917
     atom  203 type  1   force =     1.95293428    1.98900537   -2.02353227
     atom  204 type  1   force =     0.65144243    0.67409858   -0.47972377
     atom  205 type  1   force =     0.14770807    0.22917990   -0.23522646
     atom  206 type  1   force =     0.12524899    0.17620491   -0.11684662
     atom  207 type  1   force =    -2.02351695    1.98899087    1.95295061
     atom  208 type  1   force =    -0.47971648    0.67409930    0.65144887
     atom  209 type  1   force =    -0.10908136    0.21470139    0.20590121
     atom  210 type  1   force =    -0.09581832    0.11108932    0.10459343
     atom  211 type  1   force =     0.17670987    0.17616539    0.73435694
     atom  212 type  1   force =     0.10760507    0.11172652    0.21848715
     atom  213 type  1   force =     0.17176775    0.73086756    0.17177342
     atom  214 type  1   force =     0.10258933    0.22135281    0.10260332
     atom  215 type  2   force =    -2.32614351   -2.33594919   -2.32615125
     The core correction contribution to forces
     atom    1 type  1   force =     0.00000000    0.00000000    0.00000000
     atom    2 type  1   force =     0.00000000    0.00000000    0.00000000
     atom    3 type  1   force =     0.00000000    0.00000000    0.00000000
     atom    4 type  1   force =     0.00000000    0.00000000    0.00000000
     atom    5 type  1   force =     0.00000000    0.00000000    0.00000000
     atom    6 type  1   force =     0.00000000    0.00000000    0.00000000
     atom    7 type  1   force =     0.00000000    0.00000000    0.00000000
     atom    8 type  1   force =     0.00000000    0.00000000    0.00000000
     atom    9 type  1   force =     0.00000000    0.00000000    0.00000000
     atom   10 type  1   force =     0.00000000    0.00000000    0.00000000
     atom   11 type  1   force =     0.00000000    0.00000000    0.00000000
     atom   12 type  1   force =     0.00000000    0.00000000    0.00000000
     atom   13 type  1   force =     0.00000000    0.00000000    0.00000000
     atom   14 type  1   force =     0.00000000    0.00000000    0.00000000
     atom   15 type  1   force =     0.00000000    0.00000000    0.00000000
     atom   16 type  1   force =     0.00000000    0.00000000    0.00000000
     atom   17 type  1   force =     0.00000000    0.00000000    0.00000000
     atom   18 type  1   force =     0.00000000    0.00000000    0.00000000
     atom   19 type  1   force =     0.00000000    0.00000000    0.00000000
     atom   20 type  1   force =     0.00000000    0.00000000    0.00000000
     atom   21 type  1   force =     0.00000000    0.00000000    0.00000000
     atom   22 type  1   force =     0.00000000    0.00000000    0.00000000
     atom   23 type  1   force =     0.00000000    0.00000000    0.00000000
     atom   24 type  1   force =     0.00000000    0.00000000    0.00000000
     atom   25 type  1   force =     0.00000000    0.00000000    0.00000000
     atom   26 type  1   force =     0.00000000    0.00000000    0.00000000
     atom   27 type  1   force =     0.00000000    0.00000000    0.00000000
     atom   28 type  1   force =     0.00000000    0.00000000    0.00000000
     atom   29 type  1   force =     0.00000000    0.00000000    0.00000000
     atom   30 type  1   force =     0.00000000    0.00000000    0.00000000
     atom   31 type  1   force =     0.00000000    0.00000000    0.00000000
     atom   32 type  1   force =     0.00000000    0.00000000    0.00000000
     atom   33 type  1   force =     0.00000000    0.00000000    0.00000000
     atom   34 type  1   force =     0.00000000    0.00000000    0.00000000
     atom   35 type  1   force =     0.00000000    0.00000000    0.00000000
     atom   36 type  1   force =     0.00000000    0.00000000    0.00000000
     atom   37 type  1   force =     0.00000000    0.00000000    0.00000000
     atom   38 type  1   force =     0.00000000    0.00000000    0.00000000
     atom   39 type  1   force =     0.00000000    0.00000000    0.00000000
     atom   40 type  1   force =     0.00000000    0.00000000    0.00000000
     atom   41 type  1   force =     0.00000000    0.00000000    0.00000000
     atom   42 type  1   force =     0.00000000    0.00000000    0.00000000
     atom   43 type  1   force =     0.00000000    0.00000000    0.00000000
     atom   44 type  1   force =     0.00000000    0.00000000    0.00000000
     atom   45 type  1   force =     0.00000000    0.00000000    0.00000000
     atom   46 type  1   force =     0.00000000    0.00000000    0.00000000
     atom   47 type  1   force =     0.00000000    0.00000000    0.00000000
     atom   48 type  1   force =     0.00000000    0.00000000    0.00000000
     atom   49 type  1   force =     0.00000000    0.00000000    0.00000000
     atom   50 type  1   force =     0.00000000    0.00000000    0.00000000
     atom   51 type  1   force =     0.00000000    0.00000000    0.00000000
     atom   52 type  1   force =     0.00000000    0.00000000    0.00000000
     atom   53 type  1   force =     0.00000000    0.00000000    0.00000000
     atom   54 type  1   force =     0.00000000    0.00000000    0.00000000
     atom   55 type  1   force =     0.00000000    0.00000000    0.00000000
     atom   56 type  1   force =     0.00000000    0.00000000    0.00000000
     atom   57 type  1   force =     0.00000000    0.00000000    0.00000000
     atom   58 type  1   force =     0.00000000    0.00000000    0.00000000
     atom   59 type  1   force =     0.00000000    0.00000000    0.00000000
     atom   60 type  1   force =     0.00000000    0.00000000    0.00000000
     atom   61 type  1   force =     0.00000000    0.00000000    0.00000000
     atom   62 type  1   force =     0.00000000    0.00000000    0.00000000
     atom   63 type  1   force =     0.00000000    0.00000000    0.00000000
     atom   64 type  1   force =     0.00000000    0.00000000    0.00000000
     atom   65 type  1   force =     0.00000000    0.00000000    0.00000000
     atom   66 type  1   force =     0.00000000    0.00000000    0.00000000
     atom   67 type  1   force =     0.00000000    0.00000000    0.00000000
     atom   68 type  1   force =     0.00000000    0.00000000    0.00000000
     atom   69 type  1   force =     0.00000000    0.00000000    0.00000000
     atom   70 type  1   force =     0.00000000    0.00000000    0.00000000
     atom   71 type  1   force =     0.00000000    0.00000000    0.00000000
     atom   72 type  1   force =     0.00000000    0.00000000    0.00000000
     atom   73 type  1   force =     0.00000000    0.00000000    0.00000000
     atom   74 type  1   force =     0.00000000    0.00000000    0.00000000
     atom   75 type  1   force =     0.00000000    0.00000000    0.00000000
     atom   76 type  1   force =     0.00000000    0.00000000    0.00000000
     atom   77 type  1   force =     0.00000000    0.00000000    0.00000000
     atom   78 type  1   force =     0.00000000    0.00000000    0.00000000
     atom   79 type  1   force =     0.00000000    0.00000000    0.00000000
     atom   80 type  1   force =     0.00000000    0.00000000    0.00000000
     atom   81 type  1   force =     0.00000000    0.00000000    0.00000000
     atom   82 type  1   force =     0.00000000    0.00000000    0.00000000
     atom   83 type  1   force =     0.00000000    0.00000000    0.00000000
     atom   84 type  1   force =     0.00000000    0.00000000    0.00000000
     atom   85 type  1   force =     0.00000000    0.00000000    0.00000000
     atom   86 type  1   force =     0.00000000    0.00000000    0.00000000
     atom   87 type  1   force =     0.00000000    0.00000000    0.00000000
     atom   88 type  1   force =     0.00000000    0.00000000    0.00000000
     atom   89 type  1   force =     0.00000000    0.00000000    0.00000000
     atom   90 type  1   force =     0.00000000    0.00000000    0.00000000
     atom   91 type  1   force =     0.00000000    0.00000000    0.00000000
     atom   92 type  1   force =     0.00000000    0.00000000    0.00000000
     atom   93 type  1   force =     0.00000000    0.00000000    0.00000000
     atom   94 type  1   force =     0.00000000    0.00000000    0.00000000
     atom   95 type  1   force =     0.00000000    0.00000000    0.00000000
     atom   96 type  1   force =     0.00000000    0.00000000    0.00000000
     atom   97 type  1   force =     0.00000000    0.00000000    0.00000000
     atom   98 type  1   force =     0.00000000    0.00000000    0.00000000
     atom   99 type  1   force =     0.00000000    0.00000000    0.00000000
     atom  100 type  1   force =     0.00000000    0.00000000    0.00000000
     atom  101 type  1   force =     0.00000000    0.00000000    0.00000000
     atom  102 type  1   force =     0.00000000    0.00000000    0.00000000
     atom  103 type  1   force =     0.00000000    0.00000000    0.00000000
     atom  104 type  1   force =     0.00000000    0.00000000    0.00000000
     atom  105 type  1   force =     0.00000000    0.00000000    0.00000000
     atom  106 type  1   force =     0.00000000    0.00000000    0.00000000
     atom  107 type  1   force =     0.00000000    0.00000000    0.00000000
     atom  108 type  1   force =     0.00000000    0.00000000    0.00000000
     atom  109 type  1   force =     0.00000000    0.00000000    0.00000000
     atom  110 type  1   force =     0.00000000    0.00000000    0.00000000
     atom  111 type  1   force =     0.00000000    0.00000000    0.00000000
     atom  112 type  1   force =     0.00000000    0.00000000    0.00000000
     atom  113 type  1   force =     0.00000000    0.00000000    0.00000000
     atom  114 type  1   force =     0.00000000    0.00000000    0.00000000
     atom  115 type  1   force =     0.00000000    0.00000000    0.00000000
     atom  116 type  1   force =     0.00000000    0.00000000    0.00000000
     atom  117 type  1   force =     0.00000000    0.00000000    0.00000000
     atom  118 type  1   force =     0.00000000    0.00000000    0.00000000
     atom  119 type  1   force =     0.00000000    0.00000000    0.00000000
     atom  120 type  1   force =     0.00000000    0.00000000    0.00000000
     atom  121 type  1   force =     0.00000000    0.00000000    0.00000000
     atom  122 type  1   force =     0.00000000    0.00000000    0.00000000
     atom  123 type  1   force =     0.00000000    0.00000000    0.00000000
     atom  124 type  1   force =     0.00000000    0.00000000    0.00000000
     atom  125 type  1   force =     0.00000000    0.00000000    0.00000000
     atom  126 type  1   force =     0.00000000    0.00000000    0.00000000
     atom  127 type  1   force =     0.00000000    0.00000000    0.00000000
     atom  128 type  1   force =     0.00000000    0.00000000    0.00000000
     atom  129 type  1   force =     0.00000000    0.00000000    0.00000000
     atom  130 type  1   force =     0.00000000    0.00000000    0.00000000
     atom  131 type  1   force =     0.00000000    0.00000000    0.00000000
     atom  132 type  1   force =     0.00000000    0.00000000    0.00000000
     atom  133 type  1   force =     0.00000000    0.00000000    0.00000000
     atom  134 type  1   force =     0.00000000    0.00000000    0.00000000
     atom  135 type  1   force =     0.00000000    0.00000000    0.00000000
     atom  136 type  1   force =     0.00000000    0.00000000    0.00000000
     atom  137 type  1   force =     0.00000000    0.00000000    0.00000000
     atom  138 type  1   force =     0.00000000    0.00000000    0.00000000
     atom  139 type  1   force =     0.00000000    0.00000000    0.00000000
     atom  140 type  1   force =     0.00000000    0.00000000    0.00000000
     atom  141 type  1   force =     0.00000000    0.00000000    0.00000000
     atom  142 type  1   force =     0.00000000    0.00000000    0.00000000
     atom  143 type  1   force =     0.00000000    0.00000000    0.00000000
     atom  144 type  1   force =     0.00000000    0.00000000    0.00000000
     atom  145 type  1   force =     0.00000000    0.00000000    0.00000000
     atom  146 type  1   force =     0.00000000    0.00000000    0.00000000
     atom  147 type  1   force =     0.00000000    0.00000000    0.00000000
     atom  148 type  1   force =     0.00000000    0.00000000    0.00000000
     atom  149 type  1   force =     0.00000000    0.00000000    0.00000000
     atom  150 type  1   force =     0.00000000    0.00000000    0.00000000
     atom  151 type  1   force =     0.00000000    0.00000000    0.00000000
     atom  152 type  1   force =     0.00000000    0.00000000    0.00000000
     atom  153 type  1   force =     0.00000000    0.00000000    0.00000000
     atom  154 type  1   force =     0.00000000    0.00000000    0.00000000
     atom  155 type  1   force =     0.00000000    0.00000000    0.00000000
     atom  156 type  1   force =     0.00000000    0.00000000    0.00000000
     atom  157 type  1   force =     0.00000000    0.00000000    0.00000000
     atom  158 type  1   force =     0.00000000    0.00000000    0.00000000
     atom  159 type  1   force =     0.00000000    0.00000000    0.00000000
     atom  160 type  1   force =     0.00000000    0.00000000    0.00000000
     atom  161 type  1   force =     0.00000000    0.00000000    0.00000000
     atom  162 type  1   force =     0.00000000    0.00000000    0.00000000
     atom  163 type  1   force =     0.00000000    0.00000000    0.00000000
     atom  164 type  1   force =     0.00000000    0.00000000    0.00000000
     atom  165 type  1   force =     0.00000000    0.00000000    0.00000000
     atom  166 type  1   force =     0.00000000    0.00000000    0.00000000
     atom  167 type  1   force =     0.00000000    0.00000000    0.00000000
     atom  168 type  1   force =     0.00000000    0.00000000    0.00000000
     atom  169 type  1   force =     0.00000000    0.00000000    0.00000000
     atom  170 type  1   force =     0.00000000    0.00000000    0.00000000
     atom  171 type  1   force =     0.00000000    0.00000000    0.00000000
     atom  172 type  1   force =     0.00000000    0.00000000    0.00000000
     atom  173 type  1   force =     0.00000000    0.00000000    0.00000000
     atom  174 type  1   force =     0.00000000    0.00000000    0.00000000
     atom  175 type  1   force =     0.00000000    0.00000000    0.00000000
     atom  176 type  1   force =     0.00000000    0.00000000    0.00000000
     atom  177 type  1   force =     0.00000000    0.00000000    0.00000000
     atom  178 type  1   force =     0.00000000    0.00000000    0.00000000
     atom  179 type  1   force =     0.00000000    0.00000000    0.00000000
     atom  180 type  1   force =     0.00000000    0.00000000    0.00000000
     atom  181 type  1   force =     0.00000000    0.00000000    0.00000000
     atom  182 type  1   force =     0.00000000    0.00000000    0.00000000
     atom  183 type  1   force =     0.00000000    0.00000000    0.00000000
     atom  184 type  1   force =     0.00000000    0.00000000    0.00000000
     atom  185 type  1   force =     0.00000000    0.00000000    0.00000000
     atom  186 type  1   force =     0.00000000    0.00000000    0.00000000
     atom  187 type  1   force =     0.00000000    0.00000000    0.00000000
     atom  188 type  1   force =     0.00000000    0.00000000    0.00000000
     atom  189 type  1   force =     0.00000000    0.00000000    0.00000000
     atom  190 type  1   force =     0.00000000    0.00000000    0.00000000
     atom  191 type  1   force =     0.00000000    0.00000000    0.00000000
     atom  192 type  1   force =     0.00000000    0.00000000    0.00000000
     atom  193 type  1   force =     0.00000000    0.00000000    0.00000000
     atom  194 type  1   force =     0.00000000    0.00000000    0.00000000
     atom  195 type  1   force =     0.00000000    0.00000000    0.00000000
     atom  196 type  1   force =     0.00000000    0.00000000    0.00000000
     atom  197 type  1   force =     0.00000000    0.00000000    0.00000000
     atom  198 type  1   force =     0.00000000    0.00000000    0.00000000
     atom  199 type  1   force =     0.00000000    0.00000000    0.00000000
     atom  200 type  1   force =     0.00000000    0.00000000    0.00000000
     atom  201 type  1   force =     0.00000000    0.00000000    0.00000000
     atom  202 type  1   force =     0.00000000    0.00000000    0.00000000
     atom  203 type  1   force =     0.00000000    0.00000000    0.00000000
     atom  204 type  1   force =     0.00000000    0.00000000    0.00000000
     atom  205 type  1   force =     0.00000000    0.00000000    0.00000000
     atom  206 type  1   force =     0.00000000    0.00000000    0.00000000
     atom  207 type  1   force =     0.00000000    0.00000000    0.00000000
     atom  208 type  1   force =     0.00000000    0.00000000    0.00000000
     atom  209 type  1   force =     0.00000000    0.00000000    0.00000000
     atom  210 type  1   force =     0.00000000    0.00000000    0.00000000
     atom  211 type  1   force =     0.00000000    0.00000000    0.00000000
     atom  212 type  1   force =     0.00000000    0.00000000    0.00000000
     atom  213 type  1   force =     0.00000000    0.00000000    0.00000000
     atom  214 type  1   force =     0.00000000    0.00000000    0.00000000
     atom  215 type  2   force =     0.00000000    0.00000000    0.00000000
     The Hubbard contrib.    to forces
     atom    1 type  1   force =     0.00000000    0.00000000    0.00000000
     atom    2 type  1   force =     0.00000000    0.00000000    0.00000000
     atom    3 type  1   force =     0.00000000    0.00000000    0.00000000
     atom    4 type  1   force =     0.00000000    0.00000000    0.00000000
     atom    5 type  1   force =     0.00000000    0.00000000    0.00000000
     atom    6 type  1   force =     0.00000000    0.00000000    0.00000000
     atom    7 type  1   force =     0.00000000    0.00000000    0.00000000
     atom    8 type  1   force =     0.00000000    0.00000000    0.00000000
     atom    9 type  1   force =     0.00000000    0.00000000    0.00000000
     atom   10 type  1   force =     0.00000000    0.00000000    0.00000000
     atom   11 type  1   force =     0.00000000    0.00000000    0.00000000
     atom   12 type  1   force =     0.00000000    0.00000000    0.00000000
     atom   13 type  1   force =     0.00000000    0.00000000    0.00000000
     atom   14 type  1   force =     0.00000000    0.00000000    0.00000000
     atom   15 type  1   force =     0.00000000    0.00000000    0.00000000
     atom   16 type  1   force =     0.00000000    0.00000000    0.00000000
     atom   17 type  1   force =     0.00000000    0.00000000    0.00000000
     atom   18 type  1   force =     0.00000000    0.00000000    0.00000000
     atom   19 type  1   force =     0.00000000    0.00000000    0.00000000
     atom   20 type  1   force =     0.00000000    0.00000000    0.00000000
     atom   21 type  1   force =     0.00000000    0.00000000    0.00000000
     atom   22 type  1   force =     0.00000000    0.00000000    0.00000000
     atom   23 type  1   force =     0.00000000    0.00000000    0.00000000
     atom   24 type  1   force =     0.00000000    0.00000000    0.00000000
     atom   25 type  1   force =     0.00000000    0.00000000    0.00000000
     atom   26 type  1   force =     0.00000000    0.00000000    0.00000000
     atom   27 type  1   force =     0.00000000    0.00000000    0.00000000
     atom   28 type  1   force =     0.00000000    0.00000000    0.00000000
     atom   29 type  1   force =     0.00000000    0.00000000    0.00000000
     atom   30 type  1   force =     0.00000000    0.00000000    0.00000000
     atom   31 type  1   force =     0.00000000    0.00000000    0.00000000
     atom   32 type  1   force =     0.00000000    0.00000000    0.00000000
     atom   33 type  1   force =     0.00000000    0.00000000    0.00000000
     atom   34 type  1   force =     0.00000000    0.00000000    0.00000000
     atom   35 type  1   force =     0.00000000    0.00000000    0.00000000
     atom   36 type  1   force =     0.00000000    0.00000000    0.00000000
     atom   37 type  1   force =     0.00000000    0.00000000    0.00000000
     atom   38 type  1   force =     0.00000000    0.00000000    0.00000000
     atom   39 type  1   force =     0.00000000    0.00000000    0.00000000
     atom   40 type  1   force =     0.00000000    0.00000000    0.00000000
     atom   41 type  1   force =     0.00000000    0.00000000    0.00000000
     atom   42 type  1   force =     0.00000000    0.00000000    0.00000000
     atom   43 type  1   force =     0.00000000    0.00000000    0.00000000
     atom   44 type  1   force =     0.00000000    0.00000000    0.00000000
     atom   45 type  1   force =     0.00000000    0.00000000    0.00000000
     atom   46 type  1   force =     0.00000000    0.00000000    0.00000000
     atom   47 type  1   force =     0.00000000    0.00000000    0.00000000
     atom   48 type  1   force =     0.00000000    0.00000000    0.00000000
     atom   49 type  1   force =     0.00000000    0.00000000    0.00000000
     atom   50 type  1   force =     0.00000000    0.00000000    0.00000000
     atom   51 type  1   force =     0.00000000    0.00000000    0.00000000
     atom   52 type  1   force =     0.00000000    0.00000000    0.00000000
     atom   53 type  1   force =     0.00000000    0.00000000    0.00000000
     atom   54 type  1   force =     0.00000000    0.00000000    0.00000000
     atom   55 type  1   force =     0.00000000    0.00000000    0.00000000
     atom   56 type  1   force =     0.00000000    0.00000000    0.00000000
     atom   57 type  1   force =     0.00000000    0.00000000    0.00000000
     atom   58 type  1   force =     0.00000000    0.00000000    0.00000000
     atom   59 type  1   force =     0.00000000    0.00000000    0.00000000
     atom   60 type  1   force =     0.00000000    0.00000000    0.00000000
     atom   61 type  1   force =     0.00000000    0.00000000    0.00000000
     atom   62 type  1   force =     0.00000000    0.00000000    0.00000000
     atom   63 type  1   force =     0.00000000    0.00000000    0.00000000
     atom   64 type  1   force =     0.00000000    0.00000000    0.00000000
     atom   65 type  1   force =     0.00000000    0.00000000    0.00000000
     atom   66 type  1   force =     0.00000000    0.00000000    0.00000000
     atom   67 type  1   force =     0.00000000    0.00000000    0.00000000
     atom   68 type  1   force =     0.00000000    0.00000000    0.00000000
     atom   69 type  1   force =     0.00000000    0.00000000    0.00000000
     atom   70 type  1   force =     0.00000000    0.00000000    0.00000000
     atom   71 type  1   force =     0.00000000    0.00000000    0.00000000
     atom   72 type  1   force =     0.00000000    0.00000000    0.00000000
     atom   73 type  1   force =     0.00000000    0.00000000    0.00000000
     atom   74 type  1   force =     0.00000000    0.00000000    0.00000000
     atom   75 type  1   force =     0.00000000    0.00000000    0.00000000
     atom   76 type  1   force =     0.00000000    0.00000000    0.00000000
     atom   77 type  1   force =     0.00000000    0.00000000    0.00000000
     atom   78 type  1   force =     0.00000000    0.00000000    0.00000000
     atom   79 type  1   force =     0.00000000    0.00000000    0.00000000
     atom   80 type  1   force =     0.00000000    0.00000000    0.00000000
     atom   81 type  1   force =     0.00000000    0.00000000    0.00000000
     atom   82 type  1   force =     0.00000000    0.00000000    0.00000000
     atom   83 type  1   force =     0.00000000    0.00000000    0.00000000
     atom   84 type  1   force =     0.00000000    0.00000000    0.00000000
     atom   85 type  1   force =     0.00000000    0.00000000    0.00000000
     atom   86 type  1   force =     0.00000000    0.00000000    0.00000000
     atom   87 type  1   force =     0.00000000    0.00000000    0.00000000
     atom   88 type  1   force =     0.00000000    0.00000000    0.00000000
     atom   89 type  1   force =     0.00000000    0.00000000    0.00000000
     atom   90 type  1   force =     0.00000000    0.00000000    0.00000000
     atom   91 type  1   force =     0.00000000    0.00000000    0.00000000
     atom   92 type  1   force =     0.00000000    0.00000000    0.00000000
     atom   93 type  1   force =     0.00000000    0.00000000    0.00000000
     atom   94 type  1   force =     0.00000000    0.00000000    0.00000000
     atom   95 type  1   force =     0.00000000    0.00000000    0.00000000
     atom   96 type  1   force =     0.00000000    0.00000000    0.00000000
     atom   97 type  1   force =     0.00000000    0.00000000    0.00000000
     atom   98 type  1   force =     0.00000000    0.00000000    0.00000000
     atom   99 type  1   force =     0.00000000    0.00000000    0.00000000
     atom  100 type  1   force =     0.00000000    0.00000000    0.00000000
     atom  101 type  1   force =     0.00000000    0.00000000    0.00000000
     atom  102 type  1   force =     0.00000000    0.00000000    0.00000000
     atom  103 type  1   force =     0.00000000    0.00000000    0.00000000
     atom  104 type  1   force =     0.00000000    0.00000000    0.00000000
     atom  105 type  1   force =     0.00000000    0.00000000    0.00000000
     atom  106 type  1   force =     0.00000000    0.00000000    0.00000000
     atom  107 type  1   force =     0.00000000    0.00000000    0.00000000
     atom  108 type  1   force =     0.00000000    0.00000000    0.00000000
     atom  109 type  1   force =     0.00000000    0.00000000    0.00000000
     atom  110 type  1   force =     0.00000000    0.00000000    0.00000000
     atom  111 type  1   force =     0.00000000    0.00000000    0.00000000
     atom  112 type  1   force =     0.00000000    0.00000000    0.00000000
     atom  113 type  1   force =     0.00000000    0.00000000    0.00000000
     atom  114 type  1   force =     0.00000000    0.00000000    0.00000000
     atom  115 type  1   force =     0.00000000    0.00000000    0.00000000
     atom  116 type  1   force =     0.00000000    0.00000000    0.00000000
     atom  117 type  1   force =     0.00000000    0.00000000    0.00000000
     atom  118 type  1   force =     0.00000000    0.00000000    0.00000000
     atom  119 type  1   force =     0.00000000    0.00000000    0.00000000
     atom  120 type  1   force =     0.00000000    0.00000000    0.00000000
     atom  121 type  1   force =     0.00000000    0.00000000    0.00000000
     atom  122 type  1   force =     0.00000000    0.00000000    0.00000000
     atom  123 type  1   force =     0.00000000    0.00000000    0.00000000
     atom  124 type  1   force =     0.00000000    0.00000000    0.00000000
     atom  125 type  1   force =     0.00000000    0.00000000    0.00000000
     atom  126 type  1   force =     0.00000000    0.00000000    0.00000000
     atom  127 type  1   force =     0.00000000    0.00000000    0.00000000
     atom  128 type  1   force =     0.00000000    0.00000000    0.00000000
     atom  129 type  1   force =     0.00000000    0.00000000    0.00000000
     atom  130 type  1   force =     0.00000000    0.00000000    0.00000000
     atom  131 type  1   force =     0.00000000    0.00000000    0.00000000
     atom  132 type  1   force =     0.00000000    0.00000000    0.00000000
     atom  133 type  1   force =     0.00000000    0.00000000    0.00000000
     atom  134 type  1   force =     0.00000000    0.00000000    0.00000000
     atom  135 type  1   force =     0.00000000    0.00000000    0.00000000
     atom  136 type  1   force =     0.00000000    0.00000000    0.00000000
     atom  137 type  1   force =     0.00000000    0.00000000    0.00000000
     atom  138 type  1   force =     0.00000000    0.00000000    0.00000000
     atom  139 type  1   force =     0.00000000    0.00000000    0.00000000
     atom  140 type  1   force =     0.00000000    0.00000000    0.00000000
     atom  141 type  1   force =     0.00000000    0.00000000    0.00000000
     atom  142 type  1   force =     0.00000000    0.00000000    0.00000000
     atom  143 type  1   force =     0.00000000    0.00000000    0.00000000
     atom  144 type  1   force =     0.00000000    0.00000000    0.00000000
     atom  145 type  1   force =     0.00000000    0.00000000    0.00000000
     atom  146 type  1   force =     0.00000000    0.00000000    0.00000000
     atom  147 type  1   force =     0.00000000    0.00000000    0.00000000
     atom  148 type  1   force =     0.00000000    0.00000000    0.00000000
     atom  149 type  1   force =     0.00000000    0.00000000    0.00000000
     atom  150 type  1   force =     0.00000000    0.00000000    0.00000000
     atom  151 type  1   force =     0.00000000    0.00000000    0.00000000
     atom  152 type  1   force =     0.00000000    0.00000000    0.00000000
     atom  153 type  1   force =     0.00000000    0.00000000    0.00000000
     atom  154 type  1   force =     0.00000000    0.00000000    0.00000000
     atom  155 type  1   force =     0.00000000    0.00000000    0.00000000
     atom  156 type  1   force =     0.00000000    0.00000000    0.00000000
     atom  157 type  1   force =     0.00000000    0.00000000    0.00000000
     atom  158 type  1   force =     0.00000000    0.00000000    0.00000000
     atom  159 type  1   force =     0.00000000    0.00000000    0.00000000
     atom  160 type  1   force =     0.00000000    0.00000000    0.00000000
     atom  161 type  1   force =     0.00000000    0.00000000    0.00000000
     atom  162 type  1   force =     0.00000000    0.00000000    0.00000000
     atom  163 type  1   force =     0.00000000    0.00000000    0.00000000
     atom  164 type  1   force =     0.00000000    0.00000000    0.00000000
     atom  165 type  1   force =     0.00000000    0.00000000    0.00000000
     atom  166 type  1   force =     0.00000000    0.00000000    0.00000000
     atom  167 type  1   force =     0.00000000    0.00000000    0.00000000
     atom  168 type  1   force =     0.00000000    0.00000000    0.00000000
     atom  169 type  1   force =     0.00000000    0.00000000    0.00000000
     atom  170 type  1   force =     0.00000000    0.00000000    0.00000000
     atom  171 type  1   force =     0.00000000    0.00000000    0.00000000
     atom  172 type  1   force =     0.00000000    0.00000000    0.00000000
     atom  173 type  1   force =     0.00000000    0.00000000    0.00000000
     atom  174 type  1   force =     0.00000000    0.00000000    0.00000000
     atom  175 type  1   force =     0.00000000    0.00000000    0.00000000
     atom  176 type  1   force =     0.00000000    0.00000000    0.00000000
     atom  177 type  1   force =     0.00000000    0.00000000    0.00000000
     atom  178 type  1   force =     0.00000000    0.00000000    0.00000000
     atom  179 type  1   force =     0.00000000    0.00000000    0.00000000
     atom  180 type  1   force =     0.00000000    0.00000000    0.00000000
     atom  181 type  1   force =     0.00000000    0.00000000    0.00000000
     atom  182 type  1   force =     0.00000000    0.00000000    0.00000000
     atom  183 type  1   force =     0.00000000    0.00000000    0.00000000
     atom  184 type  1   force =     0.00000000    0.00000000    0.00000000
     atom  185 type  1   force =     0.00000000    0.00000000    0.00000000
     atom  186 type  1   force =     0.00000000    0.00000000    0.00000000
     atom  187 type  1   force =     0.00000000    0.00000000    0.00000000
     atom  188 type  1   force =     0.00000000    0.00000000    0.00000000
     atom  189 type  1   force =     0.00000000    0.00000000    0.00000000
     atom  190 type  1   force =     0.00000000    0.00000000    0.00000000
     atom  191 type  1   force =     0.00000000    0.00000000    0.00000000
     atom  192 type  1   force =     0.00000000    0.00000000    0.00000000
     atom  193 type  1   force =     0.00000000    0.00000000    0.00000000
     atom  194 type  1   force =     0.00000000    0.00000000    0.00000000
     atom  195 type  1   force =     0.00000000    0.00000000    0.00000000
     atom  196 type  1   force =     0.00000000    0.00000000    0.00000000
     atom  197 type  1   force =     0.00000000    0.00000000    0.00000000
     atom  198 type  1   force =     0.00000000    0.00000000    0.00000000
     atom  199 type  1   force =     0.00000000    0.00000000    0.00000000
     atom  200 type  1   force =     0.00000000    0.00000000    0.00000000
     atom  201 type  1   force =     0.00000000    0.00000000    0.00000000
     atom  202 type  1   force =     0.00000000    0.00000000    0.00000000
     atom  203 type  1   force =     0.00000000    0.00000000    0.00000000
     atom  204 type  1   force =     0.00000000    0.00000000    0.00000000
     atom  205 type  1   force =     0.00000000    0.00000000    0.00000000
     atom  206 type  1   force =     0.00000000    0.00000000    0.00000000
     atom  207 type  1   force =     0.00000000    0.00000000    0.00000000
     atom  208 type  1   force =     0.00000000    0.00000000    0.00000000
     atom  209 type  1   force =     0.00000000    0.00000000    0.00000000
     atom  210 type  1   force =     0.00000000    0.00000000    0.00000000
     atom  211 type  1   force =     0.00000000    0.00000000    0.00000000
     atom  212 type  1   force =     0.00000000    0.00000000    0.00000000
     atom  213 type  1   force =     0.00000000    0.00000000    0.00000000
     atom  214 type  1   force =     0.00000000    0.00000000    0.00000000
     atom  215 type  2   force =     0.00000000    0.00000000    0.00000000
     The SCF correction term to forces
     atom    1 type  1   force =     0.00000091    0.00000147    0.00000031
     atom    2 type  1   force =     0.00000195    0.00000214    0.00000079
     atom    3 type  1   force =     0.00000183    0.00000162    0.00000039
     atom    4 type  1   force =     0.00000122    0.00000037   -0.00000030
     atom    5 type  1   force =     0.00000157    0.00000251    0.00000035
     atom    6 type  1   force =     0.00000063    0.00000178   -0.00000105
     atom    7 type  1   force =     0.00000145    0.00000155    0.00000140
     atom    8 type  1   force =     0.00000056   -0.00000036    0.00000051
     atom    9 type  1   force =     0.00000132    0.00000183   -0.00000022
     atom   10 type  1   force =     0.00000084    0.00000160   -0.00000141
     atom   11 type  1   force =     0.00000017    0.00000183   -0.00000100
     atom   12 type  1   force =    -0.00000008    0.00000128   -0.00000074
     atom   13 type  1   force =     0.00000025    0.00000131   -0.00000131
     atom   14 type  1   force =     0.00000004    0.00000138   -0.00000076
     atom   15 type  1   force =     0.00000069    0.00000106   -0.00000142
     atom   16 type  1   force =    -0.00000034    0.00000020   -0.00000155
     atom   17 type  1   force =     0.00000010    0.00000086   -0.00000005
     atom   18 type  1   force =     0.00000018    0.00000150    0.00000052
     atom   19 type  1   force =     0.00000057    0.00000150    0.00000058
     atom   20 type  1   force =     0.00000102    0.00000095    0.00000100
     atom   21 type  1   force =     0.00000038    0.00000146    0.00000091
     atom   22 type  1   force =     0.00000085    0.00000212    0.00000191
     atom   23 type  1   force =     0.00000009    0.00000140    0.00000006
     atom   24 type  1   force =     0.00000046    0.00000109    0.00000107
     atom   25 type  1   force =     0.00000108    0.00000002    0.00000026
     atom   26 type  1   force =     0.00000072   -0.00000198   -0.00000000
     atom   27 type  1   force =     0.00000025   -0.00000231    0.00000028
     atom   28 type  1   force =     0.00000028   -0.00000226    0.00000025
     atom   29 type  1   force =     0.00000067   -0.00000139   -0.00000013
     atom   30 type  1   force =    -0.00000028   -0.00000216   -0.00000050
     atom   31 type  1   force =     0.00000003   -0.00000237   -0.00000004
     atom   32 type  1   force =     0.00000005   -0.00000199   -0.00000003
     atom   33 type  1   force =     0.00000023   -0.00000011   -0.00000002
     atom   34 type  1   force =    -0.00000039   -0.00000141   -0.00000049
     atom   35 type  1   force =    -0.00000019   -0.00000216   -0.00000014
     atom   36 type  1   force =     0.00000003   -0.00000185    0.00000016
     atom   37 type  1   force =    -0.00000038   -0.00000010   -0.00000090
     atom   38 type  1   force =     0.00000023   -0.00000062   -0.00000016
     atom   39 type  1   force =    -0.00000016   -0.00000217   -0.00000017
     atom   40 type  1   force =     0.00000043   -0.00000156   -0.00000001
     atom   41 type  1   force =    -0.00000014    0.00000064   -0.00000036
     atom   42 type  1   force =     0.00000003   -0.00000035    0.00000040
     atom   43 type  1   force =    -0.00000001   -0.00000110    0.00000000
     atom   44 type  1   force =    -0.00000036   -0.00000186   -0.00000040
     atom   45 type  1   force =     0.00000033    0.00000003    0.00000109
     atom   46 type  1   force =     0.00000008   -0.00000197    0.00000067
     atom   47 type  1   force =    -0.00000032   -0.00000136    0.00000018
     atom   48 type  1   force =    -0.00000054   -0.00000200    0.00000006
     atom   49 type  1   force =     0.00000005   -0.00000147   -0.00000069
     atom   50 type  1   force =     0.00000031   -0.00000022   -0.00000011
     atom   51 type  1   force =     0.00000081    0.00000064   -0.00000013
     atom   52 type  1   force =     0.00000136    0.00000182   -0.00000001
     atom   53 type  1   force =     0.00000031   -0.00000110    0.00000000
     atom   54 type  1   force =     0.00000071    0.00000043    0.00000025
     atom   55 type  1   force =     0.00000042    0.00000075    0.00000034
     atom   56 type  1   force =     0.00000093    0.00000245    0.00000085
     atom   57 type  1   force =     0.00000062   -0.00000180   -0.00000003
     atom   58 type  1   force =     0.00000093   -0.00000027    0.00000009
     atom   59 type  1   force =     0.00000080    0.00000049    0.00000019
     atom   60 type  1   force =     0.00000003    0.00000054   -0.00000033
     atom   61 type  1   force =     0.00000015   -0.00000121   -0.00000009
     atom   62 type  1   force =    -0.00000033   -0.00000074   -0.00000060
     atom   63 type  1   force =     0.00000082    0.00000116   -0.00000024
     atom   64 type  1   force =     0.00000032    0.00000136   -0.00000150
     atom   65 type  1   force =    -0.00000013   -0.00000160    0.00000057
     atom   66 type  1   force =    -0.00000029   -0.00000091    0.00000020
     atom   67 type  1   force =    -0.00000003   -0.00000033   -0.00000003
     atom   68 type  1   force =     0.00000045    0.00000092    0.00000039
     atom   69 type  1   force =    -0.00000060   -0.00000146    0.00000004
     atom   70 type  1   force =    -0.00000002   -0.00000021    0.00000025
     atom   71 type  1   force =    -0.00000037   -0.00000008   -0.00000007
     atom   72 type  1   force =     0.00000003    0.00000080    0.00000058
     atom   73 type  1   force =     0.00000042    0.00000249    0.00000151
     atom   74 type  1   force =    -0.00000102    0.00000178    0.00000056
     atom   75 type  1   force =    -0.00000050    0.00000053   -0.00000056
     atom   76 type  1   force =    -0.00000121   -0.00000057   -0.00000123
     atom   77 type  1   force =    -0.00000153    0.00000170   -0.00000010
     atom   78 type  1   force =    -0.00000169    0.00000095   -0.00000053
     atom   79 type  1   force =    -0.00000143    0.00000105    0.00000064
     atom   80 type  1   force =    -0.00000160    0.00000019   -0.00000041
     atom   81 type  1   force =    -0.00000003    0.00000170   -0.00000151
     atom   82 type  1   force =    -0.00000050    0.00000095   -0.00000164
     atom   83 type  1   force =     0.00000011    0.00000125   -0.00000120
     atom   84 type  1   force =     0.00000083    0.00000152   -0.00000014
     atom   85 type  1   force =    -0.00000033    0.00000099   -0.00000117
     atom   86 type  1   force =    -0.00000004    0.00000190   -0.00000024
     atom   87 type  1   force =    -0.00000106    0.00000056   -0.00000103
     atom   88 type  1   force =    -0.00000008    0.00000133   -0.00000001
     atom   89 type  1   force =     0.00000008    0.00000134    0.00000003
     atom   90 type  1   force =     0.00000030    0.00000192    0.00000112
     atom   91 type  1   force =     0.00000046    0.00000162    0.00000181
     atom   92 type  1   force =    -0.00000026    0.00000038    0.00000117
     atom   93 type  1   force =    -0.00000023    0.00000179    0.00000130
     atom   94 type  1   force =    -0.00000144    0.00000159    0.00000080
     atom   95 type  1   force =     0.00000020    0.00000223    0.00000024
     atom   96 type  1   force =    -0.00000046    0.00000154    0.00000024
     atom   97 type  1   force =    -0.00000008   -0.00000138    0.00000061
     atom   98 type  1   force =    -0.00000048   -0.00000216   -0.00000035
     atom   99 type  1   force =     0.00000012   -0.00000223    0.00000007
     atom  100 type  1   force =     0.00000076   -0.00000139    0.00000074
     atom  101 type  1   force =    -0.00000104   -0.00000098   -0.00000059
     atom  102 type  1   force =    -0.00000015   -0.00000072    0.00000057
     atom  103 type  1   force =    -0.00000018   -0.00000214   -0.00000027
     atom  104 type  1   force =    -0.00000007   -0.00000155    0.00000033
     atom  105 type  1   force =    -0.00000054   -0.00000097   -0.00000101
     atom  106 type  1   force =     0.00000060   -0.00000071   -0.00000009
     atom  107 type  1   force =     0.00000036   -0.00000129   -0.00000016
     atom  108 type  1   force =     0.00000010   -0.00000205   -0.00000064
     atom  109 type  1   force =    -0.00000018   -0.00000023    0.00000010
     atom  110 type  1   force =    -0.00000070   -0.00000173    0.00000048
     atom  111 type  1   force =    -0.00000034   -0.00000108   -0.00000031
     atom  112 type  1   force =    -0.00000117   -0.00000119   -0.00000110
     atom  113 type  1   force =     0.00000094    0.00000023    0.00000027
     atom  114 type  1   force =     0.00000073   -0.00000134    0.00000025
     atom  115 type  1   force =     0.00000035   -0.00000229    0.00000023
     atom  116 type  1   force =     0.00000029   -0.00000224    0.00000021
     atom  117 type  1   force =    -0.00000002   -0.00000009    0.00000020
     atom  118 type  1   force =    -0.00000053   -0.00000139   -0.00000047
     atom  119 type  1   force =    -0.00000022   -0.00000218    0.00000055
     atom  120 type  1   force =    -0.00000014   -0.00000303    0.00000035
     atom  121 type  1   force =     0.00000008   -0.00000109    0.00000021
     atom  122 type  1   force =     0.00000029    0.00000043    0.00000062
     atom  123 type  1   force =     0.00000051    0.00000176    0.00000044
     atom  124 type  1   force =    -0.00000036    0.00000176   -0.00000038
     atom  125 type  1   force =     0.00000005   -0.00000085    0.00000094
     atom  126 type  1   force =    -0.00000093   -0.00000045    0.00000050
     atom  127 type  1   force =    -0.00000025    0.00000115    0.00000073
     atom  128 type  1   force =    -0.00000155    0.00000136    0.00000022
     atom  129 type  1   force =     0.00000100   -0.00000086    0.00000008
     atom  130 type  1   force =     0.00000052   -0.00000045   -0.00000086
     atom  131 type  1   force =     0.00000039    0.00000018   -0.00000128
     atom  132 type  1   force =     0.00000017    0.00000087   -0.00000100
     atom  133 type  1   force =    -0.00000060   -0.00000082   -0.00000099
     atom  134 type  1   force =    -0.00000071   -0.00000056   -0.00000135
     atom  135 type  1   force =    -0.00000037    0.00000025   -0.00000035
     atom  136 type  1   force =    -0.00000101    0.00000046   -0.00000094
     atom  137 type  1   force =    -0.00000011   -0.00000162   -0.00000036
     atom  138 type  1   force =    -0.00000025   -0.00000048    0.00000037
     atom  139 type  1   force =    -0.00000005    0.00000062    0.00000080
     atom  140 type  1   force =     0.00000002    0.00000178    0.00000130
     atom  141 type  1   force =    -0.00000001   -0.00000179    0.00000059
     atom  142 type  1   force =     0.00000005   -0.00000027    0.00000083
     atom  143 type  1   force =    -0.00000022    0.00000047   -0.00000043
     atom  144 type  1   force =    -0.00000002    0.00000146    0.00000065
     atom  145 type  1   force =    -0.00000136    0.00000129    0.00000018
     atom  146 type  1   force =    -0.00000081    0.00000137   -0.00000005
     atom  147 type  1   force =    -0.00000125    0.00000124    0.00000004
     atom  148 type  1   force =    -0.00000019    0.00000150    0.00000080
     atom  149 type  1   force =    -0.00000002    0.00000135   -0.00000001
     atom  150 type  1   force =     0.00000110    0.00000194    0.00000028
     atom  151 type  1   force =     0.00000001    0.00000140    0.00000002
     atom  152 type  1   force =     0.00000104    0.00000108    0.00000037
     atom  153 type  1   force =    -0.00000125    0.00000099   -0.00000032
     atom  154 type  1   force =    -0.00000030    0.00000191    0.00000000
     atom  155 type  1   force =    -0.00000015    0.00000177   -0.00000007
     atom  156 type  1   force =    -0.00000041    0.00000134   -0.00000033
     atom  157 type  1   force =     0.00000008    0.00000154   -0.00000014
     atom  158 type  1   force =     0.00000001    0.00000135   -0.00000050
     atom  159 type  1   force =     0.00000020    0.00000223    0.00000021
     atom  160 type  1   force =     0.00000021    0.00000152   -0.00000043
     atom  161 type  1   force =    -0.00000022    0.00000151    0.00000013
     atom  162 type  1   force =    -0.00000057    0.00000135    0.00000005
     atom  163 type  1   force =    -0.00000105    0.00000184    0.00000016
     atom  164 type  1   force =    -0.00000080    0.00000128   -0.00000013
     atom  165 type  1   force =    -0.00000012    0.00000084    0.00000011
     atom  166 type  1   force =     0.00000048    0.00000151    0.00000015
     atom  167 type  1   force =    -0.00000036    0.00000173   -0.00000030
     atom  168 type  1   force =     0.00000007    0.00000130    0.00000012
     atom  169 type  1   force =    -0.00000094   -0.00000009   -0.00000047
     atom  170 type  1   force =    -0.00000022   -0.00000063    0.00000014
     atom  171 type  1   force =    -0.00000022   -0.00000130    0.00000029
     atom  172 type  1   force =    -0.00000072   -0.00000206    0.00000006
     atom  173 type  1   force =     0.00000022    0.00000021    0.00000086
     atom  174 type  1   force =     0.00000022   -0.00000136    0.00000070
     atom  175 type  1   force =     0.00000013   -0.00000138   -0.00000041
     atom  176 type  1   force =     0.00000003   -0.00000200   -0.00000063
     atom  177 type  1   force =     0.00000003   -0.00000024   -0.00000017
     atom  178 type  1   force =     0.00000040   -0.00000174   -0.00000065
     atom  179 type  1   force =     0.00000053   -0.00000003   -0.00000023
     atom  180 type  1   force =    -0.00000024   -0.00000068   -0.00000026
     atom  181 type  1   force =     0.00000048   -0.00000222   -0.00000023
     atom  182 type  1   force =     0.00000034   -0.00000309   -0.00000012
     atom  183 type  1   force =    -0.00000030   -0.00000001    0.00000060
     atom  184 type  1   force =    -0.00000035   -0.00000066   -0.00000020
     atom  185 type  1   force =    -0.00000021   -0.00000213   -0.00000023
     atom  186 type  1   force =     0.00000007   -0.00000184   -0.00000006
     atom  187 type  1   force =    -0.00000043    0.00000065   -0.00000014
     atom  188 type  1   force =     0.00000036   -0.00000036   -0.00000002
     atom  189 type  1   force =    -0.00000008   -0.00000122    0.00000003
     atom  190 type  1   force =    -0.00000004   -0.00000193    0.00000002
     atom  191 type  1   force =    -0.00000018   -0.00000119    0.00000003
     atom  192 type  1   force =    -0.00000067   -0.00000073   -0.00000044
     atom  193 type  1   force =    -0.00000136    0.00000020    0.00000031
     atom  194 type  1   force =    -0.00000108    0.00000089    0.00000013
     atom  195 type  1   force =    -0.00000041   -0.00000162   -0.00000019
     atom  196 type  1   force =     0.00000034   -0.00000048   -0.00000032
     atom  197 type  1   force =    -0.00000015   -0.00000007   -0.00000047
     atom  198 type  1   force =     0.00000054    0.00000082   -0.00000007
     atom  199 type  1   force =    -0.00000110   -0.00000082   -0.00000059
     atom  200 type  1   force =    -0.00000150   -0.00000054   -0.00000066
     atom  201 type  1   force =    -0.00000103    0.00000022   -0.00000092
     atom  202 type  1   force =    -0.00000022    0.00000124   -0.00000011
     atom  203 type  1   force =    -0.00000001   -0.00000201    0.00000055
     atom  204 type  1   force =     0.00000063   -0.00000076    0.00000091
     atom  205 type  1   force =    -0.00000051    0.00000051   -0.00000024
     atom  206 type  1   force =     0.00000063    0.00000153    0.00000002
     atom  207 type  1   force =     0.00000044   -0.00000201    0.00000009
     atom  208 type  1   force =     0.00000076   -0.00000078    0.00000067
     atom  209 type  1   force =     0.00000011    0.00000046    0.00000077
     atom  210 type  1   force =    -0.00000041    0.00000052   -0.00000002
     atom  211 type  1   force =     0.00000047   -0.00000159   -0.00000015
     atom  212 type  1   force =     0.00000015   -0.00000091   -0.00000035
     atom  213 type  1   force =     0.00000047   -0.00000007    0.00000057
     atom  214 type  1   force =     0.00000018    0.00000039    0.00000023
     atom  215 type  2   force =    -0.00000029   -0.00000241   -0.00000014

     Total force =     0.053709     Total SCF correction =     0.000024


     Computing stress (Cartesian axis) and pressure

          total   stress  (Ry/bohr**3)                   (kbar)     P=   26.45
   0.00017890   0.00003205   0.00003344         26.32      4.71      4.92
   0.00003205   0.00018159   0.00003205          4.71     26.71      4.71
   0.00003344   0.00003205   0.00017890          4.92      4.71     26.32

     kinetic stress (kbar)  21593.64     15.41     15.53
                               15.41  21594.13     15.41
                               15.53     15.41  21593.64

     local   stress (kbar)  -3682.59      8.70      9.11
                                8.70  -3679.57      8.70
                                9.11      8.70  -3682.59

     nonloc. stress (kbar)   1303.78     -3.29     -3.30
                               -3.29   1303.75     -3.29
                               -3.30     -3.29   1303.78

     hartree stress (kbar)   1290.18     -9.08     -9.33
                               -9.08   1289.12     -9.08
                               -9.33     -9.08   1290.18

     exc-cor stress (kbar)  -4229.85     -0.03     -0.03
                               -0.03  -4229.86     -0.03
                               -0.03     -0.03  -4229.85

     corecor stress (kbar)      0.00      0.00      0.00
                                0.00      0.00      0.00
                                0.00      0.00      0.00

     ewald   stress (kbar) -16248.84     -7.00     -7.07
                               -7.00 -16250.85     -6.99
                               -7.07     -6.99 -16248.84

     hubbard stress (kbar)      0.00      0.00      0.00
                                0.00      0.00      0.00
                                0.00      0.00      0.00

     london  stress (kbar)      0.00      0.00      0.00
                                0.00      0.00      0.00
                                0.00      0.00      0.00

     XDM     stress (kbar)      0.00      0.00      0.00
                                0.00      0.00      0.00
                                0.00      0.00      0.00

     dft-nl  stress (kbar)      0.00      0.00      0.00
                                0.00      0.00      0.00
                                0.00      0.00      0.00

     TS-vdW  stress (kbar)      0.00      0.00      0.00
                                0.00      0.00      0.00
                                0.00      0.00      0.00



     Writing output data file pwscf.save
 
     init_run     :      2.36s CPU      2.71s WALL (       1 calls)
     electrons    :    541.87s CPU    551.28s WALL (       1 calls)
     forces       :      1.28s CPU      1.36s WALL (       1 calls)
     stress       :     20.83s CPU     20.95s WALL (       1 calls)

     Called by init_run:
     wfcinit      :      1.47s CPU      1.64s WALL (       1 calls)
     wfcinit:atom :      0.00s CPU      0.00s WALL (       1 calls)
     wfcinit:wfcr :      1.43s CPU      1.55s WALL (       1 calls)
     potinit      :      0.11s CPU      0.15s WALL (       1 calls)

     Called by electrons:
     c_bands      :    535.26s CPU    544.33s WALL (      20 calls)
     sum_band     :      4.90s CPU      5.00s WALL (      20 calls)
     v_of_rho     :      1.20s CPU      1.35s WALL (      21 calls)
     v_h          :      0.05s CPU      0.06s WALL (      21 calls)
     v_xc         :      1.15s CPU      1.29s WALL (      21 calls)
     mix_rho      :      0.26s CPU      0.29s WALL (      20 calls)

     Called by c_bands:
     init_us_2    :      0.57s CPU      0.62s WALL (      41 calls)
     regterg      :    514.01s CPU    522.94s WALL (      20 calls)

     Called by sum_band:

     Called by *egterg:
     h_psi        :     67.34s CPU     67.94s WALL (     157 calls)
     g_psi        :      0.31s CPU      0.32s WALL (     136 calls)
     rdiaghg      :    379.15s CPU    383.84s WALL (     156 calls)
     regterg:over :     28.25s CPU     28.36s WALL (     136 calls)
     regterg:upda :     25.12s CPU     25.34s WALL (     136 calls)
     regterg:last :      9.47s CPU      9.60s WALL (      22 calls)
     rdiaghg:chol :     11.63s CPU     11.70s WALL (     156 calls)
     rdiaghg:inve :     10.64s CPU     10.67s WALL (     156 calls)
     rdiaghg:para :     20.76s CPU     23.21s WALL (     312 calls)

     Called by h_psi:
     h_psi:pot    :     66.40s CPU     66.97s WALL (     157 calls)
     h_psi:calbec :     18.48s CPU     18.63s WALL (     157 calls)
     vloc_psi     :     30.84s CPU     31.07s WALL (     157 calls)
     add_vuspsi   :     17.09s CPU     17.27s WALL (     157 calls)

     General routines
     calbec       :     19.73s CPU     19.89s WALL (     162 calls)
     fft          :      0.71s CPU      0.97s WALL (     450 calls)
     fftw         :     32.60s CPU     32.84s WALL (   63144 calls)
 
     Parallel routines
     fft_scatter  :     10.32s CPU     10.57s WALL (   63594 calls)
 
     PWSCF        :  9m30.91s CPU     9m44.87s WALL

 
   This run was terminated on:  17: 9:40   5Jul2022            

=------------------------------------------------------------------------------=
   JOB DONE.
=------------------------------------------------------------------------------=
