
     Program PWSCF v.6.1 starts on 22Jun2022 at  7:13: 0 

     This program is part of the open-source Quantum ESPRESSO suite
     for quantum simulation of materials; please cite
         "P. Giannozzi et al., J. Phys.:Condens. Matter 21 395502 (2009);
          URL http://www.quantum-espresso.org", 
     in publications or presentations arising from this work. More details at
     http://www.quantum-espresso.org/quote

     Parallel version (MPI & OpenMP), running on     112 processor cores
     Number of MPI processes:               112
     Threads/MPI process:                     1
     K-points division:     npool     =       2
     R & G space division:  proc/nbgrp/npool/nimage =      56
     Waiting for input...
     Reading input from standard input

     Current dimensions of program PWSCF are:
     Max number of different atomic species (ntypx) = 10
     Max number of k-points (npk) =  40000
     Max angular momentum in pseudopotentials (lmaxx) =  3

     gamma-point specific algorithms are used

     Subspace diagonalization in iterative solution of the eigenvalue problem:
     one sub-group per band group will be used
     scalapack distributed-memory algorithm (size of sub-group:  5*  5 procs)

 
     Parallelization info
     --------------------
     sticks:   dense  smooth     PW     G-vecs:    dense   smooth      PW
     Min         196     196     47                15628    15628    1940
     Max         198     198     50                15646    15646    1958
     Sum       11057   11057   2757               875727   875727  109127
 


     bravais-lattice index     =            0
     lattice parameter (alat)  =      20.2276  a.u.
     unit-cell volume          =    8276.2749 (a.u.)^3
     number of atoms/cell      =          215
     number of atomic types    =            2
     number of electrons       =       862.00 (up: 432.00, down: 430.00)
     number of Kohn-Sham states=          800
     kinetic-energy cutoff     =      85.0000  Ry
     charge density cutoff     =     340.0000  Ry
     convergence threshold     =      1.0E-10
     mixing beta               =       0.7000
     number of iterations used =            8  plain     mixing
     Exchange-correlation      = PBE ( 1  4  3  4 0 0)

     celldm(1)=  20.227629  celldm(2)=   0.000000  celldm(3)=   0.000000
     celldm(4)=   0.000000  celldm(5)=   0.000000  celldm(6)=   0.000000

     crystal axes: (cart. coord. in units of alat)
               a(1) = (   1.000000   0.000000   0.000000 )  
               a(2) = (   0.000000   1.000000   0.000000 )  
               a(3) = (   0.000000   0.000000   1.000000 )  

     reciprocal axes: (cart. coord. in units 2 pi/alat)
               b(1) = (  1.000000  0.000000  0.000000 )  
               b(2) = (  0.000000  1.000000  0.000000 )  
               b(3) = (  0.000000  0.000000  1.000000 )  


     PseudoPot. # 1 for C  read from file:
     /home/jinyuchem/program/QE/pseudo-potential/C_ONCV_PBE-1.0.upf
     MD5 check sum: 40f8c33130f0afa4272e9dcc1c4fb0df
     Pseudo is Norm-conserving, Zval =  4.0
     Generated using ONCVPSP code by D. R. Hamann
     Using radial grid of  602 points,  4 beta functions with: 
                l(1) =   0
                l(2) =   0
                l(3) =   1
                l(4) =   1

     PseudoPot. # 2 for N  read from file:
     /home/jinyuchem/program/QE/pseudo-potential/N_ONCV_PBE-1.0.upf
     MD5 check sum: e7391ac1e3da9302b4611eea0a09cd4a
     Pseudo is Norm-conserving, Zval =  5.0
     Generated using ONCVPSP code by D. R. Hamann
     Using radial grid of  602 points,  4 beta functions with: 
                l(1) =   0
                l(2) =   0
                l(3) =   1
                l(4) =   1

     atomic species   valence    mass     pseudopotential
        C              4.00    12.01100     C ( 1.00)
        N              5.00    14.00700     N ( 1.00)

     Starting magnetic structure 
     atomic species   magnetization
        C            0.000
        N            0.000

      2 Sym. Ops. (no inversion) found ( 1 have fractional translation)


                                    s                        frac. trans.

      isym =  1     identity                                     

 cryst.   s( 1) = (     1          0          0      )
                  (     0          1          0      )
                  (     0          0          1      )

 cart.    s( 1) = (  1.0000000  0.0000000  0.0000000 )
                  (  0.0000000  1.0000000  0.0000000 )
                  (  0.0000000  0.0000000  1.0000000 )


      isym =  2     inv. 180 deg rotation - cart. axis [-1,0,1]  

 cryst.   s( 2) = (     0          0          1      )    f =( -0.1666664 )
                  (     0          1          0      )       ( -0.0000002 )
                  (     1          0          0      )       (  0.1666667 )

 cart.    s( 2) = (  0.0000000  0.0000000  1.0000000 )    f =( -0.1666664 )
                  (  0.0000000  1.0000000  0.0000000 )       ( -0.0000002 )
                  (  1.0000000  0.0000000  0.0000000 )       (  0.1666667 )


   Cartesian axes

     site n.     atom                  positions (alat units)
         1           C   tau(   1) = (  -0.0000006   0.0000577   0.0000285  )
         2           C   tau(   2) = (   0.0832742   0.0833953   0.0833861  )
         3           C   tau(   3) = (  -0.0001750   0.1667952   0.1667928  )
         4           C   tau(   4) = (   0.0828988   0.2501824   0.2501882  )
         5           C   tau(   5) = (   0.1666314  -0.0000395   0.1667209  )
         6           C   tau(   6) = (   0.2498851   0.0832013   0.2500141  )
         7           C   tau(   7) = (   0.1666140   0.1667223  -0.0000521  )
         8           C   tau(   8) = (   0.2498711   0.2499934   0.0832049  )
         9           C   tau(   9) = (  -0.0000757   0.0001368   0.3334602  )
        10           C   tau(  10) = (   0.0830704   0.0835990   0.4167215  )
        11           C   tau(  11) = (  -0.0004955   0.1672043   0.5001820  )
        12           C   tau(  12) = (   0.0833698   0.2500230   0.5834699  )
        13           C   tau(  13) = (   0.1669419   0.0002787   0.5001329  )
        14           C   tau(  14) = (   0.2500299   0.0833657   0.5833040  )
        15           C   tau(  15) = (   0.1663320   0.1667036   0.3333648  )
        16           C   tau(  16) = (   0.2496050   0.2498763   0.4165637  )
        17           C   tau(  17) = (   0.0000603   0.0001766   0.6667205  )
        18           C   tau(  18) = (   0.0833480   0.0834635   0.7500394  )
        19           C   tau(  19) = (  -0.0000104   0.1668319   0.8333228  )
        20           C   tau(  20) = (   0.0833000   0.2501631   0.9166336  )
        21           C   tau(  21) = (   0.1666952   0.0000575   0.8333330  )
        22           C   tau(  22) = (   0.2500525   0.0833955   0.9166077  )
        23           C   tau(  23) = (   0.1667871   0.1666716   0.6665905  )
        24           C   tau(  24) = (   0.2501192   0.2501400   0.7499081  )
        25           C   tau(  25) = (  -0.0000943   0.3334562   0.0001150  )
        26           C   tau(  26) = (   0.0830799   0.4166942   0.0835573  )
        27           C   tau(  27) = (  -0.0004328   0.5001549   0.1671292  )
        28           C   tau(  28) = (   0.0835504   0.5834553   0.2498459  )
        29           C   tau(  29) = (   0.1663288   0.3333460   0.1667025  )
        30           C   tau(  30) = (   0.2496085   0.4165306   0.2498871  )
        31           C   tau(  31) = (   0.1669250   0.5001256   0.0002590  )
        32           C   tau(  32) = (   0.2500213   0.5832933   0.0833555  )
        33           C   tau(  33) = (  -0.0006324   0.3337705   0.3337649  )
        34           C   tau(  34) = (   0.0827124   0.4171173   0.4171183  )
        35           C   tau(  35) = (  -0.0007111   0.5005954   0.5005084  )
        36           C   tau(  36) = (   0.0830106   0.5835356   0.5835233  )
        37           C   tau(  37) = (   0.1663922   0.3334269   0.5000204  )
        38           C   tau(  38) = (   0.2499064   0.4167390   0.5832739  )
        39           C   tau(  39) = (   0.1664311   0.5000042   0.3334094  )
        40           C   tau(  40) = (   0.2499323   0.5832585   0.4167453  )
        41           C   tau(  41) = (   0.0003355   0.3332028   0.6664942  )
        42           C   tau(  42) = (   0.0834022   0.4168922   0.7500922  )
        43           C   tau(  43) = (   0.0010028   0.5005240   0.8343360  )
        44           C   tau(  44) = (   0.0839131   0.5833408   0.9172470  )
        45           C   tau(  45) = (   0.1667815   0.3334560   0.8332396  )
        46           C   tau(  46) = (   0.2502235   0.4166943   0.9164141  )
        47           C   tau(  47) = (   0.1666675   0.5001377   0.6666512  )
        48           C   tau(  48) = (   0.2502054   0.5833859   0.7498841  )
        49           C   tau(  49) = (   0.0001087   0.6667414   0.0002150  )
        50           C   tau(  50) = (   0.0834073   0.7500572   0.0834491  )
        51           C   tau(  51) = (   0.0000503   0.8333714   0.1667748  )
        52           C   tau(  52) = (   0.0833388   0.9166622   0.2501588  )
        53           C   tau(  53) = (   0.1668810   0.6665883   0.1666112  )
        54           C   tau(  54) = (   0.2501704   0.7499127   0.2501359  )
        55           C   tau(  55) = (   0.1667083   0.8333479   0.0000422  )
        56           C   tau(  56) = (   0.2500650   0.9166144   0.0833986  )
        57           C   tau(  57) = (   0.0006456   0.6664748   0.3328467  )
        58           C   tau(  58) = (   0.0835255   0.7500913   0.4168002  )
        59           C   tau(  59) = (   0.0010869   0.8343175   0.5004603  )
        60           C   tau(  60) = (   0.0839335   0.9172418   0.5833298  )
        61           C   tau(  61) = (   0.1667043   0.6666550   0.5001323  )
        62           C   tau(  62) = (   0.2502356   0.7498722   0.5834024  )
        63           C   tau(  63) = (   0.1668556   0.8332637   0.3334423  )
        64           C   tau(  64) = (   0.2502751   0.9164245   0.4167179  )
        65           C   tau(  65) = (  -0.0001364   0.6667006   0.6667326  )
        66           C   tau(  66) = (   0.0833026   0.7499111   0.7499111  )
        67           C   tau(  67) = (   0.0000013   0.8333187   0.8333346  )
        68           C   tau(  68) = (   0.0833380   0.9166894   0.9166714  )
        69           C   tau(  69) = (   0.1668815   0.6667415   0.8334426  )
        70           C   tau(  70) = (   0.2501155   0.7500574   0.9167410  )
        71           C   tau(  71) = (   0.1668971   0.8334439   0.6667431  )
        72           C   tau(  72) = (   0.2501290   0.9167377   0.7500613  )
        73           C   tau(  73) = (   0.3333872  -0.0000392  -0.0000353  )
        74           C   tau(  74) = (   0.4166805   0.0832016   0.0832183  )
        75           C   tau(  75) = (   0.3331734   0.1664905   0.1665070  )
        76           C   tau(  76) = (   0.4163777   0.2496732   0.2497111  )
        77           C   tau(  77) = (   0.5000427  -0.0003415   0.1667393  )
        78           C   tau(  78) = (   0.5832472   0.0828986   0.2499371  )
        79           C   tau(  79) = (   0.5000310   0.1667044  -0.0003351  )
        80           C   tau(  80) = (   0.5832298   0.2498774   0.0829377  )
        81           C   tau(  81) = (   0.3334066  -0.0003420   0.3333761  )
        82           C   tau(  82) = (   0.4166048   0.0828981   0.4165802  )
        83           C   tau(  83) = (   0.3330231   0.1663168   0.4998688  )
        84           C   tau(  84) = (   0.4161303   0.2494567   0.5829459  )
        85           C   tau(  85) = (   0.5001627  -0.0003414   0.5000610  )
        86           C   tau(  86) = (   0.5834551   0.0832262   0.5832834  )
        87           C   tau(  87) = (   0.4996949   0.1660708   0.3330277  )
        88           C   tau(  88) = (   0.5827933   0.2492000   0.4161263  )
        89           C   tau(  89) = (   0.3333408   0.0001587   0.6666099  )
        90           C   tau(  90) = (   0.4168294   0.0834851   0.7499115  )
        91           C   tau(  91) = (   0.3334593   0.1667956   0.8331587  )
        92           C   tau(  92) = (   0.4168541   0.2501832   0.9162323  )
        93           C   tau(  93) = (   0.5001272   0.0001373   0.8332574  )
        94           C   tau(  94) = (   0.5833881   0.0835997   0.9164031  )
        95           C   tau(  95) = (   0.5001032   0.1668403   0.6663454  )
        96           C   tau(  96) = (   0.5836492   0.2511097   0.7489409  )
        97           C   tau(  97) = (   0.3333683   0.3333463  -0.0003372  )
        98           C   tau(  98) = (   0.4165529   0.4165311   0.0829422  )
        99           C   tau(  99) = (   0.3329832   0.4998402   0.1663170  )
       100           C   tau( 100) = (   0.4160856   0.5829289   0.2494190  )
       101           C   tau( 101) = (   0.4996675   0.3329764   0.1660873  )
       102           C   tau( 102) = (   0.5827640   0.4161034   0.2491610  )
       103           C   tau( 103) = (   0.5000755   0.5000046  -0.0002356  )
       104           C   tau( 104) = (   0.5834114   0.5832588   0.0832653  )
       105           C   tau( 105) = (   0.3327539   0.3329758   0.3330014  )
       106           C   tau( 106) = (   0.4158279   0.4161031   0.4160975  )
       107           C   tau( 107) = (   0.3332356   0.4998384   0.4998610  )
       108           C   tau( 108) = (   0.4171540   0.5831755   0.5832190  )
       109           C   tau( 109) = (   0.4986788   0.3320509   0.4994541  )
       110           C   tau( 110) = (   0.5834644   0.4169354   0.5793093  )
       111           C   tau( 111) = (   0.4986137   0.4994434   0.3319469  )
       112           C   tau( 112) = (   0.5833597   0.5793066   0.4166931  )
       113           C   tau( 113) = (   0.3334766   0.3333906   0.6663563  )
       114           C   tau( 114) = (   0.4176746   0.4169405   0.7489832  )
       115           C   tau( 115) = (   0.3337956   0.5001549   0.8329012  )
       116           C   tau( 116) = (   0.4165121   0.5834554   0.9168840  )
       117           C   tau( 117) = (   0.5004309   0.3337712   0.8327010  )
       118           C   tau( 118) = (   0.5837845   0.4171180   0.9160453  )
       119           C   tau( 119) = (   0.5015983   0.5008035   0.6651063  )
       120           C   tau( 120) = (   0.5849152   0.5844359   0.7489985  )
       121           C   tau( 121) = (   0.3332773   0.6665883   0.0002149  )
       122           C   tau( 122) = (   0.4168024   0.7499129   0.0835037  )
       123           C   tau( 123) = (   0.3334814   0.8331640   0.1668145  )
       124           C   tau( 124) = (   0.4168839   0.9162227   0.2502166  )
       125           C   tau( 125) = (   0.5000676   0.6663388   0.1668302  )
       126           C   tau( 126) = (   0.5836401   0.7489474   0.2510399  )
       127           C   tau( 127) = (   0.5001088   0.8332642   0.0001885  )
       128           C   tau( 128) = (   0.5833845   0.9164254   0.0836078  )
       129           C   tau( 129) = (   0.3334970   0.6663386   0.3334010  )
       130           C   tau( 130) = (   0.4177068   0.7489472   0.4169730  )
       131           C   tau( 131) = (   0.3338531   0.8328644   0.5001850  )
       132           C   tau( 132) = (   0.4166549   0.9167182   0.5834955  )
       133           C   tau( 133) = (   0.5016247   0.6649804   0.5007881  )
       134           C   tau( 134) = (   0.5852601   0.7483736   0.5844926  )
       135           C   tau( 135) = (   0.5004635   0.8326544   0.3337964  )
       136           C   tau( 136) = (   0.5838574   0.9158832   0.4171904  )
       137           C   tau( 137) = (   0.3336215   0.6666135   0.6666398  )
       138           C   tau( 138) = (   0.4168272   0.7499875   0.7500846  )
       139           C   tau( 139) = (   0.3334413   0.8333712   0.8333839  )
       140           C   tau( 140) = (   0.4168254   0.9166626   0.9166721  )
       141           C   tau( 141) = (   0.4995130   0.6664749   0.8339791  )
       142           C   tau( 142) = (   0.5834669   0.7500916   0.9168586  )
       143           C   tau( 143) = (   0.4997080   0.8336767   0.6665752  )
       144           C   tau( 144) = (   0.5835287   0.9167257   0.7501252  )
       145           C   tau( 145) = (   0.6667995   0.0002793   0.0002745  )
       146           C   tau( 146) = (   0.7499704   0.0833665   0.0833623  )
       147           C   tau( 147) = (   0.6665353   0.1663174   0.1663558  )
       148           C   tau( 148) = (   0.7496124   0.2494567   0.2494634  )
       149           C   tau( 149) = (   0.8332763   0.0001591   0.1666735  )
       150           C   tau( 150) = (   0.9165780   0.0834849   0.2501624  )
       151           C   tau( 151) = (   0.8332570   0.1666724   0.0001197  )
       152           C   tau( 152) = (   0.9165744   0.2501403   0.0834524  )
       153           C   tau( 153) = (   0.6667278  -0.0003410   0.3334953  )
       154           C   tau( 154) = (   0.7499503   0.0832260   0.4167878  )
       155           C   tau( 155) = (   0.6665435   0.1666062   0.4998761  )
       156           C   tau( 156) = (   0.7498580   0.2506327   0.5831915  )
       157           C   tau( 157) = (   0.8333279  -0.0000585   0.5001562  )
       158           C   tau( 158) = (   0.9165117   0.0835576   0.5833956  )
       159           C   tau( 159) = (   0.8330121   0.1668402   0.3334363  )
       160           C   tau( 160) = (   0.9156078   0.2511096   0.4169830  )
       161           C   tau( 161) = (   0.6668231  -0.0000582   0.6666606  )
       162           C   tau( 162) = (   0.7500623   0.0835582   0.7498442  )
       163           C   tau( 163) = (   0.6668486   0.1672048   0.8328372  )
       164           C   tau( 164) = (   0.7501365   0.2500238   0.9167025  )
       165           C   tau( 165) = (   0.8333869   0.0001771   0.8333931  )
       166           C   tau( 166) = (   0.9167058   0.0834638   0.9166809  )
       167           C   tau( 167) = (   0.8332638   0.1670346   0.6665965  )
       168           C   tau( 168) = (   0.9166370   0.2503232   0.7499700  )
       169           C   tau( 169) = (   0.6666867   0.3334278  -0.0002749  )
       170           C   tau( 170) = (   0.7499403   0.4167398   0.0832396  )
       171           C   tau( 171) = (   0.6665271   0.4998390   0.1665688  )
       172           C   tau( 172) = (   0.7498858   0.5831755   0.2504871  )
       173           C   tau( 173) = (   0.8330227   0.3333908   0.1668099  )
       174           C   tau( 174) = (   0.9156497   0.4169399   0.2510079  )
       175           C   tau( 175) = (   0.8333173   0.5001378   0.0000007  )
       176           C   tau( 176) = (   0.9165500   0.5833860   0.0835389  )
       177           C   tau( 177) = (   0.6661208   0.3320509   0.3320122  )
       178           C   tau( 178) = (   0.7459760   0.4169355   0.4167977  )
       179           C   tau( 179) = (   0.8316695   0.3351697   0.5008158  )
       180           C   tau( 180) = (   0.9151285   0.4189252   0.5844245  )
       181           C   tau( 181) = (   0.8317731   0.5008032   0.3349316  )
       182           C   tau( 182) = (   0.9156656   0.5844352   0.4182485  )
       183           C   tau( 183) = (   0.6674823   0.3351698   0.6650028  )
       184           C   tau( 184) = (   0.7510910   0.4189253   0.7484614  )
       185           C   tau( 185) = (   0.6671748   0.5005960   0.8326216  )
       186           C   tau( 186) = (   0.7501899   0.5835359   0.9163434  )
       187           C   tau( 187) = (   0.8331609   0.3332032   0.8336683  )
       188           C   tau( 188) = (   0.9167586   0.4168924   0.9167353  )
       189           C   tau( 189) = (   0.8391674   0.4970870   0.6725010  )
       190           C   tau( 190) = (   0.9164332   0.5828998   0.7497662  )
       191           C   tau( 191) = (   0.6667988   0.6666556   0.0000370  )
       192           C   tau( 192) = (   0.7500689   0.7498729   0.0835682  )
       193           C   tau( 193) = (   0.6668515   0.8328650   0.1671861  )
       194           C   tau( 194) = (   0.7501618   0.9167184   0.2499877  )
       195           C   tau( 195) = (   0.8333059   0.6666141   0.1669546  )
       196           C   tau( 196) = (   0.9167509   0.7499876   0.2501605  )
       197           C   tau( 197) = (   0.8334098   0.8334444   0.0002299  )
       198           C   tau( 198) = (   0.9167279   0.9167378   0.0834619  )
       199           C   tau( 199) = (   0.6674551   0.6649801   0.3349579  )
       200           C   tau( 200) = (   0.7511596   0.7483732   0.4185939  )
       201           C   tau( 201) = (   0.6673554   0.8322984   0.5006882  )
       202           C   tau( 202) = (   0.7502235   0.9161591   0.5835565  )
       203           C   tau( 203) = (   0.8403178   0.6727607   0.4956347  )
       204           C   tau( 204) = (   0.9165614   0.7496023   0.5828115  )
       205           C   tau( 205) = (   0.8332419   0.8336765   0.3330414  )
       206           C   tau( 206) = (   0.9167922   0.9167256   0.4168621  )
       207           C   tau( 207) = (   0.6623012   0.6727616   0.6736497  )
       208           C   tau( 208) = (   0.7494781   0.7496026   0.7498942  )
       209           C   tau( 209) = (   0.6671271   0.8343178   0.8344198  )
       210           C   tau( 210) = (   0.7499965   0.9172425   0.9172660  )
       211           C   tau( 211) = (   0.8333991   0.6667009   0.8331963  )
       212           C   tau( 212) = (   0.9165780   0.7499108   0.9166356  )
       213           C   tau( 213) = (   0.8333083   0.8328838   0.6666411  )
       214           C   tau( 214) = (   0.9165373   0.9164940   0.7498708  )
       215           N   tau( 215) = (   0.6586400   0.4922943   0.4919733  )

   Crystallographic axes

     site n.     atom                  positions (cryst. coord.)
         1           C   tau(   1) = ( -0.0000006  0.0000577  0.0000285  )
         2           C   tau(   2) = (  0.0832742  0.0833953  0.0833861  )
         3           C   tau(   3) = ( -0.0001750  0.1667952  0.1667928  )
         4           C   tau(   4) = (  0.0828988  0.2501824  0.2501882  )
         5           C   tau(   5) = (  0.1666314 -0.0000395  0.1667209  )
         6           C   tau(   6) = (  0.2498851  0.0832013  0.2500141  )
         7           C   tau(   7) = (  0.1666140  0.1667223 -0.0000521  )
         8           C   tau(   8) = (  0.2498711  0.2499934  0.0832049  )
         9           C   tau(   9) = ( -0.0000757  0.0001368  0.3334602  )
        10           C   tau(  10) = (  0.0830704  0.0835990  0.4167215  )
        11           C   tau(  11) = ( -0.0004955  0.1672043  0.5001820  )
        12           C   tau(  12) = (  0.0833698  0.2500230  0.5834699  )
        13           C   tau(  13) = (  0.1669419  0.0002787  0.5001329  )
        14           C   tau(  14) = (  0.2500299  0.0833657  0.5833040  )
        15           C   tau(  15) = (  0.1663320  0.1667036  0.3333648  )
        16           C   tau(  16) = (  0.2496050  0.2498763  0.4165637  )
        17           C   tau(  17) = (  0.0000603  0.0001766  0.6667205  )
        18           C   tau(  18) = (  0.0833480  0.0834635  0.7500394  )
        19           C   tau(  19) = ( -0.0000104  0.1668319  0.8333228  )
        20           C   tau(  20) = (  0.0833000  0.2501631  0.9166336  )
        21           C   tau(  21) = (  0.1666952  0.0000575  0.8333330  )
        22           C   tau(  22) = (  0.2500525  0.0833955  0.9166077  )
        23           C   tau(  23) = (  0.1667871  0.1666716  0.6665905  )
        24           C   tau(  24) = (  0.2501192  0.2501400  0.7499081  )
        25           C   tau(  25) = ( -0.0000943  0.3334562  0.0001150  )
        26           C   tau(  26) = (  0.0830799  0.4166942  0.0835573  )
        27           C   tau(  27) = ( -0.0004328  0.5001549  0.1671292  )
        28           C   tau(  28) = (  0.0835504  0.5834553  0.2498459  )
        29           C   tau(  29) = (  0.1663288  0.3333460  0.1667025  )
        30           C   tau(  30) = (  0.2496085  0.4165306  0.2498871  )
        31           C   tau(  31) = (  0.1669250  0.5001256  0.0002590  )
        32           C   tau(  32) = (  0.2500213  0.5832933  0.0833555  )
        33           C   tau(  33) = ( -0.0006324  0.3337705  0.3337649  )
        34           C   tau(  34) = (  0.0827124  0.4171173  0.4171183  )
        35           C   tau(  35) = ( -0.0007111  0.5005954  0.5005084  )
        36           C   tau(  36) = (  0.0830106  0.5835356  0.5835233  )
        37           C   tau(  37) = (  0.1663922  0.3334269  0.5000204  )
        38           C   tau(  38) = (  0.2499064  0.4167390  0.5832739  )
        39           C   tau(  39) = (  0.1664311  0.5000042  0.3334094  )
        40           C   tau(  40) = (  0.2499323  0.5832585  0.4167453  )
        41           C   tau(  41) = (  0.0003355  0.3332028  0.6664942  )
        42           C   tau(  42) = (  0.0834022  0.4168922  0.7500922  )
        43           C   tau(  43) = (  0.0010028  0.5005240  0.8343360  )
        44           C   tau(  44) = (  0.0839131  0.5833408  0.9172470  )
        45           C   tau(  45) = (  0.1667815  0.3334560  0.8332396  )
        46           C   tau(  46) = (  0.2502235  0.4166943  0.9164141  )
        47           C   tau(  47) = (  0.1666675  0.5001377  0.6666512  )
        48           C   tau(  48) = (  0.2502054  0.5833859  0.7498841  )
        49           C   tau(  49) = (  0.0001087  0.6667414  0.0002150  )
        50           C   tau(  50) = (  0.0834073  0.7500572  0.0834491  )
        51           C   tau(  51) = (  0.0000503  0.8333714  0.1667748  )
        52           C   tau(  52) = (  0.0833388  0.9166622  0.2501588  )
        53           C   tau(  53) = (  0.1668810  0.6665883  0.1666112  )
        54           C   tau(  54) = (  0.2501704  0.7499127  0.2501359  )
        55           C   tau(  55) = (  0.1667083  0.8333479  0.0000422  )
        56           C   tau(  56) = (  0.2500650  0.9166144  0.0833986  )
        57           C   tau(  57) = (  0.0006456  0.6664748  0.3328467  )
        58           C   tau(  58) = (  0.0835255  0.7500913  0.4168002  )
        59           C   tau(  59) = (  0.0010869  0.8343175  0.5004603  )
        60           C   tau(  60) = (  0.0839335  0.9172418  0.5833298  )
        61           C   tau(  61) = (  0.1667043  0.6666550  0.5001323  )
        62           C   tau(  62) = (  0.2502356  0.7498722  0.5834024  )
        63           C   tau(  63) = (  0.1668556  0.8332637  0.3334423  )
        64           C   tau(  64) = (  0.2502751  0.9164245  0.4167179  )
        65           C   tau(  65) = ( -0.0001364  0.6667006  0.6667326  )
        66           C   tau(  66) = (  0.0833026  0.7499111  0.7499111  )
        67           C   tau(  67) = (  0.0000013  0.8333187  0.8333346  )
        68           C   tau(  68) = (  0.0833380  0.9166894  0.9166714  )
        69           C   tau(  69) = (  0.1668815  0.6667415  0.8334426  )
        70           C   tau(  70) = (  0.2501155  0.7500574  0.9167410  )
        71           C   tau(  71) = (  0.1668971  0.8334439  0.6667431  )
        72           C   tau(  72) = (  0.2501290  0.9167377  0.7500613  )
        73           C   tau(  73) = (  0.3333872 -0.0000392 -0.0000353  )
        74           C   tau(  74) = (  0.4166805  0.0832016  0.0832183  )
        75           C   tau(  75) = (  0.3331734  0.1664905  0.1665070  )
        76           C   tau(  76) = (  0.4163777  0.2496732  0.2497111  )
        77           C   tau(  77) = (  0.5000427 -0.0003415  0.1667393  )
        78           C   tau(  78) = (  0.5832472  0.0828986  0.2499371  )
        79           C   tau(  79) = (  0.5000310  0.1667044 -0.0003351  )
        80           C   tau(  80) = (  0.5832298  0.2498774  0.0829377  )
        81           C   tau(  81) = (  0.3334066 -0.0003420  0.3333761  )
        82           C   tau(  82) = (  0.4166048  0.0828981  0.4165802  )
        83           C   tau(  83) = (  0.3330231  0.1663168  0.4998688  )
        84           C   tau(  84) = (  0.4161303  0.2494567  0.5829459  )
        85           C   tau(  85) = (  0.5001627 -0.0003414  0.5000610  )
        86           C   tau(  86) = (  0.5834551  0.0832262  0.5832834  )
        87           C   tau(  87) = (  0.4996949  0.1660708  0.3330277  )
        88           C   tau(  88) = (  0.5827933  0.2492000  0.4161263  )
        89           C   tau(  89) = (  0.3333408  0.0001587  0.6666099  )
        90           C   tau(  90) = (  0.4168294  0.0834851  0.7499115  )
        91           C   tau(  91) = (  0.3334593  0.1667956  0.8331587  )
        92           C   tau(  92) = (  0.4168541  0.2501832  0.9162323  )
        93           C   tau(  93) = (  0.5001272  0.0001373  0.8332574  )
        94           C   tau(  94) = (  0.5833881  0.0835997  0.9164031  )
        95           C   tau(  95) = (  0.5001032  0.1668403  0.6663454  )
        96           C   tau(  96) = (  0.5836492  0.2511097  0.7489409  )
        97           C   tau(  97) = (  0.3333683  0.3333463 -0.0003372  )
        98           C   tau(  98) = (  0.4165529  0.4165311  0.0829422  )
        99           C   tau(  99) = (  0.3329832  0.4998402  0.1663170  )
       100           C   tau( 100) = (  0.4160856  0.5829289  0.2494190  )
       101           C   tau( 101) = (  0.4996675  0.3329764  0.1660873  )
       102           C   tau( 102) = (  0.5827640  0.4161034  0.2491610  )
       103           C   tau( 103) = (  0.5000755  0.5000046 -0.0002356  )
       104           C   tau( 104) = (  0.5834114  0.5832588  0.0832653  )
       105           C   tau( 105) = (  0.3327539  0.3329758  0.3330014  )
       106           C   tau( 106) = (  0.4158279  0.4161031  0.4160975  )
       107           C   tau( 107) = (  0.3332356  0.4998384  0.4998610  )
       108           C   tau( 108) = (  0.4171540  0.5831755  0.5832190  )
       109           C   tau( 109) = (  0.4986788  0.3320509  0.4994541  )
       110           C   tau( 110) = (  0.5834644  0.4169354  0.5793093  )
       111           C   tau( 111) = (  0.4986137  0.4994434  0.3319469  )
       112           C   tau( 112) = (  0.5833597  0.5793066  0.4166931  )
       113           C   tau( 113) = (  0.3334766  0.3333906  0.6663563  )
       114           C   tau( 114) = (  0.4176746  0.4169405  0.7489832  )
       115           C   tau( 115) = (  0.3337956  0.5001549  0.8329012  )
       116           C   tau( 116) = (  0.4165121  0.5834554  0.9168840  )
       117           C   tau( 117) = (  0.5004309  0.3337712  0.8327010  )
       118           C   tau( 118) = (  0.5837845  0.4171180  0.9160453  )
       119           C   tau( 119) = (  0.5015983  0.5008035  0.6651063  )
       120           C   tau( 120) = (  0.5849152  0.5844359  0.7489985  )
       121           C   tau( 121) = (  0.3332773  0.6665883  0.0002149  )
       122           C   tau( 122) = (  0.4168024  0.7499129  0.0835037  )
       123           C   tau( 123) = (  0.3334814  0.8331640  0.1668145  )
       124           C   tau( 124) = (  0.4168839  0.9162227  0.2502166  )
       125           C   tau( 125) = (  0.5000676  0.6663388  0.1668302  )
       126           C   tau( 126) = (  0.5836401  0.7489474  0.2510399  )
       127           C   tau( 127) = (  0.5001088  0.8332642  0.0001885  )
       128           C   tau( 128) = (  0.5833845  0.9164254  0.0836078  )
       129           C   tau( 129) = (  0.3334970  0.6663386  0.3334010  )
       130           C   tau( 130) = (  0.4177068  0.7489472  0.4169730  )
       131           C   tau( 131) = (  0.3338531  0.8328644  0.5001850  )
       132           C   tau( 132) = (  0.4166549  0.9167182  0.5834955  )
       133           C   tau( 133) = (  0.5016247  0.6649804  0.5007881  )
       134           C   tau( 134) = (  0.5852601  0.7483736  0.5844926  )
       135           C   tau( 135) = (  0.5004635  0.8326544  0.3337964  )
       136           C   tau( 136) = (  0.5838574  0.9158832  0.4171904  )
       137           C   tau( 137) = (  0.3336215  0.6666135  0.6666398  )
       138           C   tau( 138) = (  0.4168272  0.7499875  0.7500846  )
       139           C   tau( 139) = (  0.3334413  0.8333712  0.8333839  )
       140           C   tau( 140) = (  0.4168254  0.9166626  0.9166721  )
       141           C   tau( 141) = (  0.4995130  0.6664749  0.8339791  )
       142           C   tau( 142) = (  0.5834669  0.7500916  0.9168586  )
       143           C   tau( 143) = (  0.4997080  0.8336767  0.6665752  )
       144           C   tau( 144) = (  0.5835287  0.9167257  0.7501252  )
       145           C   tau( 145) = (  0.6667995  0.0002793  0.0002745  )
       146           C   tau( 146) = (  0.7499704  0.0833665  0.0833623  )
       147           C   tau( 147) = (  0.6665353  0.1663174  0.1663558  )
       148           C   tau( 148) = (  0.7496124  0.2494567  0.2494634  )
       149           C   tau( 149) = (  0.8332763  0.0001591  0.1666735  )
       150           C   tau( 150) = (  0.9165780  0.0834849  0.2501624  )
       151           C   tau( 151) = (  0.8332570  0.1666724  0.0001197  )
       152           C   tau( 152) = (  0.9165744  0.2501403  0.0834524  )
       153           C   tau( 153) = (  0.6667278 -0.0003410  0.3334953  )
       154           C   tau( 154) = (  0.7499503  0.0832260  0.4167878  )
       155           C   tau( 155) = (  0.6665435  0.1666062  0.4998761  )
       156           C   tau( 156) = (  0.7498580  0.2506327  0.5831915  )
       157           C   tau( 157) = (  0.8333279 -0.0000585  0.5001562  )
       158           C   tau( 158) = (  0.9165117  0.0835576  0.5833956  )
       159           C   tau( 159) = (  0.8330121  0.1668402  0.3334363  )
       160           C   tau( 160) = (  0.9156078  0.2511096  0.4169830  )
       161           C   tau( 161) = (  0.6668231 -0.0000582  0.6666606  )
       162           C   tau( 162) = (  0.7500623  0.0835582  0.7498442  )
       163           C   tau( 163) = (  0.6668486  0.1672048  0.8328372  )
       164           C   tau( 164) = (  0.7501365  0.2500238  0.9167025  )
       165           C   tau( 165) = (  0.8333869  0.0001771  0.8333931  )
       166           C   tau( 166) = (  0.9167058  0.0834638  0.9166809  )
       167           C   tau( 167) = (  0.8332638  0.1670346  0.6665965  )
       168           C   tau( 168) = (  0.9166370  0.2503232  0.7499700  )
       169           C   tau( 169) = (  0.6666867  0.3334278 -0.0002749  )
       170           C   tau( 170) = (  0.7499403  0.4167398  0.0832396  )
       171           C   tau( 171) = (  0.6665271  0.4998390  0.1665688  )
       172           C   tau( 172) = (  0.7498858  0.5831755  0.2504871  )
       173           C   tau( 173) = (  0.8330227  0.3333908  0.1668099  )
       174           C   tau( 174) = (  0.9156497  0.4169399  0.2510079  )
       175           C   tau( 175) = (  0.8333173  0.5001378  0.0000007  )
       176           C   tau( 176) = (  0.9165500  0.5833860  0.0835389  )
       177           C   tau( 177) = (  0.6661208  0.3320509  0.3320122  )
       178           C   tau( 178) = (  0.7459760  0.4169355  0.4167977  )
       179           C   tau( 179) = (  0.8316695  0.3351697  0.5008158  )
       180           C   tau( 180) = (  0.9151285  0.4189252  0.5844245  )
       181           C   tau( 181) = (  0.8317731  0.5008032  0.3349316  )
       182           C   tau( 182) = (  0.9156656  0.5844352  0.4182485  )
       183           C   tau( 183) = (  0.6674823  0.3351698  0.6650028  )
       184           C   tau( 184) = (  0.7510910  0.4189253  0.7484614  )
       185           C   tau( 185) = (  0.6671748  0.5005960  0.8326216  )
       186           C   tau( 186) = (  0.7501899  0.5835359  0.9163434  )
       187           C   tau( 187) = (  0.8331609  0.3332032  0.8336683  )
       188           C   tau( 188) = (  0.9167586  0.4168924  0.9167353  )
       189           C   tau( 189) = (  0.8391674  0.4970870  0.6725010  )
       190           C   tau( 190) = (  0.9164332  0.5828998  0.7497662  )
       191           C   tau( 191) = (  0.6667988  0.6666556  0.0000370  )
       192           C   tau( 192) = (  0.7500689  0.7498729  0.0835682  )
       193           C   tau( 193) = (  0.6668515  0.8328650  0.1671861  )
       194           C   tau( 194) = (  0.7501618  0.9167184  0.2499877  )
       195           C   tau( 195) = (  0.8333059  0.6666141  0.1669546  )
       196           C   tau( 196) = (  0.9167509  0.7499876  0.2501605  )
       197           C   tau( 197) = (  0.8334098  0.8334444  0.0002299  )
       198           C   tau( 198) = (  0.9167279  0.9167378  0.0834619  )
       199           C   tau( 199) = (  0.6674551  0.6649801  0.3349579  )
       200           C   tau( 200) = (  0.7511596  0.7483732  0.4185939  )
       201           C   tau( 201) = (  0.6673554  0.8322984  0.5006882  )
       202           C   tau( 202) = (  0.7502235  0.9161591  0.5835565  )
       203           C   tau( 203) = (  0.8403178  0.6727607  0.4956347  )
       204           C   tau( 204) = (  0.9165614  0.7496023  0.5828115  )
       205           C   tau( 205) = (  0.8332419  0.8336765  0.3330414  )
       206           C   tau( 206) = (  0.9167922  0.9167256  0.4168621  )
       207           C   tau( 207) = (  0.6623012  0.6727616  0.6736497  )
       208           C   tau( 208) = (  0.7494781  0.7496026  0.7498942  )
       209           C   tau( 209) = (  0.6671271  0.8343178  0.8344198  )
       210           C   tau( 210) = (  0.7499965  0.9172425  0.9172660  )
       211           C   tau( 211) = (  0.8333991  0.6667009  0.8331963  )
       212           C   tau( 212) = (  0.9165780  0.7499108  0.9166356  )
       213           C   tau( 213) = (  0.8333083  0.8328838  0.6666411  )
       214           C   tau( 214) = (  0.9165373  0.9164940  0.7498708  )
       215           N   tau( 215) = (  0.6586400  0.4922943  0.4919733  )

     number of k points=     1
                       cart. coord. in units 2pi/alat
        k(    1) = (   0.0000000   0.0000000   0.0000000), wk =   1.0000000

                       cryst. coord.
        k(    1) = (   0.0000000   0.0000000   0.0000000), wk =   1.0000000

     Dense  grid:   437864 G-vectors     FFT dimensions: ( 120, 120, 120)

     Estimated max dynamical RAM per process >     112.27MB

     Estimated total allocated dynamical RAM >   12574.52MB
     Generating pointlists ...
     new r_m :   0.0567 (alat units)  1.1473 (a.u.) for type    1
     new r_m :   0.0567 (alat units)  1.1473 (a.u.) for type    2

     Initial potential from superposition of free atoms

     starting charge  859.50659, renormalised to  862.00000
     Starting wfc are random

     total cpu time spent up to now is        2.9 secs

     per-process dynamical memory:    76.6 Mb

     Self-consistent Calculation

     iteration #  1     ecut=    85.00 Ry     beta=0.70
     Davidson diagonalization with overlap
     ethr =  1.00E-02,  avg # of iterations =  8.0

     total cpu time spent up to now is       37.5 secs

     total energy              =   -2455.47733723 Ry
     Harris-Foulkes estimate   =   -2461.08457368 Ry
     estimated scf accuracy    <      12.61633888 Ry

     total magnetization       =     2.00 Bohr mag/cell
     absolute magnetization    =     2.00 Bohr mag/cell

     iteration #  2     ecut=    85.00 Ry     beta=0.70
     Davidson diagonalization with overlap
     ethr =  1.46E-03,  avg # of iterations =  7.0

     total cpu time spent up to now is       53.2 secs

     total energy              =   -2455.96713549 Ry
     Harris-Foulkes estimate   =   -2456.63696432 Ry
     estimated scf accuracy    <       0.99203371 Ry

     total magnetization       =     2.00 Bohr mag/cell
     absolute magnetization    =     2.08 Bohr mag/cell

     iteration #  3     ecut=    85.00 Ry     beta=0.70
     Davidson diagonalization with overlap
     ethr =  1.15E-04,  avg # of iterations =  6.0

     total cpu time spent up to now is       79.3 secs

     total energy              =   -2455.33005074 Ry
     Harris-Foulkes estimate   =   -2457.42634798 Ry
     estimated scf accuracy    <       6.67556062 Ry

     total magnetization       =     2.00 Bohr mag/cell
     absolute magnetization    =     2.21 Bohr mag/cell

     iteration #  4     ecut=    85.00 Ry     beta=0.70
     Davidson diagonalization with overlap
     ethr =  1.15E-04,  avg # of iterations =  6.5

     total cpu time spent up to now is      101.2 secs

     total energy              =   -2456.49082858 Ry
     Harris-Foulkes estimate   =   -2456.52155576 Ry
     estimated scf accuracy    <       0.09709639 Ry

     total magnetization       =     2.00 Bohr mag/cell
     absolute magnetization    =     2.15 Bohr mag/cell

     iteration #  5     ecut=    85.00 Ry     beta=0.70
     Davidson diagonalization with overlap
     ethr =  1.13E-05,  avg # of iterations =  8.0

     total cpu time spent up to now is      122.2 secs

     total energy              =   -2456.50449030 Ry
     Harris-Foulkes estimate   =   -2456.51087937 Ry
     estimated scf accuracy    <       0.02292395 Ry

     total magnetization       =     2.00 Bohr mag/cell
     absolute magnetization    =     2.18 Bohr mag/cell

     iteration #  6     ecut=    85.00 Ry     beta=0.70
     Davidson diagonalization with overlap
     ethr =  2.66E-06,  avg # of iterations =  7.0

     total cpu time spent up to now is      142.1 secs

     total energy              =   -2456.50867899 Ry
     Harris-Foulkes estimate   =   -2456.51014886 Ry
     estimated scf accuracy    <       0.00518063 Ry

     total magnetization       =     2.00 Bohr mag/cell
     absolute magnetization    =     2.22 Bohr mag/cell

     iteration #  7     ecut=    85.00 Ry     beta=0.70
     Davidson diagonalization with overlap
     ethr =  6.01E-07,  avg # of iterations =  7.0

     total cpu time spent up to now is      161.6 secs

     total energy              =   -2456.50985612 Ry
     Harris-Foulkes estimate   =   -2456.51001755 Ry
     estimated scf accuracy    <       0.00071160 Ry

     total magnetization       =     2.00 Bohr mag/cell
     absolute magnetization    =     2.24 Bohr mag/cell

     iteration #  8     ecut=    85.00 Ry     beta=0.70
     Davidson diagonalization with overlap
     ethr =  8.26E-08,  avg # of iterations =  7.0

     total cpu time spent up to now is      182.5 secs

     total energy              =   -2456.51007023 Ry
     Harris-Foulkes estimate   =   -2456.51014568 Ry
     estimated scf accuracy    <       0.00036931 Ry

     total magnetization       =     2.00 Bohr mag/cell
     absolute magnetization    =     2.25 Bohr mag/cell

     iteration #  9     ecut=    85.00 Ry     beta=0.70
     Davidson diagonalization with overlap
     ethr =  4.28E-08,  avg # of iterations =  7.0

     total cpu time spent up to now is      201.4 secs

     total energy              =   -2456.51016371 Ry
     Harris-Foulkes estimate   =   -2456.51016539 Ry
     estimated scf accuracy    <       0.00006407 Ry

     total magnetization       =     2.00 Bohr mag/cell
     absolute magnetization    =     2.26 Bohr mag/cell

     iteration # 10     ecut=    85.00 Ry     beta=0.70
     Davidson diagonalization with overlap
     ethr =  7.43E-09,  avg # of iterations =  7.0

     total cpu time spent up to now is      221.0 secs

     total energy              =   -2456.51018545 Ry
     Harris-Foulkes estimate   =   -2456.51018159 Ry
     estimated scf accuracy    <       0.00001197 Ry

     total magnetization       =     2.00 Bohr mag/cell
     absolute magnetization    =     2.27 Bohr mag/cell

     iteration # 11     ecut=    85.00 Ry     beta=0.70
     Davidson diagonalization with overlap
     ethr =  1.39E-09,  avg # of iterations =  7.0

     total cpu time spent up to now is      243.5 secs

     total energy              =   -2456.51018960 Ry
     Harris-Foulkes estimate   =   -2456.51019089 Ry
     estimated scf accuracy    <       0.00000483 Ry

     total magnetization       =     2.00 Bohr mag/cell
     absolute magnetization    =     2.28 Bohr mag/cell

     iteration # 12     ecut=    85.00 Ry     beta=0.70
     Davidson diagonalization with overlap
     ethr =  5.61E-10,  avg # of iterations =  7.0

     total cpu time spent up to now is      263.6 secs

     total energy              =   -2456.51019081 Ry
     Harris-Foulkes estimate   =   -2456.51019102 Ry
     estimated scf accuracy    <       0.00000093 Ry

     total magnetization       =     2.00 Bohr mag/cell
     absolute magnetization    =     2.28 Bohr mag/cell

     iteration # 13     ecut=    85.00 Ry     beta=0.70
     Davidson diagonalization with overlap
     ethr =  1.07E-10,  avg # of iterations =  7.0

     total cpu time spent up to now is      283.6 secs

     total energy              =   -2456.51019108 Ry
     Harris-Foulkes estimate   =   -2456.51019108 Ry
     estimated scf accuracy    <       0.00000015 Ry

     total magnetization       =     2.00 Bohr mag/cell
     absolute magnetization    =     2.28 Bohr mag/cell

     iteration # 14     ecut=    85.00 Ry     beta=0.70
     Davidson diagonalization with overlap
     ethr =  1.71E-11,  avg # of iterations =  7.0

     total cpu time spent up to now is      304.9 secs

     total energy              =   -2456.51019112 Ry
     Harris-Foulkes estimate   =   -2456.51019113 Ry
     estimated scf accuracy    <       0.00000003 Ry

     total magnetization       =     2.00 Bohr mag/cell
     absolute magnetization    =     2.28 Bohr mag/cell

     iteration # 15     ecut=    85.00 Ry     beta=0.70
     Davidson diagonalization with overlap
     ethr =  3.66E-12,  avg # of iterations =  6.0

     total cpu time spent up to now is      324.2 secs

     total energy              =   -2456.51019113 Ry
     Harris-Foulkes estimate   =   -2456.51019114 Ry
     estimated scf accuracy    <       0.00000002 Ry

     total magnetization       =     2.00 Bohr mag/cell
     absolute magnetization    =     2.28 Bohr mag/cell

     iteration # 16     ecut=    85.00 Ry     beta=0.70
     Davidson diagonalization with overlap
     ethr =  1.84E-12,  avg # of iterations =  6.0

     total cpu time spent up to now is      342.7 secs

     total energy              =   -2456.51019114 Ry
     Harris-Foulkes estimate   =   -2456.51019114 Ry
     estimated scf accuracy    <          4.2E-09 Ry

     total magnetization       =     2.00 Bohr mag/cell
     absolute magnetization    =     2.28 Bohr mag/cell

     iteration # 17     ecut=    85.00 Ry     beta=0.70
     Davidson diagonalization with overlap
     ethr =  4.82E-13,  avg # of iterations =  6.0

     total cpu time spent up to now is      361.6 secs

     total energy              =   -2456.51019114 Ry
     Harris-Foulkes estimate   =   -2456.51019114 Ry
     estimated scf accuracy    <          1.4E-09 Ry

     total magnetization       =     2.00 Bohr mag/cell
     absolute magnetization    =     2.28 Bohr mag/cell

     iteration # 18     ecut=    85.00 Ry     beta=0.70
     Davidson diagonalization with overlap
     ethr =  1.68E-13,  avg # of iterations =  7.0

     total cpu time spent up to now is      381.3 secs

     total energy              =   -2456.51019114 Ry
     Harris-Foulkes estimate   =   -2456.51019114 Ry
     estimated scf accuracy    <          4.4E-10 Ry

     total magnetization       =     2.00 Bohr mag/cell
     absolute magnetization    =     2.28 Bohr mag/cell

     iteration # 19     ecut=    85.00 Ry     beta=0.70
     Davidson diagonalization with overlap
     ethr =  1.00E-13,  avg # of iterations =  7.0

     total cpu time spent up to now is      400.6 secs

     total energy              =   -2456.51019114 Ry
     Harris-Foulkes estimate   =   -2456.51019114 Ry
     estimated scf accuracy    <          3.4E-10 Ry

     total magnetization       =     2.00 Bohr mag/cell
     absolute magnetization    =     2.28 Bohr mag/cell

     iteration # 20     ecut=    85.00 Ry     beta=0.70
     Davidson diagonalization with overlap
     ethr =  1.00E-13,  avg # of iterations =  7.0
 
     Magnetic moment per site:
     atom:    1    charge:    1.8036    magn:    0.0001    constr:    0.0000
     atom:    2    charge:    1.8029    magn:   -0.0000    constr:    0.0000
     atom:    3    charge:    1.8039    magn:    0.0002    constr:    0.0000
     atom:    4    charge:    1.8023    magn:    0.0001    constr:    0.0000
     atom:    5    charge:    1.8037    magn:    0.0005    constr:    0.0000
     atom:    6    charge:    1.8024    magn:    0.0000    constr:    0.0000
     atom:    7    charge:    1.8037    magn:    0.0005    constr:    0.0000
     atom:    8    charge:    1.8024    magn:    0.0000    constr:    0.0000
     atom:    9    charge:    1.8038    magn:    0.0011    constr:    0.0000
     atom:   10    charge:    1.8020    magn:   -0.0001    constr:    0.0000
     atom:   11    charge:    1.8004    magn:    0.0002    constr:    0.0000
     atom:   12    charge:    1.8059    magn:    0.0029    constr:    0.0000
     atom:   13    charge:    1.8043    magn:    0.0012    constr:    0.0000
     atom:   14    charge:    1.8074    magn:    0.0013    constr:    0.0000
     atom:   15    charge:    1.8041    magn:    0.0001    constr:    0.0000
     atom:   16    charge:    1.8040    magn:   -0.0000    constr:    0.0000
     atom:   17    charge:    1.8022    magn:    0.0002    constr:    0.0000
     atom:   18    charge:    1.8038    magn:   -0.0001    constr:    0.0000
     atom:   19    charge:    1.8035    magn:    0.0011    constr:    0.0000
     atom:   20    charge:    1.8030    magn:   -0.0001    constr:    0.0000
     atom:   21    charge:    1.8036    magn:    0.0001    constr:    0.0000
     atom:   22    charge:    1.8029    magn:   -0.0000    constr:    0.0000
     atom:   23    charge:    1.8040    magn:    0.0016    constr:    0.0000
     atom:   24    charge:    1.8034    magn:   -0.0001    constr:    0.0000
     atom:   25    charge:    1.8039    magn:    0.0011    constr:    0.0000
     atom:   26    charge:    1.8023    magn:   -0.0001    constr:    0.0000
     atom:   27    charge:    1.8006    magn:    0.0002    constr:    0.0000
     atom:   28    charge:    1.8069    magn:    0.0031    constr:    0.0000
     atom:   29    charge:    1.8041    magn:    0.0001    constr:    0.0000
     atom:   30    charge:    1.8042    magn:   -0.0000    constr:    0.0000
     atom:   31    charge:    1.8044    magn:    0.0012    constr:    0.0000
     atom:   32    charge:    1.8081    magn:    0.0013    constr:    0.0000
     atom:   33    charge:    1.8036    magn:    0.0003    constr:    0.0000
     atom:   34    charge:    1.8018    magn:   -0.0007    constr:    0.0000
     atom:   35    charge:    1.8037    magn:    0.0059    constr:    0.0000
     atom:   36    charge:    1.8040    magn:   -0.0010    constr:    0.0000
     atom:   37    charge:    1.8027    magn:    0.0001    constr:    0.0000
     atom:   38    charge:    1.8038    magn:   -0.0001    constr:    0.0000
     atom:   39    charge:    1.8027    magn:    0.0001    constr:    0.0000
     atom:   40    charge:    1.8038    magn:   -0.0001    constr:    0.0000
     atom:   41    charge:    1.7995    magn:    0.0174    constr:    0.0000
     atom:   42    charge:    1.8025    magn:   -0.0011    constr:    0.0000
     atom:   43    charge:    1.8043    magn:    0.0166    constr:    0.0000
     atom:   44    charge:    1.8079    magn:    0.0016    constr:    0.0000
     atom:   45    charge:    1.8039    magn:    0.0011    constr:    0.0000
     atom:   46    charge:    1.8023    magn:   -0.0001    constr:    0.0000
     atom:   47    charge:    1.8035    magn:    0.0015    constr:    0.0000
     atom:   48    charge:    1.8037    magn:   -0.0001    constr:    0.0000
     atom:   49    charge:    1.8026    magn:    0.0002    constr:    0.0000
     atom:   50    charge:    1.8040    magn:   -0.0001    constr:    0.0000
     atom:   51    charge:    1.8038    magn:    0.0011    constr:    0.0000
     atom:   52    charge:    1.8030    magn:   -0.0001    constr:    0.0000
     atom:   53    charge:    1.8047    magn:    0.0016    constr:    0.0000
     atom:   54    charge:    1.8035    magn:   -0.0001    constr:    0.0000
     atom:   55    charge:    1.8037    magn:    0.0001    constr:    0.0000
     atom:   56    charge:    1.8029    magn:   -0.0000    constr:    0.0000
     atom:   57    charge:    1.8012    magn:    0.0180    constr:    0.0000
     atom:   58    charge:    1.8025    magn:   -0.0011    constr:    0.0000
     atom:   59    charge:    1.8040    magn:    0.0170    constr:    0.0000
     atom:   60    charge:    1.8078    magn:    0.0017    constr:    0.0000
     atom:   61    charge:    1.8035    magn:    0.0016    constr:    0.0000
     atom:   62    charge:    1.8037    magn:   -0.0001    constr:    0.0000
     atom:   63    charge:    1.8041    magn:    0.0011    constr:    0.0000
     atom:   64    charge:    1.8021    magn:   -0.0001    constr:    0.0000
     atom:   65    charge:    1.8028    magn:    0.0070    constr:    0.0000
     atom:   66    charge:    1.8025    magn:   -0.0004    constr:    0.0000
     atom:   67    charge:    1.8027    magn:    0.0002    constr:    0.0000
     atom:   68    charge:    1.8034    magn:   -0.0001    constr:    0.0000
     atom:   69    charge:    1.8026    magn:    0.0002    constr:    0.0000
     atom:   70    charge:    1.8040    magn:   -0.0001    constr:    0.0000
     atom:   71    charge:    1.8025    magn:    0.0002    constr:    0.0000
     atom:   72    charge:    1.8040    magn:   -0.0001    constr:    0.0000
     atom:   73    charge:    1.8037    magn:    0.0005    constr:    0.0000
     atom:   74    charge:    1.8024    magn:    0.0000    constr:    0.0000
     atom:   75    charge:    1.8041    magn:    0.0001    constr:    0.0000
     atom:   76    charge:    1.8034    magn:    0.0000    constr:    0.0000
     atom:   77    charge:    1.8041    magn:    0.0001    constr:    0.0000
     atom:   78    charge:    1.8039    magn:   -0.0000    constr:    0.0000
     atom:   79    charge:    1.8041    magn:    0.0001    constr:    0.0000
     atom:   80    charge:    1.8040    magn:   -0.0000    constr:    0.0000
     atom:   81    charge:    1.8041    magn:    0.0001    constr:    0.0000
     atom:   82    charge:    1.8039    magn:   -0.0000    constr:    0.0000
     atom:   83    charge:    1.8056    magn:    0.0002    constr:    0.0000
     atom:   84    charge:    1.8082    magn:    0.0002    constr:    0.0000
     atom:   85    charge:    1.8024    magn:    0.0001    constr:    0.0000
     atom:   86    charge:    1.8036    magn:   -0.0001    constr:    0.0000
     atom:   87    charge:    1.8058    magn:    0.0000    constr:    0.0000
     atom:   88    charge:    1.8045    magn:   -0.0001    constr:    0.0000
     atom:   89    charge:    1.8041    magn:    0.0016    constr:    0.0000
     atom:   90    charge:    1.8033    magn:   -0.0001    constr:    0.0000
     atom:   91    charge:    1.8039    magn:    0.0002    constr:    0.0000
     atom:   92    charge:    1.8023    magn:    0.0001    constr:    0.0000
     atom:   93    charge:    1.8038    magn:    0.0011    constr:    0.0000
     atom:   94    charge:    1.8020    magn:   -0.0001    constr:    0.0000
     atom:   95    charge:    1.8024    magn:    0.0002    constr:    0.0000
     atom:   96    charge:    1.7978    magn:   -0.0002    constr:    0.0000
     atom:   97    charge:    1.8041    magn:    0.0001    constr:    0.0000
     atom:   98    charge:    1.8042    magn:   -0.0000    constr:    0.0000
     atom:   99    charge:    1.8058    magn:    0.0002    constr:    0.0000
     atom:  100    charge:    1.8086    magn:    0.0002    constr:    0.0000
     atom:  101    charge:    1.8060    magn:    0.0000    constr:    0.0000
     atom:  102    charge:    1.8048    magn:   -0.0001    constr:    0.0000
     atom:  103    charge:    1.8027    magn:    0.0001    constr:    0.0000
     atom:  104    charge:    1.8038    magn:   -0.0001    constr:    0.0000
     atom:  105    charge:    1.8060    magn:    0.0000    constr:    0.0000
     atom:  106    charge:    1.8048    magn:   -0.0001    constr:    0.0000
     atom:  107    charge:    1.8034    magn:    0.0008    constr:    0.0000
     atom:  108    charge:    1.8066    magn:   -0.0006    constr:    0.0000
     atom:  109    charge:    1.8127    magn:    0.0002    constr:    0.0000
     atom:  110    charge:    1.7822    magn:    0.0006    constr:    0.0000
     atom:  111    charge:    1.8135    magn:    0.0002    constr:    0.0000
     atom:  112    charge:    1.7837    magn:    0.0006    constr:    0.0000
     atom:  113    charge:    1.8026    magn:    0.0002    constr:    0.0000
     atom:  114    charge:    1.7981    magn:   -0.0002    constr:    0.0000
     atom:  115    charge:    1.8006    magn:    0.0002    constr:    0.0000
     atom:  116    charge:    1.8069    magn:    0.0031    constr:    0.0000
     atom:  117    charge:    1.8036    magn:    0.0003    constr:    0.0000
     atom:  118    charge:    1.8018    magn:   -0.0007    constr:    0.0000
     atom:  119    charge:    1.7994    magn:    0.0039    constr:    0.0000
     atom:  120    charge:    1.8072    magn:   -0.0043    constr:    0.0000
     atom:  121    charge:    1.8047    magn:    0.0016    constr:    0.0000
     atom:  122    charge:    1.8035    magn:   -0.0001    constr:    0.0000
     atom:  123    charge:    1.8040    magn:    0.0002    constr:    0.0000
     atom:  124    charge:    1.8022    magn:    0.0001    constr:    0.0000
     atom:  125    charge:    1.8026    magn:    0.0002    constr:    0.0000
     atom:  126    charge:    1.7981    magn:   -0.0002    constr:    0.0000
     atom:  127    charge:    1.8041    magn:    0.0011    constr:    0.0000
     atom:  128    charge:    1.8021    magn:   -0.0001    constr:    0.0000
     atom:  129    charge:    1.8026    magn:    0.0002    constr:    0.0000
     atom:  130    charge:    1.7981    magn:   -0.0002    constr:    0.0000
     atom:  131    charge:    1.8006    magn:    0.0002    constr:    0.0000
     atom:  132    charge:    1.8061    magn:    0.0031    constr:    0.0000
     atom:  133    charge:    1.7997    magn:    0.0038    constr:    0.0000
     atom:  134    charge:    1.8046    magn:   -0.0043    constr:    0.0000
     atom:  135    charge:    1.8036    magn:    0.0003    constr:    0.0000
     atom:  136    charge:    1.8011    magn:   -0.0007    constr:    0.0000
     atom:  137    charge:    1.8034    magn:    0.0009    constr:    0.0000
     atom:  138    charge:    1.8031    magn:   -0.0011    constr:    0.0000
     atom:  139    charge:    1.8038    magn:    0.0011    constr:    0.0000
     atom:  140    charge:    1.8030    magn:   -0.0001    constr:    0.0000
     atom:  141    charge:    1.8012    magn:    0.0180    constr:    0.0000
     atom:  142    charge:    1.8025    magn:   -0.0011    constr:    0.0000
     atom:  143    charge:    1.7995    magn:    0.0180    constr:    0.0000
     atom:  144    charge:    1.8023    magn:   -0.0011    constr:    0.0000
     atom:  145    charge:    1.8043    magn:    0.0012    constr:    0.0000
     atom:  146    charge:    1.8074    magn:    0.0013    constr:    0.0000
     atom:  147    charge:    1.8056    magn:    0.0002    constr:    0.0000
     atom:  148    charge:    1.8082    magn:    0.0002    constr:    0.0000
     atom:  149    charge:    1.8041    magn:    0.0016    constr:    0.0000
     atom:  150    charge:    1.8033    magn:   -0.0001    constr:    0.0000
     atom:  151    charge:    1.8040    magn:    0.0016    constr:    0.0000
     atom:  152    charge:    1.8034    magn:   -0.0001    constr:    0.0000
     atom:  153    charge:    1.8024    magn:    0.0001    constr:    0.0000
     atom:  154    charge:    1.8036    magn:   -0.0001    constr:    0.0000
     atom:  155    charge:    1.8031    magn:    0.0008    constr:    0.0000
     atom:  156    charge:    1.8063    magn:   -0.0006    constr:    0.0000
     atom:  157    charge:    1.8031    magn:    0.0015    constr:    0.0000
     atom:  158    charge:    1.8034    magn:   -0.0001    constr:    0.0000
     atom:  159    charge:    1.8024    magn:    0.0002    constr:    0.0000
     atom:  160    charge:    1.7978    magn:   -0.0002    constr:    0.0000
     atom:  161    charge:    1.8031    magn:    0.0015    constr:    0.0000
     atom:  162    charge:    1.8034    magn:   -0.0001    constr:    0.0000
     atom:  163    charge:    1.8004    magn:    0.0002    constr:    0.0000
     atom:  164    charge:    1.8059    magn:    0.0029    constr:    0.0000
     atom:  165    charge:    1.8022    magn:    0.0002    constr:    0.0000
     atom:  166    charge:    1.8038    magn:   -0.0001    constr:    0.0000
     atom:  167    charge:    1.8031    magn:    0.0008    constr:    0.0000
     atom:  168    charge:    1.8028    magn:   -0.0011    constr:    0.0000
     atom:  169    charge:    1.8027    magn:    0.0001    constr:    0.0000
     atom:  170    charge:    1.8038    magn:   -0.0001    constr:    0.0000
     atom:  171    charge:    1.8034    magn:    0.0008    constr:    0.0000
     atom:  172    charge:    1.8066    magn:   -0.0006    constr:    0.0000
     atom:  173    charge:    1.8026    magn:    0.0002    constr:    0.0000
     atom:  174    charge:    1.7981    magn:   -0.0002    constr:    0.0000
     atom:  175    charge:    1.8035    magn:    0.0015    constr:    0.0000
     atom:  176    charge:    1.8037    magn:   -0.0001    constr:    0.0000
     atom:  177    charge:    1.8127    magn:    0.0002    constr:    0.0000
     atom:  178    charge:    1.7822    magn:    0.0006    constr:    0.0000
     atom:  179    charge:    1.7994    magn:    0.0037    constr:    0.0000
     atom:  180    charge:    1.8042    magn:   -0.0038    constr:    0.0000
     atom:  181    charge:    1.7994    magn:    0.0039    constr:    0.0000
     atom:  182    charge:    1.8072    magn:   -0.0043    constr:    0.0000
     atom:  183    charge:    1.7994    magn:    0.0037    constr:    0.0000
     atom:  184    charge:    1.8042    magn:   -0.0038    constr:    0.0000
     atom:  185    charge:    1.8037    magn:    0.0059    constr:    0.0000
     atom:  186    charge:    1.8040    magn:   -0.0010    constr:    0.0000
     atom:  187    charge:    1.7995    magn:    0.0174    constr:    0.0000
     atom:  188    charge:    1.8025    magn:   -0.0011    constr:    0.0000
     atom:  189    charge:    1.8087    magn:    0.2463    constr:    0.0000
     atom:  190    charge:    1.8105    magn:   -0.0082    constr:    0.0000
     atom:  191    charge:    1.8035    magn:    0.0016    constr:    0.0000
     atom:  192    charge:    1.8037    magn:   -0.0001    constr:    0.0000
     atom:  193    charge:    1.8006    magn:    0.0002    constr:    0.0000
     atom:  194    charge:    1.8061    magn:    0.0031    constr:    0.0000
     atom:  195    charge:    1.8034    magn:    0.0009    constr:    0.0000
     atom:  196    charge:    1.8031    magn:   -0.0011    constr:    0.0000
     atom:  197    charge:    1.8025    magn:    0.0002    constr:    0.0000
     atom:  198    charge:    1.8040    magn:   -0.0001    constr:    0.0000
     atom:  199    charge:    1.7997    magn:    0.0038    constr:    0.0000
     atom:  200    charge:    1.8046    magn:   -0.0043    constr:    0.0000
     atom:  201    charge:    1.8030    magn:    0.0060    constr:    0.0000
     atom:  202    charge:    1.8038    magn:   -0.0010    constr:    0.0000
     atom:  203    charge:    1.8112    magn:    0.2522    constr:    0.0000
     atom:  204    charge:    1.8100    magn:   -0.0084    constr:    0.0000
     atom:  205    charge:    1.7995    magn:    0.0180    constr:    0.0000
     atom:  206    charge:    1.8023    magn:   -0.0011    constr:    0.0000
     atom:  207    charge:    1.8112    magn:    0.2522    constr:    0.0000
     atom:  208    charge:    1.8100    magn:   -0.0084    constr:    0.0000
     atom:  209    charge:    1.8040    magn:    0.0170    constr:    0.0000
     atom:  210    charge:    1.8078    magn:    0.0017    constr:    0.0000
     atom:  211    charge:    1.8028    magn:    0.0070    constr:    0.0000
     atom:  212    charge:    1.8025    magn:   -0.0004    constr:    0.0000
     atom:  213    charge:    1.8015    magn:    0.0071    constr:    0.0000
     atom:  214    charge:    1.8017    magn:   -0.0004    constr:    0.0000
     atom:  215    charge:    2.8938    magn:   -0.0007    constr:    0.0000

     total cpu time spent up to now is      417.5 secs

     End of self-consistent calculation

 ------ SPIN UP ------------


          k = 0.0000 0.0000 0.0000 ( 54564 PWs)   bands (ev):

    -8.2691  -7.4423  -7.2608  -7.2605  -7.2191  -7.2165  -7.1333  -6.6023
    -6.2593  -6.2589  -6.2511  -6.2502  -6.2379  -6.2138  -6.2127  -6.1999
    -6.1611  -6.1556  -5.9866  -5.4887  -5.2344  -5.2286  -5.2263  -5.2059
    -5.2046  -5.2013  -5.0424  -4.4312  -4.2414  -4.2398  -4.2213  -4.2200
    -4.1629  -3.8393  -3.3502  -3.3501  -3.3426  -3.3420  -3.3418  -3.3290
    -3.3275  -3.3272  -3.3151  -3.3090  -3.3084  -3.3033  -3.3023  -3.3018
    -3.2767  -3.2743  -3.2629  -3.2610  -3.2595  -3.2356  -3.1788  -3.1748
    -2.9991  -2.7993  -2.5775  -2.5762  -2.5466  -2.5450  -2.5449  -2.5328
    -2.5269  -2.5267  -2.5231  -2.5164  -2.5151  -2.4942  -2.4897  -2.4893
    -2.4728  -2.4713  -2.4438  -2.4361  -2.4343  -2.3979  -2.3023  -2.2974
    -1.6237  -1.0334  -0.8685  -0.8681  -0.8336  -0.8307  -0.8238  -0.8216
    -0.8208  -0.8112  -0.7710  -0.7689  -0.4211   0.3798   0.4319   0.4324
     0.4529   0.4546   0.4929   0.7112   0.8885   0.8901   0.9306   0.9384
     0.9386   0.9468   0.9482   0.9507   0.9514   0.9676   0.9692   0.9772
     0.9772   0.9980   1.0309   1.0436   1.0446   1.0704   1.0710   1.0721
     1.0874   1.0876   1.1175   1.1393   1.1401   1.1459   1.1598   1.1602
     1.1608   1.1655   1.1675   1.1693   1.1801   1.1931   1.1936   1.2133
     1.2139   1.2167   1.2221   1.2243   1.2262   1.2264   1.2399   1.4589
     1.5693   1.5745   1.9704   2.2300   2.2302   2.2306   2.2753   2.2759
     2.2771   2.2827   2.3054   2.3057   2.4277   2.4298   3.3907   3.7395
     3.7399   3.7554   3.8098   3.8178   3.8179   3.8212   3.8234   3.8236
     3.8241   3.8292   3.8439   3.8451   3.8497   3.8630   3.8656   3.9845
     3.9860   3.9949   4.0246   4.3885   4.3891   4.4113   4.4862   4.4900
     4.4934   4.4939   4.4955   4.4959   4.5069   4.5070   4.5084   4.5172
     4.5184   4.5225   4.5269   4.5291   4.5431   4.5502   4.5511   4.5533
     4.7466   4.7476   5.2699   5.2707   5.2797   5.3317   5.3322   5.3330
     5.3358   5.3425   5.3434   5.3537   5.3544   5.3608   5.3729   5.3732
     5.4244   5.4258   5.4280   5.4409   5.4484   5.4796   5.4806   5.5466
     5.5604   5.5609   5.6312   5.7640   5.7645   5.8520   5.8614   5.8620
     5.8731   5.8763   5.8774   5.8828   5.8835   5.8849   5.8908   5.9012
     5.9082   5.9087   5.9259   5.9280   5.9361   5.9373   5.9567   5.9567
     5.9741   5.9957   5.9964   6.0447   6.0471   6.3228   6.3593   6.3630
     6.8648   6.8657   6.9229   6.9444   6.9535   6.9547   7.0668   7.4037
     7.4046   7.4822   7.4881   7.4885   7.5024   7.5038   7.5039   7.5291
     7.5813   7.5822   7.7424   7.7429   7.8569   7.8822   7.8827   7.8849
     7.8860   7.8890   7.8904   7.9177   7.9461   7.9468   7.9516   8.0932
     8.0961   8.1198   8.1451   8.1489   8.1493   8.1630   8.1670   8.1676
     8.1681   8.1702   8.1773   8.1779   8.1834   8.1847   8.2134   8.2136
     8.2239   8.2249   8.2299   8.2337   8.2340   8.2401   8.2914   8.2927
     8.3161   8.3417   8.3502   8.3538   8.3543   8.3564   8.3603   8.3604
     8.3609   8.3610   8.3700   8.3704   8.3758   8.3762   8.3812   8.3819
     8.3826   8.3846   8.3852   8.3939   8.3958   8.3963   8.4013   8.4084
     8.4086   8.4137   8.4320   8.4325   8.4449   8.4497   8.4499   8.4679
     8.4692   8.4973   8.4995   8.5038   8.5202   8.5534   8.5535   8.5582
     8.5691   8.6526   8.6627   8.9322   8.9383   8.9383   9.1110   9.1123
     9.1753   9.1756   9.1765   9.1841   9.2095   9.2121   9.2142   9.2162
     9.2333   9.2338   9.2397   9.2430   9.2446   9.2490   9.2521   9.2741
     9.3150   9.3156   9.3781  10.0451  10.1526  10.1557  10.4891  10.5439
    10.5445  10.5964  10.5976  10.5976  10.6160  10.6189  10.6194  10.6212
    10.6911  10.6935  10.7027  10.7902  10.7919  10.8498  10.8540  10.8541
    10.8594  10.8602  10.8641  10.8642  10.8739  10.8930  10.8940  10.9234
    10.9261  10.9271  10.9296  10.9593  10.9623  11.5199  11.5389  11.5389
    11.7650  11.7665  11.7772  11.8012  11.8024  11.8029  11.8261  11.8564
    11.8651  11.8693  12.9420  13.0299  13.0303  13.8927  14.9543  15.0141
    17.3565  17.3592  17.3754  17.4103  17.4111  17.4342  17.9337  18.0037
    18.0043  18.0196  18.0208  18.0755  18.1247  18.1278  18.1845  18.2277
    18.2284  18.2475  18.8422  18.8439  18.8647  19.4543  19.5352  19.5356
    19.5493  19.5822  19.5825  19.5936  19.5954  19.6052  19.6111  19.6122
    19.6511  20.0732  20.2422  20.2424  20.2735  20.2752  20.2757  20.2817
    20.2824  20.2826  20.2883  20.2887  20.3031  20.3127  20.3132  20.3153
    20.3397  20.3403  20.3420  20.3836  20.3848  20.3992  20.4246  20.4248
    20.4278  20.6978  20.7093  20.7133  20.7442  20.7492  20.7655  20.7656
    20.7706  20.7717  20.7734  20.7871  20.7873  20.8110  20.8298  20.8314
    20.8582  20.8614  20.8622  20.8761  20.8762  20.8784  20.8846  20.9006
    20.9015  20.9047  20.9160  20.9171  20.9262  20.9303  20.9465  20.9476
    20.9645  20.9757  20.9783  20.9802  21.0147  21.0685  21.0752  21.0788
    21.1212  21.1227  21.1367  21.2581  21.3431  21.3449  21.3666  21.3885
    21.3895  21.3945  21.3997  21.3999  21.4034  21.4054  21.4068  21.4189
    21.4204  21.4270  21.4425  21.4427  21.4467  21.4472  21.4484  21.4532
    21.4732  21.4743  21.4759  21.4763  21.4900  21.4942  21.4958  21.5092
    21.5107  21.5191  21.5262  21.5443  21.5494  21.5819  21.6816  21.6836
    21.6854  21.7139  21.7242  21.7299  21.7310  21.7414  21.7416  21.7442
    21.7517  21.7521  21.7858  21.7989  21.8008  21.8145  21.8520  21.8679
    21.8721  22.0066  22.0128  22.0225  22.0296  22.0327  22.1475  22.1480
    22.1532  22.2043  22.2090  22.2244  22.2317  22.2329  22.2359  22.3756
    22.3830  22.3839  22.4534  22.5048  22.5053  22.5210  22.5316  22.5317
    22.7090  22.7125  22.7160  22.8509  23.0003  23.0063  23.0190  23.1502
    23.1510  23.1616  23.1689  23.1690  23.1756  23.1770  23.1880  23.1913
    23.1937  23.1951  23.2063  23.2347  23.2524  23.2544  23.2624  23.3117
    23.3379  23.3405  23.3963  23.3963  23.4715  23.4893  23.4898  23.8216
    23.8285  23.8287  23.8343  23.8452  23.8525  23.8534  23.8702  23.8711
    23.8834  23.8892  23.8909  23.8991  23.8992  23.9130  23.9280  23.9481
    23.9984  24.0039  24.0050  24.1537  24.1540  24.2441  24.2474  24.3003
    24.3064  24.3081  24.3235  24.3537  24.3545  24.3549  24.3573  24.3578
    24.3742  24.4128  24.4137  24.4144  24.4540  24.4541  24.4605  24.4633
    24.4697  24.4723  24.4779  24.4997  24.5277  24.5457  24.5486  24.5532
    24.5560  24.5565  24.5640  24.5797  24.5887  24.5891  24.5968  24.6182
    24.6185  24.6344  24.6360  24.6614  24.6877  24.6974  24.7092  24.8092
    24.8172  24.9239  24.9369  25.5187  25.5511  25.5599  25.6896  25.8551
    25.8719  25.8730  25.8857  25.8859  26.0277  26.0378  26.0418  26.0424
    26.0956  26.0978  26.1510  26.1721  26.1734  26.1786  26.2654  26.3107
    26.3173  26.5339  26.6357  26.6358  26.6508  26.6781  26.6937  26.6969
    26.6970  26.7274  26.7291  26.7437  26.7447  26.7573  26.8240  26.8250
    26.8279  26.8354  26.8589  26.8603  26.9006  26.9019  26.9125  26.9902
    26.9918  27.1040  27.1053  27.1299  27.1352  27.1409  27.1424  27.1460
    27.1617  27.1620  27.1622  27.1656  27.1658  27.1945  27.1952  27.2227
    27.2296  27.2561  27.2585  27.2833  27.2875  27.2875  27.2964  27.2970
    27.3093  27.3166  27.3168  27.3224  27.3342  27.3431  27.3439  27.3530
    27.3538  27.3583  27.3623  27.3837  27.3837  27.4056  27.4086  27.4119
    27.4130  27.4244  27.4246  27.4286  27.4340  27.4353  27.4588  27.4715

     occupation numbers 
     1.0000   1.0000   1.0000   1.0000   1.0000   1.0000   1.0000   1.0000
     1.0000   1.0000   1.0000   1.0000   1.0000   1.0000   1.0000   1.0000
     1.0000   1.0000   1.0000   1.0000   1.0000   1.0000   1.0000   1.0000
     1.0000   1.0000   1.0000   1.0000   1.0000   1.0000   1.0000   1.0000
     1.0000   1.0000   1.0000   1.0000   1.0000   1.0000   1.0000   1.0000
     1.0000   1.0000   1.0000   1.0000   1.0000   1.0000   1.0000   1.0000
     1.0000   1.0000   1.0000   1.0000   1.0000   1.0000   1.0000   1.0000
     1.0000   1.0000   1.0000   1.0000   1.0000   1.0000   1.0000   1.0000
     1.0000   1.0000   1.0000   1.0000   1.0000   1.0000   1.0000   1.0000
     1.0000   1.0000   1.0000   1.0000   1.0000   1.0000   1.0000   1.0000
     1.0000   1.0000   1.0000   1.0000   1.0000   1.0000   1.0000   1.0000
     1.0000   1.0000   1.0000   1.0000   1.0000   1.0000   1.0000   1.0000
     1.0000   1.0000   1.0000   1.0000   1.0000   1.0000   1.0000   1.0000
     1.0000   1.0000   1.0000   1.0000   1.0000   1.0000   1.0000   1.0000
     1.0000   1.0000   1.0000   1.0000   1.0000   1.0000   1.0000   1.0000
     1.0000   1.0000   1.0000   1.0000   1.0000   1.0000   1.0000   1.0000
     1.0000   1.0000   1.0000   1.0000   1.0000   1.0000   1.0000   1.0000
     1.0000   1.0000   1.0000   1.0000   1.0000   1.0000   1.0000   1.0000
     1.0000   1.0000   1.0000   1.0000   1.0000   1.0000   1.0000   1.0000
     1.0000   1.0000   1.0000   1.0000   1.0000   1.0000   1.0000   1.0000
     1.0000   1.0000   1.0000   1.0000   1.0000   1.0000   1.0000   1.0000
     1.0000   1.0000   1.0000   1.0000   1.0000   1.0000   1.0000   1.0000
     1.0000   1.0000   1.0000   1.0000   1.0000   1.0000   1.0000   1.0000
     1.0000   1.0000   1.0000   1.0000   1.0000   1.0000   1.0000   1.0000
     1.0000   1.0000   1.0000   1.0000   1.0000   1.0000   1.0000   1.0000
     1.0000   1.0000   1.0000   1.0000   1.0000   1.0000   1.0000   1.0000
     1.0000   1.0000   1.0000   1.0000   1.0000   1.0000   1.0000   1.0000
     1.0000   1.0000   1.0000   1.0000   1.0000   1.0000   1.0000   1.0000
     1.0000   1.0000   1.0000   1.0000   1.0000   1.0000   1.0000   1.0000
     1.0000   1.0000   1.0000   1.0000   1.0000   1.0000   1.0000   1.0000
     1.0000   1.0000   1.0000   1.0000   1.0000   1.0000   1.0000   1.0000
     1.0000   1.0000   1.0000   1.0000   1.0000   1.0000   1.0000   1.0000
     1.0000   1.0000   1.0000   1.0000   1.0000   1.0000   1.0000   1.0000
     1.0000   1.0000   1.0000   1.0000   1.0000   1.0000   1.0000   1.0000
     1.0000   1.0000   1.0000   1.0000   1.0000   1.0000   1.0000   1.0000
     1.0000   1.0000   1.0000   1.0000   1.0000   1.0000   1.0000   1.0000
     1.0000   1.0000   1.0000   1.0000   1.0000   1.0000   1.0000   1.0000
     1.0000   1.0000   1.0000   1.0000   1.0000   1.0000   1.0000   1.0000
     1.0000   1.0000   1.0000   1.0000   1.0000   1.0000   1.0000   1.0000
     1.0000   1.0000   1.0000   1.0000   1.0000   1.0000   1.0000   1.0000
     1.0000   1.0000   1.0000   1.0000   1.0000   1.0000   1.0000   1.0000
     1.0000   1.0000   1.0000   1.0000   1.0000   1.0000   1.0000   1.0000
     1.0000   1.0000   1.0000   1.0000   1.0000   1.0000   1.0000   1.0000
     1.0000   1.0000   1.0000   1.0000   1.0000   1.0000   1.0000   1.0000
     1.0000   1.0000   1.0000   1.0000   1.0000   1.0000   1.0000   1.0000
     1.0000   1.0000   1.0000   1.0000   1.0000   1.0000   1.0000   1.0000
     1.0000   1.0000   1.0000   1.0000   1.0000   1.0000   1.0000   1.0000
     1.0000   1.0000   1.0000   1.0000   1.0000   1.0000   1.0000   1.0000
     1.0000   1.0000   1.0000   1.0000   1.0000   1.0000   1.0000   1.0000
     1.0000   1.0000   1.0000   1.0000   1.0000   1.0000   1.0000   1.0000
     1.0000   1.0000   1.0000   1.0000   1.0000   1.0000   1.0000   1.0000
     1.0000   1.0000   1.0000   1.0000   1.0000   1.0000   1.0000   1.0000
     1.0000   1.0000   1.0000   1.0000   1.0000   1.0000   1.0000   1.0000
     1.0000   1.0000   1.0000   1.0000   1.0000   1.0000   1.0000   1.0000
     0.0000   0.0000   0.0000   0.0000   0.0000   0.0000   0.0000   0.0000
     0.0000   0.0000   0.0000   0.0000   0.0000   0.0000   0.0000   0.0000
     0.0000   0.0000   0.0000   0.0000   0.0000   0.0000   0.0000   0.0000
     0.0000   0.0000   0.0000   0.0000   0.0000   0.0000   0.0000   0.0000
     0.0000   0.0000   0.0000   0.0000   0.0000   0.0000   0.0000   0.0000
     0.0000   0.0000   0.0000   0.0000   0.0000   0.0000   0.0000   0.0000
     0.0000   0.0000   0.0000   0.0000   0.0000   0.0000   0.0000   0.0000
     0.0000   0.0000   0.0000   0.0000   0.0000   0.0000   0.0000   0.0000
     0.0000   0.0000   0.0000   0.0000   0.0000   0.0000   0.0000   0.0000
     0.0000   0.0000   0.0000   0.0000   0.0000   0.0000   0.0000   0.0000
     0.0000   0.0000   0.0000   0.0000   0.0000   0.0000   0.0000   0.0000
     0.0000   0.0000   0.0000   0.0000   0.0000   0.0000   0.0000   0.0000
     0.0000   0.0000   0.0000   0.0000   0.0000   0.0000   0.0000   0.0000
     0.0000   0.0000   0.0000   0.0000   0.0000   0.0000   0.0000   0.0000
     0.0000   0.0000   0.0000   0.0000   0.0000   0.0000   0.0000   0.0000
     0.0000   0.0000   0.0000   0.0000   0.0000   0.0000   0.0000   0.0000
     0.0000   0.0000   0.0000   0.0000   0.0000   0.0000   0.0000   0.0000
     0.0000   0.0000   0.0000   0.0000   0.0000   0.0000   0.0000   0.0000
     0.0000   0.0000   0.0000   0.0000   0.0000   0.0000   0.0000   0.0000
     0.0000   0.0000   0.0000   0.0000   0.0000   0.0000   0.0000   0.0000
     0.0000   0.0000   0.0000   0.0000   0.0000   0.0000   0.0000   0.0000
     0.0000   0.0000   0.0000   0.0000   0.0000   0.0000   0.0000   0.0000
     0.0000   0.0000   0.0000   0.0000   0.0000   0.0000   0.0000   0.0000
     0.0000   0.0000   0.0000   0.0000   0.0000   0.0000   0.0000   0.0000
     0.0000   0.0000   0.0000   0.0000   0.0000   0.0000   0.0000   0.0000
     0.0000   0.0000   0.0000   0.0000   0.0000   0.0000   0.0000   0.0000
     0.0000   0.0000   0.0000   0.0000   0.0000   0.0000   0.0000   0.0000
     0.0000   0.0000   0.0000   0.0000   0.0000   0.0000   0.0000   0.0000
     0.0000   0.0000   0.0000   0.0000   0.0000   0.0000   0.0000   0.0000
     0.0000   0.0000   0.0000   0.0000   0.0000   0.0000   0.0000   0.0000
     0.0000   0.0000   0.0000   0.0000   0.0000   0.0000   0.0000   0.0000
     0.0000   0.0000   0.0000   0.0000   0.0000   0.0000   0.0000   0.0000
     0.0000   0.0000   0.0000   0.0000   0.0000   0.0000   0.0000   0.0000
     0.0000   0.0000   0.0000   0.0000   0.0000   0.0000   0.0000   0.0000
     0.0000   0.0000   0.0000   0.0000   0.0000   0.0000   0.0000   0.0000
     0.0000   0.0000   0.0000   0.0000   0.0000   0.0000   0.0000   0.0000
     0.0000   0.0000   0.0000   0.0000   0.0000   0.0000   0.0000   0.0000
     0.0000   0.0000   0.0000   0.0000   0.0000   0.0000   0.0000   0.0000
     0.0000   0.0000   0.0000   0.0000   0.0000   0.0000   0.0000   0.0000
     0.0000   0.0000   0.0000   0.0000   0.0000   0.0000   0.0000   0.0000
     0.0000   0.0000   0.0000   0.0000   0.0000   0.0000   0.0000   0.0000
     0.0000   0.0000   0.0000   0.0000   0.0000   0.0000   0.0000   0.0000
     0.0000   0.0000   0.0000   0.0000   0.0000   0.0000   0.0000   0.0000
     0.0000   0.0000   0.0000   0.0000   0.0000   0.0000   0.0000   0.0000
     0.0000   0.0000   0.0000   0.0000   0.0000   0.0000   0.0000   0.0000
     0.0000   0.0000   0.0000   0.0000   0.0000   0.0000   0.0000   0.0000

 ------ SPIN DOWN ----------


          k = 0.0000 0.0000 0.0000 ( 54564 PWs)   bands (ev):

    -8.2640  -7.4393  -7.2583  -7.2579  -7.2120  -7.2097  -7.1219  -6.5988
    -6.2572  -6.2569  -6.2489  -6.2480  -6.2336  -6.2070  -6.2064  -6.1968
    -6.1447  -6.1396  -5.9641  -5.4840  -5.2294  -5.2223  -5.2202  -5.1977
    -5.1901  -5.1870  -5.0186  -4.4193  -4.2360  -4.2345  -4.2112  -4.2105
    -4.1551  -3.8267  -3.3471  -3.3469  -3.3414  -3.3393  -3.3390  -3.3259
    -3.3238  -3.3235  -3.3137  -3.3065  -3.3062  -3.3000  -3.2988  -3.2982
    -3.2636  -3.2616  -3.2522  -3.2507  -3.2499  -3.2327  -3.1529  -3.1494
    -2.9865  -2.7957  -2.5756  -2.5742  -2.5437  -2.5411  -2.5405  -2.5306
    -2.5229  -2.5226  -2.5146  -2.5099  -2.5086  -2.4864  -2.4848  -2.4844
    -2.4686  -2.4673  -2.4324  -2.4237  -2.4218  -2.3890  -2.2363  -2.2322
    -1.5624  -1.0254  -0.8644  -0.8640  -0.8239  -0.8212  -0.8193  -0.8154
    -0.8151  -0.8055  -0.7388  -0.7370  -0.3602   0.3922   0.4353   0.4360
     0.4602   0.4620   0.4993   0.7310   0.8914   0.8930   0.9309   0.9401
     0.9402   0.9496   0.9509   0.9527   0.9535   0.9721   0.9736   0.9800
     0.9801   1.0048   1.0422   1.0525   1.0534   1.0761   1.0795   1.0810
     1.1068   1.1068   1.1212   1.1427   1.1435   1.1526   1.1627   1.1642
     1.1649   1.1681   1.1738   1.1756   1.1899   1.1983   1.1983   1.2195
     1.2204   1.2237   1.2304   1.2314   1.2456   1.2466   1.2738   1.4741
     1.6227   1.6264   1.9925   2.2359   2.2360   2.2473   2.2781   2.2799
     2.2808   2.2923   2.3111   2.3113   2.4896   2.4907   3.4602   3.7451
     3.7454   3.7658   3.8114   3.8216   3.8217   3.8263   3.8266   3.8298
     3.8319   3.8327   3.8497   3.8508   3.8581   3.8732   3.8758   4.0002
     4.0012   4.0059   4.0456   4.3949   4.3956   4.4323   4.4871   4.4933
     4.4956   4.4960   4.5021   4.5023   4.5107   4.5111   4.5119   4.5227
     4.5237   4.5338   4.5341   4.5372   4.5542   4.5619   4.5627   4.5647
     4.8071   4.8073   5.2743   5.2751   5.2943   5.3336   5.3340   5.3356
     5.3372   5.3451   5.3460   5.3577   5.3585   5.3631   5.3762   5.3764
     5.4313   5.4329   5.4380   5.4488   5.4549   5.4931   5.4939   5.5492
     5.5712   5.5713   5.6702   5.7695   5.7702   5.8634   5.8634   5.8640
     5.8782   5.8799   5.8808   5.8885   5.8906   5.8918   5.8975   5.9091
     5.9131   5.9133   5.9382   5.9405   5.9425   5.9478   5.9705   5.9707
     5.9958   6.0125   6.0137   6.0554   6.0579   6.3457   6.4059   6.4078
     6.8714   6.8723   6.9322   6.9524   6.9713   6.9722   7.1466   7.4169
     7.4175   7.4901   7.4912   7.4913   7.5072   7.5114   7.5116   7.5444
     7.5967   7.5979   7.7469   7.7475   7.8679   7.8876   7.8886   7.8895
     7.9012   7.9024   7.9100   7.9276   7.9567   7.9574   7.9670   8.1027
     8.1053   8.1224   8.1477   8.1512   8.1515   8.1654   8.1687   8.1692
     8.1711   8.1732   8.1796   8.1827   8.1861   8.1874   8.2188   8.2194
     8.2318   8.2331   8.2355   8.2446   8.2446   8.2451   8.2972   8.2984
     8.3236   8.3511   8.3557   8.3562   8.3564   8.3593   8.3626   8.3629
     8.3641   8.3642   8.3736   8.3744   8.3795   8.3801   8.3855   8.3859
     8.3865   8.3903   8.3911   8.4003   8.4013   8.4019   8.4183   8.4186
     8.4200   8.4213   8.4408   8.4422   8.4515   8.4590   8.4596   8.4741
     8.4755   8.5092   8.5124   8.5291   8.5391   8.5646   8.5755   8.5755
     8.5811   8.6923   8.7021   8.9443   8.9578   8.9585   9.1167   9.1181
     9.1781   9.1781   9.1792   9.1860   9.2163   9.2167   9.2184   9.2250
     9.2406   9.2408   9.2519   9.2553   9.2576   9.2678   9.2700   9.2796
     9.3421   9.3432   9.4140  10.0618  10.2294  10.2297  10.5583  10.5592
    10.5986  10.5997  10.6035  10.6174  10.6196  10.6337  10.6338  10.6606
    10.6967  10.6991  10.7109  10.7947  10.7963  10.8574  10.8580  10.8583
    10.8663  10.8673  10.8759  10.8766  10.8796  10.9088  10.9101  10.9369
    10.9388  10.9389  10.9462  10.9662  10.9691  11.5323  11.5703  11.5712
    11.7724  11.7736  11.7791  11.8063  11.8074  11.8083  11.8397  11.8787
    11.8867  12.2177  13.0636  13.0721  13.0735  14.5001  16.3871  16.4245
    17.3604  17.3630  17.3865  17.4235  17.4244  17.4444  17.9389  18.0125
    18.0133  18.0258  18.0267  18.0832  18.1296  18.1327  18.2129  18.2476
    18.2486  18.2585  18.8639  18.8662  18.8753  19.4626  19.5383  19.5388
    19.5519  19.5919  19.5925  19.6000  19.6011  19.6093  19.6165  19.6174
    19.6582  20.0777  20.2451  20.2451  20.2753  20.2784  20.2789  20.2844
    20.2863  20.2866  20.2965  20.2966  20.3095  20.3177  20.3182  20.3197
    20.3471  20.3504  20.3513  20.3906  20.3918  20.4064  20.4325  20.4339
    20.4359  20.7026  20.7154  20.7194  20.7463  20.7513  20.7678  20.7679
    20.7735  20.7741  20.7754  20.7900  20.7902  20.8129  20.8338  20.8353
    20.8622  20.8649  20.8657  20.8799  20.8801  20.8826  20.8958  20.9052
    20.9168  20.9181  20.9294  20.9307  20.9393  20.9411  20.9531  20.9544
    20.9675  20.9865  20.9875  20.9882  21.0241  21.0798  21.0810  21.0846
    21.1295  21.1307  21.1429  21.2627  21.3482  21.3501  21.3707  21.3926
    21.3937  21.4012  21.4029  21.4031  21.4046  21.4108  21.4121  21.4233
    21.4247  21.4308  21.4470  21.4475  21.4532  21.4537  21.4550  21.4583
    21.4798  21.4801  21.4845  21.4852  21.4971  21.5144  21.5177  21.5203
    21.5218  21.5337  21.5428  21.5738  21.5799  21.6143  21.6884  21.6941
    21.6967  21.7168  21.7270  21.7355  21.7365  21.7492  21.7498  21.7516
    21.7593  21.7594  21.7958  21.8033  21.8052  21.8205  21.8765  21.8881
    21.8937  22.0141  22.0303  22.0365  22.0552  22.0601  22.1505  22.1508
    22.1560  22.2200  22.2245  22.2365  22.2397  22.2435  22.2445  22.3867
    22.3937  22.3943  22.4708  22.5131  22.5136  22.5297  22.5352  22.5354
    22.7297  22.7621  22.7638  22.9227  23.0196  23.0257  23.0410  23.1557
    23.1567  23.1638  23.1715  23.1715  23.1806  23.1817  23.1936  23.1943
    23.1963  23.2001  23.2126  23.2464  23.2694  23.2705  23.2838  23.3429
    23.3958  23.3971  23.4164  23.4165  23.4887  23.5267  23.5281  23.8243
    23.8332  23.8336  23.8418  23.8481  23.8566  23.8578  23.8731  23.8740
    23.8913  23.9045  23.9052  23.9087  23.9104  23.9349  23.9381  23.9723
    24.0115  24.0289  24.0306  24.1701  24.1704  24.2651  24.2674  24.3068
    24.3110  24.3128  24.3274  24.3572  24.3580  24.3613  24.3622  24.3633
    24.3804  24.4180  24.4190  24.4207  24.4627  24.4629  24.4767  24.4785
    24.4825  24.4887  24.4903  24.5087  24.5323  24.5513  24.5615  24.5623
    24.5772  24.5825  24.5842  24.5853  24.5923  24.5926  24.6024  24.6324
    24.6330  24.6571  24.6581  24.6864  24.7153  24.7278  24.7443  24.9414
    24.9460  24.9906  25.0036  25.5679  25.5979  25.6069  25.7183  25.8615
    25.8856  25.8878  25.8978  25.8994  26.0325  26.0423  26.0479  26.0483
    26.1043  26.1065  26.1633  26.1913  26.1926  26.1986  26.2839  26.3402
    26.3473  26.5520  26.6427  26.6428  26.6644  26.6869  26.6987  26.7027
    26.7028  26.7343  26.7361  26.7530  26.7538  26.7685  26.8352  26.8373
    26.8382  26.8415  26.8643  26.8657  26.9134  26.9147  26.9167  27.0196
    27.0220  27.1098  27.1112  27.1332  27.1426  27.1443  27.1458  27.1524
    27.1651  27.1661  27.1664  27.1701  27.1702  27.2006  27.2010  27.2342
    27.2353  27.2609  27.2634  27.2902  27.2945  27.2946  27.3005  27.3009
    27.3139  27.3254  27.3258  27.3287  27.3410  27.3513  27.3530  27.3597
    27.3598  27.3668  27.3770  27.4029  27.4029  27.4126  27.4140  27.4174
    27.4186  27.4300  27.4303  27.4370  27.4428  27.4438  27.4767  27.4887

     occupation numbers 
     1.0000   1.0000   1.0000   1.0000   1.0000   1.0000   1.0000   1.0000
     1.0000   1.0000   1.0000   1.0000   1.0000   1.0000   1.0000   1.0000
     1.0000   1.0000   1.0000   1.0000   1.0000   1.0000   1.0000   1.0000
     1.0000   1.0000   1.0000   1.0000   1.0000   1.0000   1.0000   1.0000
     1.0000   1.0000   1.0000   1.0000   1.0000   1.0000   1.0000   1.0000
     1.0000   1.0000   1.0000   1.0000   1.0000   1.0000   1.0000   1.0000
     1.0000   1.0000   1.0000   1.0000   1.0000   1.0000   1.0000   1.0000
     1.0000   1.0000   1.0000   1.0000   1.0000   1.0000   1.0000   1.0000
     1.0000   1.0000   1.0000   1.0000   1.0000   1.0000   1.0000   1.0000
     1.0000   1.0000   1.0000   1.0000   1.0000   1.0000   1.0000   1.0000
     1.0000   1.0000   1.0000   1.0000   1.0000   1.0000   1.0000   1.0000
     1.0000   1.0000   1.0000   1.0000   1.0000   1.0000   1.0000   1.0000
     1.0000   1.0000   1.0000   1.0000   1.0000   1.0000   1.0000   1.0000
     1.0000   1.0000   1.0000   1.0000   1.0000   1.0000   1.0000   1.0000
     1.0000   1.0000   1.0000   1.0000   1.0000   1.0000   1.0000   1.0000
     1.0000   1.0000   1.0000   1.0000   1.0000   1.0000   1.0000   1.0000
     1.0000   1.0000   1.0000   1.0000   1.0000   1.0000   1.0000   1.0000
     1.0000   1.0000   1.0000   1.0000   1.0000   1.0000   1.0000   1.0000
     1.0000   1.0000   1.0000   1.0000   1.0000   1.0000   1.0000   1.0000
     1.0000   1.0000   1.0000   1.0000   1.0000   1.0000   1.0000   1.0000
     1.0000   1.0000   1.0000   1.0000   1.0000   1.0000   1.0000   1.0000
     1.0000   1.0000   1.0000   1.0000   1.0000   1.0000   1.0000   1.0000
     1.0000   1.0000   1.0000   1.0000   1.0000   1.0000   1.0000   1.0000
     1.0000   1.0000   1.0000   1.0000   1.0000   1.0000   1.0000   1.0000
     1.0000   1.0000   1.0000   1.0000   1.0000   1.0000   1.0000   1.0000
     1.0000   1.0000   1.0000   1.0000   1.0000   1.0000   1.0000   1.0000
     1.0000   1.0000   1.0000   1.0000   1.0000   1.0000   1.0000   1.0000
     1.0000   1.0000   1.0000   1.0000   1.0000   1.0000   1.0000   1.0000
     1.0000   1.0000   1.0000   1.0000   1.0000   1.0000   1.0000   1.0000
     1.0000   1.0000   1.0000   1.0000   1.0000   1.0000   1.0000   1.0000
     1.0000   1.0000   1.0000   1.0000   1.0000   1.0000   1.0000   1.0000
     1.0000   1.0000   1.0000   1.0000   1.0000   1.0000   1.0000   1.0000
     1.0000   1.0000   1.0000   1.0000   1.0000   1.0000   1.0000   1.0000
     1.0000   1.0000   1.0000   1.0000   1.0000   1.0000   1.0000   1.0000
     1.0000   1.0000   1.0000   1.0000   1.0000   1.0000   1.0000   1.0000
     1.0000   1.0000   1.0000   1.0000   1.0000   1.0000   1.0000   1.0000
     1.0000   1.0000   1.0000   1.0000   1.0000   1.0000   1.0000   1.0000
     1.0000   1.0000   1.0000   1.0000   1.0000   1.0000   1.0000   1.0000
     1.0000   1.0000   1.0000   1.0000   1.0000   1.0000   1.0000   1.0000
     1.0000   1.0000   1.0000   1.0000   1.0000   1.0000   1.0000   1.0000
     1.0000   1.0000   1.0000   1.0000   1.0000   1.0000   1.0000   1.0000
     1.0000   1.0000   1.0000   1.0000   1.0000   1.0000   1.0000   1.0000
     1.0000   1.0000   1.0000   1.0000   1.0000   1.0000   1.0000   1.0000
     1.0000   1.0000   1.0000   1.0000   1.0000   1.0000   1.0000   1.0000
     1.0000   1.0000   1.0000   1.0000   1.0000   1.0000   1.0000   1.0000
     1.0000   1.0000   1.0000   1.0000   1.0000   1.0000   1.0000   1.0000
     1.0000   1.0000   1.0000   1.0000   1.0000   1.0000   1.0000   1.0000
     1.0000   1.0000   1.0000   1.0000   1.0000   1.0000   1.0000   1.0000
     1.0000   1.0000   1.0000   1.0000   1.0000   1.0000   1.0000   1.0000
     1.0000   1.0000   1.0000   1.0000   1.0000   1.0000   1.0000   1.0000
     1.0000   1.0000   1.0000   1.0000   1.0000   1.0000   1.0000   1.0000
     1.0000   1.0000   1.0000   1.0000   1.0000   1.0000   1.0000   1.0000
     1.0000   1.0000   1.0000   1.0000   1.0000   1.0000   1.0000   1.0000
     1.0000   1.0000   1.0000   1.0000   1.0000   1.0000   0.0000   0.0000
     0.0000   0.0000   0.0000   0.0000   0.0000   0.0000   0.0000   0.0000
     0.0000   0.0000   0.0000   0.0000   0.0000   0.0000   0.0000   0.0000
     0.0000   0.0000   0.0000   0.0000   0.0000   0.0000   0.0000   0.0000
     0.0000   0.0000   0.0000   0.0000   0.0000   0.0000   0.0000   0.0000
     0.0000   0.0000   0.0000   0.0000   0.0000   0.0000   0.0000   0.0000
     0.0000   0.0000   0.0000   0.0000   0.0000   0.0000   0.0000   0.0000
     0.0000   0.0000   0.0000   0.0000   0.0000   0.0000   0.0000   0.0000
     0.0000   0.0000   0.0000   0.0000   0.0000   0.0000   0.0000   0.0000
     0.0000   0.0000   0.0000   0.0000   0.0000   0.0000   0.0000   0.0000
     0.0000   0.0000   0.0000   0.0000   0.0000   0.0000   0.0000   0.0000
     0.0000   0.0000   0.0000   0.0000   0.0000   0.0000   0.0000   0.0000
     0.0000   0.0000   0.0000   0.0000   0.0000   0.0000   0.0000   0.0000
     0.0000   0.0000   0.0000   0.0000   0.0000   0.0000   0.0000   0.0000
     0.0000   0.0000   0.0000   0.0000   0.0000   0.0000   0.0000   0.0000
     0.0000   0.0000   0.0000   0.0000   0.0000   0.0000   0.0000   0.0000
     0.0000   0.0000   0.0000   0.0000   0.0000   0.0000   0.0000   0.0000
     0.0000   0.0000   0.0000   0.0000   0.0000   0.0000   0.0000   0.0000
     0.0000   0.0000   0.0000   0.0000   0.0000   0.0000   0.0000   0.0000
     0.0000   0.0000   0.0000   0.0000   0.0000   0.0000   0.0000   0.0000
     0.0000   0.0000   0.0000   0.0000   0.0000   0.0000   0.0000   0.0000
     0.0000   0.0000   0.0000   0.0000   0.0000   0.0000   0.0000   0.0000
     0.0000   0.0000   0.0000   0.0000   0.0000   0.0000   0.0000   0.0000
     0.0000   0.0000   0.0000   0.0000   0.0000   0.0000   0.0000   0.0000
     0.0000   0.0000   0.0000   0.0000   0.0000   0.0000   0.0000   0.0000
     0.0000   0.0000   0.0000   0.0000   0.0000   0.0000   0.0000   0.0000
     0.0000   0.0000   0.0000   0.0000   0.0000   0.0000   0.0000   0.0000
     0.0000   0.0000   0.0000   0.0000   0.0000   0.0000   0.0000   0.0000
     0.0000   0.0000   0.0000   0.0000   0.0000   0.0000   0.0000   0.0000
     0.0000   0.0000   0.0000   0.0000   0.0000   0.0000   0.0000   0.0000
     0.0000   0.0000   0.0000   0.0000   0.0000   0.0000   0.0000   0.0000
     0.0000   0.0000   0.0000   0.0000   0.0000   0.0000   0.0000   0.0000
     0.0000   0.0000   0.0000   0.0000   0.0000   0.0000   0.0000   0.0000
     0.0000   0.0000   0.0000   0.0000   0.0000   0.0000   0.0000   0.0000
     0.0000   0.0000   0.0000   0.0000   0.0000   0.0000   0.0000   0.0000
     0.0000   0.0000   0.0000   0.0000   0.0000   0.0000   0.0000   0.0000
     0.0000   0.0000   0.0000   0.0000   0.0000   0.0000   0.0000   0.0000
     0.0000   0.0000   0.0000   0.0000   0.0000   0.0000   0.0000   0.0000
     0.0000   0.0000   0.0000   0.0000   0.0000   0.0000   0.0000   0.0000
     0.0000   0.0000   0.0000   0.0000   0.0000   0.0000   0.0000   0.0000
     0.0000   0.0000   0.0000   0.0000   0.0000   0.0000   0.0000   0.0000
     0.0000   0.0000   0.0000   0.0000   0.0000   0.0000   0.0000   0.0000
     0.0000   0.0000   0.0000   0.0000   0.0000   0.0000   0.0000   0.0000
     0.0000   0.0000   0.0000   0.0000   0.0000   0.0000   0.0000   0.0000
     0.0000   0.0000   0.0000   0.0000   0.0000   0.0000   0.0000   0.0000
     0.0000   0.0000   0.0000   0.0000   0.0000   0.0000   0.0000   0.0000
     0.0000   0.0000   0.0000   0.0000   0.0000   0.0000   0.0000   0.0000

     highest occupied, lowest unoccupied level (ev):    15.0141   16.3871

!    total energy              =   -2456.51019114 Ry
     Harris-Foulkes estimate   =   -2456.51019114 Ry
     estimated scf accuracy    <          4.7E-11 Ry

     The total energy is the sum of the following terms:

     one-electron contribution =     836.01559780 Ry
     hartree contribution      =     217.57960719 Ry
     xc contribution           =    -767.29649300 Ry
     ewald contribution        =   -2742.80890313 Ry

     total magnetization       =     2.00 Bohr mag/cell
     absolute magnetization    =     2.28 Bohr mag/cell

     convergence has been achieved in  20 iterations

     Forces acting on atoms (cartesian axes, Ry/au):

     atom    1 type  1   force =    -0.00001124    0.00004352    0.00003037
     atom    2 type  1   force =     0.00003948    0.00002324    0.00002522
     atom    3 type  1   force =    -0.00002526    0.00000415   -0.00000057
     atom    4 type  1   force =     0.00000560    0.00002422    0.00001284
     atom    5 type  1   force =    -0.00002591   -0.00000815    0.00002046
     atom    6 type  1   force =     0.00001421    0.00000113   -0.00000738
     atom    7 type  1   force =    -0.00002954    0.00002510   -0.00002954
     atom    8 type  1   force =     0.00001072   -0.00000370    0.00001072
     atom    9 type  1   force =    -0.00006690   -0.00005065    0.00008695
     atom   10 type  1   force =     0.00003420   -0.00001379   -0.00002434
     atom   11 type  1   force =    -0.00007434    0.00008282   -0.00002957
     atom   12 type  1   force =    -0.00037008    0.00032333    0.00011533
     atom   13 type  1   force =    -0.00004436   -0.00004603    0.00010110
     atom   14 type  1   force =    -0.00002903    0.00004164    0.00001605
     atom   15 type  1   force =     0.00002075   -0.00001415    0.00000076
     atom   16 type  1   force =     0.00004382   -0.00002214   -0.00000793
     atom   17 type  1   force =     0.00001585   -0.00006026    0.00006090
     atom   18 type  1   force =    -0.00004347   -0.00005248    0.00001879
     atom   19 type  1   force =    -0.00002304    0.00003433   -0.00002304
     atom   20 type  1   force =     0.00008499   -0.00002557    0.00008499
     atom   21 type  1   force =     0.00003037    0.00004352   -0.00001124
     atom   22 type  1   force =     0.00002522    0.00002324    0.00003948
     atom   23 type  1   force =    -0.00015004    0.00018735   -0.00000703
     atom   24 type  1   force =    -0.00000421    0.00000866    0.00004386
     atom   25 type  1   force =    -0.00006965    0.00005306   -0.00010729
     atom   26 type  1   force =     0.00002336   -0.00000598    0.00000077
     atom   27 type  1   force =    -0.00006223   -0.00000907    0.00004883
     atom   28 type  1   force =    -0.00048186    0.00001773    0.00047302
     atom   29 type  1   force =     0.00001793    0.00000362   -0.00002605
     atom   30 type  1   force =     0.00002122   -0.00000990   -0.00000446
     atom   31 type  1   force =    -0.00010617    0.00001503   -0.00010617
     atom   32 type  1   force =    -0.00002317   -0.00002895   -0.00002317
     atom   33 type  1   force =    -0.00002985    0.00000657    0.00000245
     atom   34 type  1   force =    -0.00003807    0.00004057    0.00013031
     atom   35 type  1   force =    -0.00054514    0.00012130   -0.00021991
     atom   36 type  1   force =     0.00045319    0.00003654    0.00002240
     atom   37 type  1   force =     0.00008709   -0.00002596   -0.00010428
     atom   38 type  1   force =     0.00004954   -0.00005592   -0.00001097
     atom   39 type  1   force =     0.00011795   -0.00005757   -0.00003750
     atom   40 type  1   force =     0.00001325    0.00000644   -0.00000409
     atom   41 type  1   force =    -0.00070998    0.00070499   -0.00063347
     atom   42 type  1   force =     0.00014452   -0.00019548    0.00021892
     atom   43 type  1   force =    -0.00081383    0.00056465   -0.00081383
     atom   44 type  1   force =    -0.00016187    0.00002511   -0.00016187
     atom   45 type  1   force =    -0.00010729    0.00005306   -0.00006965
     atom   46 type  1   force =     0.00000077   -0.00000598    0.00002336
     atom   47 type  1   force =    -0.00017693    0.00000525   -0.00004395
     atom   48 type  1   force =     0.00007655    0.00006304    0.00003571
     atom   49 type  1   force =    -0.00003010    0.00003825   -0.00004984
     atom   50 type  1   force =    -0.00004426    0.00004578   -0.00004932
     atom   51 type  1   force =    -0.00002893   -0.00005178    0.00003154
     atom   52 type  1   force =     0.00006682    0.00004040   -0.00001937
     atom   53 type  1   force =    -0.00017590    0.00005759    0.00018547
     atom   54 type  1   force =     0.00002644    0.00003737    0.00003995
     atom   55 type  1   force =     0.00004077   -0.00000499    0.00004077
     atom   56 type  1   force =     0.00003055    0.00001484    0.00003055
     atom   57 type  1   force =    -0.00040681    0.00003837    0.00052859
     atom   58 type  1   force =     0.00003454    0.00020199   -0.00011170
     atom   59 type  1   force =    -0.00055616   -0.00038689    0.00114729
     atom   60 type  1   force =    -0.00000721    0.00002877   -0.00018413
     atom   61 type  1   force =    -0.00010023   -0.00009236   -0.00003776
     atom   62 type  1   force =     0.00005079    0.00009780    0.00004675
     atom   63 type  1   force =    -0.00009440   -0.00005934    0.00004883
     atom   64 type  1   force =     0.00002953   -0.00002289   -0.00000813
     atom   65 type  1   force =    -0.00118280    0.00026061    0.00029135
     atom   66 type  1   force =    -0.00005263    0.00012723    0.00007843
     atom   67 type  1   force =     0.00004232    0.00004913    0.00004232
     atom   68 type  1   force =     0.00005741    0.00003670    0.00005741
     atom   69 type  1   force =    -0.00004984    0.00003825   -0.00003010
     atom   70 type  1   force =    -0.00004932    0.00004578   -0.00004426
     atom   71 type  1   force =    -0.00006680   -0.00004922    0.00006351
     atom   72 type  1   force =    -0.00004378   -0.00006319    0.00004523
     atom   73 type  1   force =     0.00002046   -0.00000815   -0.00002591
     atom   74 type  1   force =    -0.00000738    0.00000113    0.00001421
     atom   75 type  1   force =     0.00000643    0.00000492    0.00000643
     atom   76 type  1   force =    -0.00000799    0.00000124   -0.00000799
     atom   77 type  1   force =     0.00000576    0.00003190   -0.00002298
     atom   78 type  1   force =     0.00001486   -0.00000020    0.00002185
     atom   79 type  1   force =     0.00000076   -0.00001415    0.00002075
     atom   80 type  1   force =    -0.00000793   -0.00002214    0.00004382
     atom   81 type  1   force =    -0.00002298    0.00003190    0.00000576
     atom   82 type  1   force =     0.00002185   -0.00000020    0.00001486
     atom   83 type  1   force =    -0.00007159   -0.00003866    0.00006353
     atom   84 type  1   force =    -0.00008540   -0.00010154   -0.00017937
     atom   85 type  1   force =    -0.00008088    0.00005928   -0.00011250
     atom   86 type  1   force =    -0.00004449    0.00003982   -0.00001438
     atom   87 type  1   force =     0.00002530    0.00001721    0.00002530
     atom   88 type  1   force =    -0.00001260    0.00003341   -0.00001260
     atom   89 type  1   force =     0.00008872   -0.00008240   -0.00012669
     atom   90 type  1   force =     0.00001128   -0.00000789    0.00005971
     atom   91 type  1   force =    -0.00000057    0.00000415   -0.00002526
     atom   92 type  1   force =     0.00001284    0.00002422    0.00000560
     atom   93 type  1   force =     0.00008695   -0.00005065   -0.00006690
     atom   94 type  1   force =    -0.00002434   -0.00001379    0.00003420
     atom   95 type  1   force =     0.00000958    0.00001881   -0.00000159
     atom   96 type  1   force =     0.00003724    0.00005475    0.00010536
     atom   97 type  1   force =    -0.00002605    0.00000362    0.00001793
     atom   98 type  1   force =    -0.00000446   -0.00000990    0.00002122
     atom   99 type  1   force =    -0.00005435    0.00006943   -0.00005435
     atom  100 type  1   force =    -0.00004552   -0.00011633   -0.00004552
     atom  101 type  1   force =     0.00003425    0.00001894    0.00001817
     atom  102 type  1   force =    -0.00003545   -0.00004003    0.00002062
     atom  103 type  1   force =    -0.00003750   -0.00005757    0.00011795
     atom  104 type  1   force =    -0.00000409    0.00000644    0.00001325
     atom  105 type  1   force =     0.00001817    0.00001894    0.00003425
     atom  106 type  1   force =     0.00002062   -0.00004003   -0.00003545
     atom  107 type  1   force =     0.00011004    0.00001410    0.00002379
     atom  108 type  1   force =     0.00007147   -0.00004352   -0.00005882
     atom  109 type  1   force =    -0.00011770   -0.00015686    0.00039486
     atom  110 type  1   force =    -0.00013449   -0.00024633   -0.00097015
     atom  111 type  1   force =    -0.00007227    0.00019052   -0.00007227
     atom  112 type  1   force =     0.00031447   -0.00055763    0.00031447
     atom  113 type  1   force =    -0.00001175   -0.00000889    0.00002339
     atom  114 type  1   force =    -0.00000491    0.00002997    0.00003467
     atom  115 type  1   force =     0.00004883   -0.00000907   -0.00006223
     atom  116 type  1   force =     0.00047302    0.00001773   -0.00048186
     atom  117 type  1   force =     0.00000245    0.00000657   -0.00002985
     atom  118 type  1   force =     0.00013031    0.00004057   -0.00003807
     atom  119 type  1   force =     0.00021305    0.00018752    0.00005785
     atom  120 type  1   force =    -0.00063193   -0.00271175    0.00088664
     atom  121 type  1   force =     0.00018547    0.00005759   -0.00017590
     atom  122 type  1   force =     0.00003995    0.00003737    0.00002644
     atom  123 type  1   force =    -0.00001077   -0.00002066   -0.00001077
     atom  124 type  1   force =     0.00001262   -0.00001606    0.00001262
     atom  125 type  1   force =     0.00000470    0.00000485    0.00001202
     atom  126 type  1   force =     0.00005751    0.00008198    0.00011872
     atom  127 type  1   force =     0.00004883   -0.00005934   -0.00009440
     atom  128 type  1   force =    -0.00000813   -0.00002289    0.00002953
     atom  129 type  1   force =     0.00001202    0.00000485    0.00000470
     atom  130 type  1   force =     0.00011872    0.00008198    0.00005751
     atom  131 type  1   force =     0.00007559   -0.00006400   -0.00004560
     atom  132 type  1   force =     0.00020505   -0.00019828    0.00032636
     atom  133 type  1   force =     0.00067056   -0.00009373    0.00011373
     atom  134 type  1   force =    -0.00181990    0.00255748    0.00066102
     atom  135 type  1   force =    -0.00001697   -0.00000819   -0.00001697
     atom  136 type  1   force =     0.00020251   -0.00014936    0.00020251
     atom  137 type  1   force =    -0.00010358    0.00002851    0.00013141
     atom  138 type  1   force =    -0.00022436    0.00022014    0.00011219
     atom  139 type  1   force =     0.00003154   -0.00005178   -0.00002893
     atom  140 type  1   force =    -0.00001937    0.00004040    0.00006682
     atom  141 type  1   force =     0.00052859    0.00003837   -0.00040681
     atom  142 type  1   force =    -0.00011170    0.00020199    0.00003454
     atom  143 type  1   force =     0.00043079   -0.00012464   -0.00112122
     atom  144 type  1   force =    -0.00014393   -0.00000431    0.00012976
     atom  145 type  1   force =     0.00010110   -0.00004603   -0.00004436
     atom  146 type  1   force =     0.00001605    0.00004164   -0.00002903
     atom  147 type  1   force =     0.00006353   -0.00003866   -0.00007159
     atom  148 type  1   force =    -0.00017937   -0.00010154   -0.00008540
     atom  149 type  1   force =    -0.00012669   -0.00008240    0.00008872
     atom  150 type  1   force =     0.00005971   -0.00000789    0.00001128
     atom  151 type  1   force =    -0.00000703    0.00018735   -0.00015004
     atom  152 type  1   force =     0.00004386    0.00000866   -0.00000421
     atom  153 type  1   force =    -0.00011250    0.00005928   -0.00008088
     atom  154 type  1   force =    -0.00001438    0.00003982   -0.00004449
     atom  155 type  1   force =     0.00000422    0.00008783    0.00000422
     atom  156 type  1   force =    -0.00006601    0.00009281   -0.00006601
     atom  157 type  1   force =    -0.00008484   -0.00016856    0.00005589
     atom  158 type  1   force =     0.00006826    0.00003247    0.00004494
     atom  159 type  1   force =    -0.00000159    0.00001881    0.00000958
     atom  160 type  1   force =     0.00010536    0.00005475    0.00003724
     atom  161 type  1   force =     0.00005589   -0.00016856   -0.00008484
     atom  162 type  1   force =     0.00004494    0.00003247    0.00006826
     atom  163 type  1   force =    -0.00002957    0.00008282   -0.00007434
     atom  164 type  1   force =     0.00011533    0.00032333   -0.00037008
     atom  165 type  1   force =     0.00006090   -0.00006026    0.00001585
     atom  166 type  1   force =     0.00001879   -0.00005248   -0.00004347
     atom  167 type  1   force =     0.00011794   -0.00003124    0.00011794
     atom  168 type  1   force =     0.00019793   -0.00030282    0.00019793
     atom  169 type  1   force =    -0.00010428   -0.00002596    0.00008709
     atom  170 type  1   force =    -0.00001097   -0.00005592    0.00004954
     atom  171 type  1   force =     0.00002379    0.00001410    0.00011004
     atom  172 type  1   force =    -0.00005882   -0.00004352    0.00007147
     atom  173 type  1   force =     0.00002339   -0.00000889   -0.00001175
     atom  174 type  1   force =     0.00003467    0.00002997   -0.00000491
     atom  175 type  1   force =    -0.00004395    0.00000525   -0.00017693
     atom  176 type  1   force =     0.00003571    0.00006304    0.00007655
     atom  177 type  1   force =     0.00039486   -0.00015686   -0.00011770
     atom  178 type  1   force =    -0.00097015   -0.00024633   -0.00013449
     atom  179 type  1   force =    -0.00007284    0.00034409    0.00004641
     atom  180 type  1   force =     0.00215007   -0.00206055   -0.00122166
     atom  181 type  1   force =     0.00005785    0.00018752    0.00021305
     atom  182 type  1   force =     0.00088664   -0.00271175   -0.00063193
     atom  183 type  1   force =     0.00004641    0.00034409   -0.00007284
     atom  184 type  1   force =    -0.00122166   -0.00206055    0.00215007
     atom  185 type  1   force =    -0.00021991    0.00012130   -0.00054514
     atom  186 type  1   force =     0.00002240    0.00003654    0.00045319
     atom  187 type  1   force =    -0.00063347    0.00070499   -0.00070998
     atom  188 type  1   force =     0.00021892   -0.00019548    0.00014452
     atom  189 type  1   force =     0.00051653   -0.00474385    0.00051653
     atom  190 type  1   force =     0.00254915    0.00157178    0.00254915
     atom  191 type  1   force =    -0.00003776   -0.00009236   -0.00010023
     atom  192 type  1   force =     0.00004675    0.00009780    0.00005079
     atom  193 type  1   force =    -0.00004560   -0.00006400    0.00007559
     atom  194 type  1   force =     0.00032636   -0.00019828    0.00020505
     atom  195 type  1   force =     0.00013141    0.00002851   -0.00010358
     atom  196 type  1   force =     0.00011219    0.00022014   -0.00022436
     atom  197 type  1   force =     0.00006351   -0.00004922   -0.00006680
     atom  198 type  1   force =     0.00004523   -0.00006319   -0.00004378
     atom  199 type  1   force =     0.00011373   -0.00009373    0.00067056
     atom  200 type  1   force =     0.00066102    0.00255748   -0.00181990
     atom  201 type  1   force =    -0.00045817   -0.00076029   -0.00045817
     atom  202 type  1   force =     0.00004052    0.00033351    0.00004052
     atom  203 type  1   force =    -0.00705988    0.00180303    0.00498127
     atom  204 type  1   force =     0.00256002    0.00306500   -0.00067694
     atom  205 type  1   force =    -0.00112122   -0.00012464    0.00043079
     atom  206 type  1   force =     0.00012976   -0.00000431   -0.00014393
     atom  207 type  1   force =     0.00498127    0.00180303   -0.00705988
     atom  208 type  1   force =    -0.00067694    0.00306500    0.00256002
     atom  209 type  1   force =     0.00114729   -0.00038689   -0.00055616
     atom  210 type  1   force =    -0.00018413    0.00002877   -0.00000721
     atom  211 type  1   force =     0.00029135    0.00026061   -0.00118280
     atom  212 type  1   force =     0.00007843    0.00012723   -0.00005263
     atom  213 type  1   force =     0.00068983   -0.00101453    0.00068983
     atom  214 type  1   force =     0.00000870    0.00010944    0.00000870
     atom  215 type  2   force =    -0.00091475   -0.00321400   -0.00091475
     The non-local contrib.  to forces
     atom    1 type  1   force =     0.00503072    0.00346116    0.00360164
     atom    2 type  1   force =     0.00385433    0.00186538    0.00208716
     atom    3 type  1   force =     0.00514064   -0.00216586   -0.00204835
     atom    4 type  1   force =     0.00478819   -0.00303498   -0.00304059
     atom    5 type  1   force =     0.00302672    0.00300457   -0.00282446
     atom    6 type  1   force =     0.00171566    0.00153343   -0.00081800
     atom    7 type  1   force =     0.00310543   -0.00288384    0.00310543
     atom    8 type  1   force =     0.00174179   -0.00090765    0.00174179
     atom    9 type  1   force =     0.01076879    0.00944163   -0.01173659
     atom   10 type  1   force =     0.00533097    0.00223060   -0.00025857
     atom   11 type  1   force =     0.00247988   -0.00318933   -0.01084674
     atom   12 type  1   force =     0.01536958   -0.01701112   -0.01852613
     atom   13 type  1   force =     0.00604826    0.00587682   -0.01526376
     atom   14 type  1   force =     0.00302367    0.00299859   -0.00048988
     atom   15 type  1   force =     0.00370625   -0.00193816   -0.00725381
     atom   16 type  1   force =     0.00342259   -0.00486470   -0.00348833
     atom   17 type  1   force =     0.00593320    0.01091087   -0.00129013
     atom   18 type  1   force =     0.00770431    0.00138099    0.00451913
     atom   19 type  1   force =     0.01010915   -0.00706180    0.01010915
     atom   20 type  1   force =     0.00572210   -0.00386511    0.00572210
     atom   21 type  1   force =     0.00360164    0.00346116    0.00503072
     atom   22 type  1   force =     0.00208716    0.00186538    0.00385433
     atom   23 type  1   force =     0.00562249   -0.00266837    0.00852166
     atom   24 type  1   force =     0.00365831   -0.00379293    0.00109802
     atom   25 type  1   force =     0.01102802   -0.01193527    0.00993189
     atom   26 type  1   force =     0.00551016   -0.00016646    0.00253150
     atom   27 type  1   force =     0.00246561   -0.01032694   -0.00260299
     atom   28 type  1   force =     0.01457250   -0.01907386   -0.01622204
     atom   29 type  1   force =     0.00372286   -0.00710194   -0.00187860
     atom   30 type  1   force =     0.00333841   -0.00338993   -0.00487431
     atom   31 type  1   force =     0.00603305   -0.01504702    0.00603305
     atom   32 type  1   force =     0.00304529   -0.00100141    0.00304529
     atom   33 type  1   force =     0.00425256   -0.01087364   -0.01113123
     atom   34 type  1   force =     0.02238100   -0.02145737   -0.02199828
     atom   35 type  1   force =     0.06325444   -0.00388525   -0.00672708
     atom   36 type  1   force =     0.03552936   -0.00364989   -0.00395369
     atom   37 type  1   force =     0.01147223   -0.00590775   -0.00276630
     atom   38 type  1   force =     0.00566101   -0.00806883   -0.00247323
     atom   39 type  1   force =     0.01122628   -0.00229640   -0.00604120
     atom   40 type  1   force =     0.00545221   -0.00240398   -0.00818373
     atom   41 type  1   force =     0.03346061   -0.03301594    0.04860847
     atom   42 type  1   force =     0.02651988   -0.00914793    0.00416403
     atom   43 type  1   force =     0.03668183   -0.05664896    0.03668183
     atom   44 type  1   force =     0.01858275    0.02002294    0.01858275
     atom   45 type  1   force =     0.00993189   -0.01193527    0.01102802
     atom   46 type  1   force =     0.00253150   -0.00016646    0.00551016
     atom   47 type  1   force =     0.01798973   -0.00779427    0.00438459
     atom   48 type  1   force =     0.00349636    0.00015040    0.00705355
     atom   49 type  1   force =     0.00580904   -0.00137374    0.01134129
     atom   50 type  1   force =     0.00766578    0.00456273    0.00182155
     atom   51 type  1   force =     0.00990792    0.00975414   -0.00661001
     atom   52 type  1   force =     0.00549621    0.00536650   -0.00364886
     atom   53 type  1   force =     0.00535060    0.00918157   -0.00231129
     atom   54 type  1   force =     0.00344942    0.00084427   -0.00364745
     atom   55 type  1   force =     0.00359777    0.00509686    0.00359777
     atom   56 type  1   force =     0.00206154    0.00361953    0.00206154
     atom   57 type  1   force =     0.03170062    0.04958910   -0.03098014
     atom   58 type  1   force =     0.02541127    0.00381104   -0.00925758
     atom   59 type  1   force =     0.03598235    0.03587439   -0.05608689
     atom   60 type  1   force =     0.01844331    0.01849389    0.01974354
     atom   61 type  1   force =     0.01776565    0.00472738   -0.00829893
     atom   62 type  1   force =     0.00330022    0.00699663    0.00006864
     atom   63 type  1   force =     0.00955481    0.01077726   -0.01190192
     atom   64 type  1   force =     0.00237725    0.00509597   -0.00017835
     atom   65 type  1   force =     0.06484654    0.00248066    0.00012178
     atom   66 type  1   force =     0.02665828    0.02146031    0.02137311
     atom   67 type  1   force =     0.01018265    0.01029394    0.01018265
     atom   68 type  1   force =     0.00892677    0.00867573    0.00892677
     atom   69 type  1   force =     0.01134129   -0.00137374    0.00580904
     atom   70 type  1   force =     0.00182155    0.00456273    0.00766578
     atom   71 type  1   force =     0.01123488    0.00579136   -0.00160628
     atom   72 type  1   force =     0.00173763    0.00749771    0.00470679
     atom   73 type  1   force =    -0.00282446    0.00300457    0.00302672
     atom   74 type  1   force =    -0.00081800    0.00153343    0.00171566
     atom   75 type  1   force =    -0.00211606   -0.00209128   -0.00211606
     atom   76 type  1   force =    -0.00186493   -0.00190764   -0.00186493
     atom   77 type  1   force =    -0.00727207    0.00369130   -0.00193162
     atom   78 type  1   force =    -0.00322128    0.00313992   -0.00467131
     atom   79 type  1   force =    -0.00725381   -0.00193816    0.00370625
     atom   80 type  1   force =    -0.00348833   -0.00486470    0.00342259
     atom   81 type  1   force =    -0.00193162    0.00369130   -0.00727207
     atom   82 type  1   force =    -0.00467131    0.00313992   -0.00322128
     atom   83 type  1   force =    -0.00117954   -0.00125333   -0.00926900
     atom   84 type  1   force =    -0.00580189   -0.00576492    0.00675305
     atom   85 type  1   force =    -0.00608018    0.01104274   -0.00306691
     atom   86 type  1   force =    -0.00817766    0.00534636   -0.00233639
     atom   87 type  1   force =    -0.00769814   -0.00216890   -0.00769814
     atom   88 type  1   force =    -0.00218165   -0.00676369   -0.00218165
     atom   89 type  1   force =    -0.00263566    0.00548640    0.00840918
     atom   90 type  1   force =    -0.00366534    0.00343131    0.00107770
     atom   91 type  1   force =    -0.00204835   -0.00216586    0.00514064
     atom   92 type  1   force =    -0.00304059   -0.00303498    0.00478819
     atom   93 type  1   force =    -0.01173659    0.00944163    0.01076879
     atom   94 type  1   force =    -0.00025857    0.00223060    0.00533097
     atom   95 type  1   force =    -0.00600132   -0.00171434    0.00208012
     atom   96 type  1   force =    -0.00198925   -0.01163137    0.00428121
     atom   97 type  1   force =    -0.00187860   -0.00710194    0.00372286
     atom   98 type  1   force =    -0.00487431   -0.00338993    0.00333841
     atom   99 type  1   force =    -0.00121554   -0.00903266   -0.00121554
     atom  100 type  1   force =    -0.00572595    0.00704367   -0.00572595
     atom  101 type  1   force =    -0.00771391   -0.00757631   -0.00215501
     atom  102 type  1   force =    -0.00208788   -0.00187451   -0.00686630
     atom  103 type  1   force =    -0.00604120   -0.00229640    0.01122628
     atom  104 type  1   force =    -0.00818373   -0.00240398    0.00545221
     atom  105 type  1   force =    -0.00215501   -0.00757631   -0.00771391
     atom  106 type  1   force =    -0.00686630   -0.00187451   -0.00208788
     atom  107 type  1   force =    -0.00245217   -0.00579216   -0.00595758
     atom  108 type  1   force =    -0.01709310   -0.00351961   -0.00374589
     atom  109 type  1   force =    -0.02987171   -0.02998434   -0.04908442
     atom  110 type  1   force =     0.12095989    0.12252276   -0.12744107
     atom  111 type  1   force =    -0.02982093   -0.04962332   -0.02982093
     atom  112 type  1   force =     0.12253343   -0.12578263    0.12253343
     atom  113 type  1   force =    -0.00141969   -0.00588685    0.00205275
     atom  114 type  1   force =    -0.01158147   -0.00159219    0.00441210
     atom  115 type  1   force =    -0.00260299   -0.01032694    0.00246561
     atom  116 type  1   force =    -0.01622204   -0.01907386    0.01457250
     atom  117 type  1   force =    -0.01113123   -0.01087364    0.00425256
     atom  118 type  1   force =    -0.02199828   -0.02145737    0.02238100
     atom  119 type  1   force =    -0.04056845   -0.03927009   -0.01631216
     atom  120 type  1   force =    -0.09212256   -0.06870599    0.05982245
     atom  121 type  1   force =    -0.00231129    0.00918157    0.00535060
     atom  122 type  1   force =    -0.00364745    0.00084427    0.00344942
     atom  123 type  1   force =    -0.00215108    0.00524485   -0.00215108
     atom  124 type  1   force =    -0.00295300    0.00444135   -0.00295300
     atom  125 type  1   force =    -0.00588567    0.00225105   -0.00142562
     atom  126 type  1   force =    -0.00178182    0.00408099   -0.01125799
     atom  127 type  1   force =    -0.01190192    0.01077726    0.00955481
     atom  128 type  1   force =    -0.00017835    0.00509597    0.00237725
     atom  129 type  1   force =    -0.00142562    0.00225105   -0.00588567
     atom  130 type  1   force =    -0.01125799    0.00408099   -0.00178182
     atom  131 type  1   force =    -0.00282377    0.00242039   -0.01073397
     atom  132 type  1   force =    -0.01686003    0.01526743   -0.01839235
     atom  133 type  1   force =    -0.04033791   -0.01595906   -0.03928584
     atom  134 type  1   force =    -0.09373575    0.06403672   -0.06552470
     atom  135 type  1   force =    -0.01102878    0.00431175   -0.01102878
     atom  136 type  1   force =    -0.02078522    0.02180919   -0.02078522
     atom  137 type  1   force =    -0.00578176   -0.00118360   -0.00116729
     atom  138 type  1   force =    -0.02664279    0.00438086    0.00440555
     atom  139 type  1   force =    -0.00661001    0.00975414    0.00990792
     atom  140 type  1   force =    -0.00364886    0.00536650    0.00549621
     atom  141 type  1   force =    -0.03098014    0.04958910    0.03170062
     atom  142 type  1   force =    -0.00925758    0.00381104    0.02541127
     atom  143 type  1   force =    -0.03196102    0.03260348    0.04798282
     atom  144 type  1   force =    -0.00933003    0.02572203    0.00393770
     atom  145 type  1   force =    -0.01526376    0.00587682    0.00604826
     atom  146 type  1   force =    -0.00048988    0.00299859    0.00302367
     atom  147 type  1   force =    -0.00926900   -0.00125333   -0.00117954
     atom  148 type  1   force =     0.00675305   -0.00576492   -0.00580189
     atom  149 type  1   force =     0.00840918    0.00548640   -0.00263566
     atom  150 type  1   force =     0.00107770    0.00343131   -0.00366534
     atom  151 type  1   force =     0.00852166   -0.00266837    0.00562249
     atom  152 type  1   force =     0.00109802   -0.00379293    0.00365831
     atom  153 type  1   force =    -0.00306691    0.01104274   -0.00608018
     atom  154 type  1   force =    -0.00233639    0.00534636   -0.00817766
     atom  155 type  1   force =    -0.00614862   -0.00296705   -0.00614862
     atom  156 type  1   force =    -0.00378867   -0.01768441   -0.00378867
     atom  157 type  1   force =     0.00422852    0.01724119   -0.00781250
     atom  158 type  1   force =     0.00701973    0.00297879   -0.00009212
     atom  159 type  1   force =     0.00208012   -0.00171434   -0.00600132
     atom  160 type  1   force =     0.00428121   -0.01163137   -0.00198925
     atom  161 type  1   force =    -0.00781250    0.01724119    0.00422852
     atom  162 type  1   force =    -0.00009212    0.00297879    0.00701973
     atom  163 type  1   force =    -0.01084674   -0.00318933    0.00247988
     atom  164 type  1   force =    -0.01852613   -0.01701112    0.01536958
     atom  165 type  1   force =    -0.00129013    0.01091087    0.00593320
     atom  166 type  1   force =     0.00451913    0.00138099    0.00770431
     atom  167 type  1   force =    -0.00132286   -0.00648712   -0.00132286
     atom  168 type  1   force =     0.00467598   -0.02762475    0.00467598
     atom  169 type  1   force =    -0.00276630   -0.00590775    0.01147223
     atom  170 type  1   force =    -0.00247323   -0.00806883    0.00566101
     atom  171 type  1   force =    -0.00595758   -0.00579216   -0.00245217
     atom  172 type  1   force =    -0.00374589   -0.00351961   -0.01709310
     atom  173 type  1   force =     0.00205275   -0.00588685   -0.00141969
     atom  174 type  1   force =     0.00441210   -0.00159219   -0.01158147
     atom  175 type  1   force =     0.00438459   -0.00779427    0.01798973
     atom  176 type  1   force =     0.00705355    0.00015040    0.00349636
     atom  177 type  1   force =    -0.04908442   -0.02998434   -0.02987171
     atom  178 type  1   force =    -0.12744107    0.12252276    0.12095989
     atom  179 type  1   force =    -0.01710188   -0.04186042   -0.04127324
     atom  180 type  1   force =     0.06543813   -0.09674022   -0.07098443
     atom  181 type  1   force =    -0.01631216   -0.03927009   -0.04056845
     atom  182 type  1   force =     0.05982245   -0.06870599   -0.09212256
     atom  183 type  1   force =    -0.04127324   -0.04186042   -0.01710188
     atom  184 type  1   force =    -0.07098443   -0.09674022    0.06543813
     atom  185 type  1   force =    -0.00672708   -0.00388525    0.06325444
     atom  186 type  1   force =    -0.00395369   -0.00364989    0.03552936
     atom  187 type  1   force =     0.04860847   -0.03301594    0.03346061
     atom  188 type  1   force =     0.00416403   -0.00914793    0.02651988
     atom  189 type  1   force =     0.22584659   -0.25669306    0.22584659
     atom  190 type  1   force =     0.08005820    0.06670689    0.08005820
     atom  191 type  1   force =    -0.00829893    0.00472738    0.01776565
     atom  192 type  1   force =     0.00006864    0.00699663    0.00330022
     atom  193 type  1   force =    -0.01073397    0.00242039   -0.00282377
     atom  194 type  1   force =    -0.01839235    0.01526743   -0.01686003
     atom  195 type  1   force =    -0.00116729   -0.00118360   -0.00578176
     atom  196 type  1   force =     0.00440555    0.00438086   -0.02664279
     atom  197 type  1   force =    -0.00160628    0.00579136    0.01123488
     atom  198 type  1   force =     0.00470679    0.00749771    0.00173763
     atom  199 type  1   force =    -0.03928584   -0.01595906   -0.04033791
     atom  200 type  1   force =    -0.06552470    0.06403672   -0.09373575
     atom  201 type  1   force =    -0.00698007    0.06173755   -0.00698007
     atom  202 type  1   force =    -0.00392309    0.03502232   -0.00392309
     atom  203 type  1   force =     0.20388968    0.21757223   -0.23102009
     atom  204 type  1   force =     0.07668863    0.07940808    0.05986925
     atom  205 type  1   force =     0.04798282    0.03260348   -0.03196102
     atom  206 type  1   force =     0.00393770    0.02572203   -0.00933003
     atom  207 type  1   force =    -0.23102009    0.21757223    0.20388968
     atom  208 type  1   force =     0.05986925    0.07940808    0.07668863
     atom  209 type  1   force =    -0.05608689    0.03587439    0.03598235
     atom  210 type  1   force =     0.01974354    0.01849389    0.01844331
     atom  211 type  1   force =     0.00012178    0.00248066    0.06484654
     atom  212 type  1   force =     0.02137311    0.02146031    0.02665828
     atom  213 type  1   force =     0.00270321    0.06390111    0.00270321
     atom  214 type  1   force =     0.02066325    0.02669310    0.02066325
     atom  215 type  2   force =    -0.77158494   -0.77477502   -0.77158494
     The ionic contribution  to forces
     atom    1 type  1   force =    -0.04089370   -0.04256726   -0.05098828
     atom    2 type  1   force =    -0.03286408    0.00070443   -0.00037353
     atom    3 type  1   force =    -0.02571706    0.02123128    0.02349027
     atom    4 type  1   force =    -0.09145244    0.07495472    0.08217222
     atom    5 type  1   force =    -0.03434975   -0.02849731    0.00574778
     atom    6 type  1   force =    -0.01787690   -0.01837191    0.04170066
     atom    7 type  1   force =    -0.03578508    0.00479935   -0.03578728
     atom    8 type  1   force =    -0.01859072    0.03373846   -0.01857637
     atom    9 type  1   force =    -0.06562118   -0.05250192    0.06585024
     atom   10 type  1   force =    -0.09464447    0.00152872    0.07449682
     atom   11 type  1   force =    -0.12459986    0.11444686   -0.00239183
     atom   12 type  1   force =    -0.15404193    0.11679791   -0.01793453
     atom   13 type  1   force =    -0.05511870   -0.04846981   -0.03418082
     atom   14 type  1   force =    -0.02515903   -0.02285127    0.03360599
     atom   15 type  1   force =    -0.07013999    0.00740583    0.01461846
     atom   16 type  1   force =    -0.07950843    0.03680365    0.06183686
     atom   17 type  1   force =    -0.13764334   -0.11578843   -0.02269969
     atom   18 type  1   force =    -0.07857546   -0.00855143   -0.03019052
     atom   19 type  1   force =    -0.07760229    0.04379491   -0.07761218
     atom   20 type  1   force =    -0.05811827    0.05764493   -0.05809514
     atom   21 type  1   force =    -0.05096419   -0.04258890   -0.04088849
     atom   22 type  1   force =    -0.00038853    0.00072219   -0.03286079
     atom   23 type  1   force =    -0.07103448    0.03800561    0.00266418
     atom   24 type  1   force =    -0.01248759    0.06952653   -0.01917224
     atom   25 type  1   force =    -0.06598198    0.05706490   -0.06086580
     atom   26 type  1   force =    -0.09147490    0.06094943   -0.00301792
     atom   27 type  1   force =    -0.12419319   -0.01143478    0.11552348
     atom   28 type  1   force =    -0.14230004   -0.03535184    0.11337927
     atom   29 type  1   force =    -0.07038344    0.00647428    0.00965794
     atom   30 type  1   force =    -0.07843977    0.04976507    0.04328756
     atom   31 type  1   force =    -0.05572468   -0.04025532   -0.05571410
     atom   32 type  1   force =    -0.02550165    0.02510833   -0.02550447
     atom   33 type  1   force =    -0.09799358    0.13316138    0.14551788
     atom   34 type  1   force =    -0.26546593    0.13845426    0.15261739
     atom   35 type  1   force =    -0.72381395    0.18887372    0.21620938
     atom   36 type  1   force =    -0.44711810    0.00246607    0.01028362
     atom   37 type  1   force =    -0.16118797    0.11001694    0.02968176
     atom   38 type  1   force =    -0.08129207    0.08944490    0.05070564
     atom   39 type  1   force =    -0.15881934    0.02016829    0.12224747
     atom   40 type  1   force =    -0.07814943    0.04805464    0.09892129
     atom   41 type  1   force =    -0.27170389    0.27229130   -0.18351669
     atom   42 type  1   force =    -0.21658248    0.11934380   -0.13315403
     atom   43 type  1   force =    -0.25506843    0.13544212   -0.25506891
     atom   44 type  1   force =    -0.12779169    0.06403413   -0.12780233
     atom   45 type  1   force =    -0.06085207    0.05706589   -0.06599689
     atom   46 type  1   force =    -0.00304479    0.06097143   -0.09150014
     atom   47 type  1   force =    -0.17665086    0.07439257   -0.05618509
     atom   48 type  1   force =    -0.02819378    0.00828105   -0.07251573
     atom   49 type  1   force =    -0.13232146   -0.02187671   -0.12061733
     atom   50 type  1   force =    -0.07515072   -0.02184412   -0.01060568
     atom   51 type  1   force =    -0.07276745   -0.06091107    0.04184651
     atom   52 type  1   force =    -0.05742058   -0.04841094    0.06548989
     atom   53 type  1   force =    -0.06445308    0.01484921    0.03700356
     atom   54 type  1   force =    -0.00893446   -0.01202955    0.07688925
     atom   55 type  1   force =    -0.04955408   -0.02871893   -0.04954821
     atom   56 type  1   force =     0.00035032   -0.02602963    0.00032677
     atom   57 type  1   force =    -0.25174411   -0.15691024    0.26509696
     atom   58 type  1   force =    -0.21248295   -0.12241451    0.13217529
     atom   59 type  1   force =    -0.25510566   -0.23723013    0.14832552
     atom   60 type  1   force =    -0.13018534   -0.11719071    0.06881913
     atom   61 type  1   force =    -0.17213828   -0.05381251    0.08488687
     atom   62 type  1   force =    -0.02490328   -0.06445862    0.01087368
     atom   63 type  1   force =    -0.05480570   -0.05065128    0.06288175
     atom   64 type  1   force =     0.00087098   -0.08415731    0.07340145
     atom   65 type  1   force =    -0.79789047   -0.20083607   -0.19711076
     atom   66 type  1   force =    -0.23968725   -0.12084445   -0.12898443
     atom   67 type  1   force =    -0.16228426   -0.15122122   -0.16228303
     atom   68 type  1   force =    -0.07250742   -0.06380347   -0.07249313
     atom   69 type  1   force =    -0.12064151   -0.02188260   -0.13230505
     atom   70 type  1   force =    -0.01060468   -0.02183515   -0.07513345
     atom   71 type  1   force =    -0.12009281   -0.12352912   -0.02438155
     atom   72 type  1   force =    -0.00974864   -0.06625886   -0.02931424
     atom   73 type  1   force =     0.00574654   -0.02852193   -0.03433735
     atom   74 type  1   force =     0.04170334   -0.01835158   -0.01789716
     atom   75 type  1   force =    -0.02346880   -0.02567070   -0.02346983
     atom   76 type  1   force =     0.00709017   -0.00160348    0.00707870
     atom   77 type  1   force =     0.01438137   -0.06424734    0.01222475
     atom   78 type  1   force =     0.06316611   -0.08122588    0.04780540
     atom   79 type  1   force =     0.01463729    0.00737379   -0.07013892
     atom   80 type  1   force =     0.06185734    0.03680422   -0.07948995
     atom   81 type  1   force =     0.01221233   -0.06424353    0.01439119
     atom   82 type  1   force =     0.04779863   -0.08120394    0.06316205
     atom   83 type  1   force =    -0.01223420   -0.01767747   -0.00298111
     atom   84 type  1   force =     0.04273579    0.03431172    0.14346551
     atom   85 type  1   force =     0.12495473   -0.15907146    0.02532449
     atom   86 type  1   force =     0.10100712   -0.08087762    0.04887271
     atom   87 type  1   force =     0.01020777   -0.07331370    0.01022067
     atom   88 type  1   force =     0.10002615   -0.08814445    0.10005586
     atom   89 type  1   force =     0.04163819   -0.06244532    0.00221041
     atom   90 type  1   force =     0.07865708   -0.00878258   -0.02087329
     atom   91 type  1   force =     0.02351527    0.02118446   -0.02570632
     atom   92 type  1   force =     0.08217829    0.07497086   -0.09144317
     atom   93 type  1   force =     0.06585196   -0.05255065   -0.06559107
     atom   94 type  1   force =     0.07448748    0.00155946   -0.09460039
     atom   95 type  1   force =     0.12746673    0.05008894    0.06247805
     atom   96 type  1   force =     0.20525054    0.21638735   -0.09243044
     atom   97 type  1   force =     0.00966580    0.00644786   -0.07035833
     atom   98 type  1   force =     0.04331086    0.04977006   -0.07845721
     atom   99 type  1   force =    -0.01425323   -0.00922760   -0.01420900
     atom  100 type  1   force =     0.03956388    0.14596637    0.03955322
     atom  101 type  1   force =     0.00862277   -0.00055082   -0.06969423
     atom  102 type  1   force =     0.09926501    0.08993055   -0.08142863
     atom  103 type  1   force =     0.12226016    0.02013392   -0.15879584
     atom  104 type  1   force =     0.09895954    0.04808483   -0.07816600
     atom  105 type  1   force =    -0.06970136   -0.00053260    0.00861125
     atom  106 type  1   force =    -0.08142522    0.08996295    0.09921198
     atom  107 type  1   force =     0.01051560    0.12204400    0.12789366
     atom  108 type  1   force =     0.20954184    0.12560799    0.12305099
     atom  109 type  1   force =    -0.05441946   -0.06735809    0.21885871
     atom  110 type  1   force =     0.29647983    0.28543266    1.28748875
     atom  111 type  1   force =    -0.06033804    0.20664615   -0.06031835
     atom  112 type  1   force =     0.28692868    1.30176224    0.28691553
     atom  113 type  1   force =     0.05351893    0.11467677    0.06208032
     atom  114 type  1   force =     0.21783866    0.18666442   -0.08779587
     atom  115 type  1   force =     0.11550215   -0.01147358   -0.12419315
     atom  116 type  1   force =     0.11337971   -0.03530037   -0.14229509
     atom  117 type  1   force =     0.14555441    0.13312220   -0.09798501
     atom  118 type  1   force =     0.15263774    0.13846798   -0.26546921
     atom  119 type  1   force =     0.72217127    0.21993277    0.11960305
     atom  120 type  1   force =     0.76376077   -0.28557312   -0.72537878
     atom  121 type  1   force =     0.03699401    0.01483544   -0.06444217
     atom  122 type  1   force =     0.07692969   -0.01202542   -0.00896476
     atom  123 type  1   force =     0.02476793   -0.01308659    0.02478521
     atom  124 type  1   force =     0.08446798   -0.08528971    0.08445374
     atom  125 type  1   force =     0.12507327    0.06817485    0.05640587
     atom  126 type  1   force =     0.19963016   -0.07844853    0.22384220
     atom  127 type  1   force =     0.06289386   -0.05068091   -0.05478126
     atom  128 type  1   force =     0.07341488   -0.08418748    0.00085645
     atom  129 type  1   force =     0.05638834    0.06815453    0.12506144
     atom  130 type  1   force =     0.22386163   -0.07841490    0.19958967
     atom  131 type  1   force =     0.12027077   -0.11296938   -0.00506454
     atom  132 type  1   force =     0.12552215   -0.14140051   -0.02428987
     atom  133 type  1   force =     0.72219410    0.13699627    0.22839356
     atom  134 type  1   force =     0.80332720   -0.72166458   -0.26983496
     atom  135 type  1   force =     0.14673123   -0.08785464    0.14674459
     atom  136 type  1   force =     0.16084577   -0.26646849    0.16082361
     atom  137 type  1   force =     0.13791443   -0.04071590   -0.04794959
     atom  138 type  1   force =     0.18824237   -0.10694277   -0.12310710
     atom  139 type  1   force =     0.04185720   -0.06092153   -0.07274140
     atom  140 type  1   force =     0.06549019   -0.04838794   -0.05743134
     atom  141 type  1   force =     0.26512140   -0.15693337   -0.25170899
     atom  142 type  1   force =     0.13216462   -0.12239182   -0.21248252
     atom  143 type  1   force =     0.28064089   -0.24933861   -0.18595038
     atom  144 type  1   force =     0.13286730   -0.20423138   -0.13956479
     atom  145 type  1   force =    -0.03417969   -0.04848671   -0.05511568
     atom  146 type  1   force =     0.03362684   -0.02285243   -0.02513282
     atom  147 type  1   force =    -0.00297009   -0.01763493   -0.01228052
     atom  148 type  1   force =     0.14348034    0.03430390    0.04273393
     atom  149 type  1   force =     0.00218713   -0.06244076    0.04163228
     atom  150 type  1   force =    -0.02088378   -0.00881654    0.07868956
     atom  151 type  1   force =     0.00268025    0.03801656   -0.07103135
     atom  152 type  1   force =    -0.01916117    0.06948886   -0.01244968
     atom  153 type  1   force =     0.02530675   -0.15906585    0.12496426
     atom  154 type  1   force =     0.04890079   -0.08091668    0.10103128
     atom  155 type  1   force =     0.12981665    0.00603851    0.12981096
     atom  156 type  1   force =     0.12759744    0.20398594    0.12760804
     atom  157 type  1   force =    -0.06235518   -0.17618440    0.08604229
     atom  158 type  1   force =    -0.07477057   -0.02460307    0.01291226
     atom  159 type  1   force =     0.06251142    0.05012743    0.12746440
     atom  160 type  1   force =    -0.09246744    0.21634465    0.20526088
     atom  161 type  1   force =     0.08605874   -0.17622226   -0.06233674
     atom  162 type  1   force =     0.01291236   -0.02458976   -0.07476478
     atom  163 type  1   force =    -0.00235549    0.11445510   -0.12458294
     atom  164 type  1   force =    -0.01796383    0.11680775   -0.15402823
     atom  165 type  1   force =    -0.02268656   -0.11576997   -0.13765606
     atom  166 type  1   force =    -0.03018407   -0.00856834   -0.07854965
     atom  167 type  1   force =    -0.04500740    0.13718229   -0.04503212
     atom  168 type  1   force =    -0.11903411    0.18555724   -0.11900943
     atom  169 type  1   force =     0.02970735    0.11000412   -0.16118176
     atom  170 type  1   force =     0.05070070    0.08941534   -0.08125736
     atom  171 type  1   force =     0.12789269    0.12205236    0.01052447
     atom  172 type  1   force =     0.12307849    0.12558430    0.20954918
     atom  173 type  1   force =     0.06204624    0.11467889    0.05350512
     atom  174 type  1   force =    -0.08776403    0.18663545    0.21786350
     atom  175 type  1   force =    -0.05616683    0.07439840   -0.17667190
     atom  176 type  1   force =    -0.07251817    0.00827401   -0.02817542
     atom  177 type  1   force =     0.21886541   -0.06732302   -0.05445020
     atom  178 type  1   force =     1.28750103    0.28542379    0.29647454
     atom  179 type  1   force =     0.13294857    0.70543251    0.23335614
     atom  180 type  1   force =    -0.73445285    0.76539352   -0.23354624
     atom  181 type  1   force =     0.11958994    0.21995439    0.72214970
     atom  182 type  1   force =    -0.72536879   -0.28561612    0.76373188
     atom  183 type  1   force =     0.23336258    0.70541531    0.13294996
     atom  184 type  1   force =    -0.23356869    0.76539457   -0.73443257
     atom  185 type  1   force =     0.21622197    0.18886311   -0.72381255
     atom  186 type  1   force =     0.01029058    0.00247430   -0.44710844
     atom  187 type  1   force =    -0.18349664    0.27227984   -0.27172620
     atom  188 type  1   force =    -0.13315861    0.11936294   -0.21657044
     atom  189 type  1   force =    -2.18857689    2.24530278   -2.18861094
     atom  190 type  1   force =    -0.76537709    0.34885291   -0.76536162
     atom  191 type  1   force =     0.08490099   -0.05383974   -0.17210181
     atom  192 type  1   force =     0.01086509   -0.06446187   -0.02489486
     atom  193 type  1   force =    -0.00508101   -0.11300004    0.12024464
     atom  194 type  1   force =    -0.02422064   -0.14143016    0.12554189
     atom  195 type  1   force =    -0.04796373   -0.04068537    0.13791324
     atom  196 type  1   force =    -0.12310216   -0.10697779    0.18823633
     atom  197 type  1   force =    -0.02437871   -0.12353169   -0.12012060
     atom  198 type  1   force =    -0.02931937   -0.06627868   -0.00972423
     atom  199 type  1   force =     0.22840419    0.13701736    0.72219674
     atom  200 type  1   force =    -0.26979741   -0.72172323    0.80333670
     atom  201 type  1   force =     0.20813969   -0.72873943    0.20814362
     atom  202 type  1   force =     0.00518705   -0.44306024    0.00519437
     atom  203 type  1   force =    -2.19815270   -2.13128202    2.26652128
     atom  204 type  1   force =    -0.80015791   -0.75753460    0.37254867
     atom  205 type  1   force =    -0.18599897   -0.24930480    0.28063800
     atom  206 type  1   force =    -0.13957465   -0.20424297    0.13284894
     atom  207 type  1   force =     2.26655858   -2.13133350   -2.19809089
     atom  208 type  1   force =     0.37254376   -0.75754924   -0.80015307
     atom  209 type  1   force =     0.14832698   -0.23724746   -0.25509276
     atom  210 type  1   force =     0.06881722   -0.11721378   -0.13015308
     atom  211 type  1   force =    -0.19711174   -0.20083888   -0.79789838
     atom  212 type  1   force =    -0.12900599   -0.12084424   -0.23967328
     atom  213 type  1   force =    -0.20914748   -0.80369735   -0.20914731
     atom  214 type  1   force =    -0.13837765   -0.23382661   -0.13836943
     atom  215 type  2   force =     3.09211978    3.07333106    3.09211799
     The local contribution  to forces
     atom    1 type  1   force =     0.03584330    0.03913836    0.04740950
     atom    2 type  1   force =     0.02903924   -0.00255722   -0.00169710
     atom    3 type  1   force =     0.02054176   -0.01907416   -0.02144969
     atom    4 type  1   force =     0.08666052   -0.07190556   -0.07912593
     atom    5 type  1   force =     0.03128872    0.02547162   -0.00291059
     atom    6 type  1   force =     0.01616676    0.01682937   -0.04089616
     atom    7 type  1   force =     0.03263962   -0.00190102    0.03264406
     atom    8 type  1   force =     0.01685053   -0.03284406    0.01683754
     atom    9 type  1   force =     0.05477720    0.04299729   -0.05403413
     atom   10 type  1   force =     0.08933981   -0.00378267   -0.07426917
     atom   11 type  1   force =     0.12203812   -0.11118621    0.01320403
     atom   12 type  1   force =     0.13829488   -0.09947505    0.03656927
     atom   13 type  1   force =     0.04901813    0.04253567    0.04953999
     atom   14 type  1   force =     0.02210024    0.01988264   -0.03310622
     atom   15 type  1   force =     0.06644617   -0.00549365   -0.00736923
     atom   16 type  1   force =     0.07612266   -0.03197220   -0.05836154
     atom   17 type  1   force =     0.13171881    0.10480647    0.02404546
     atom   18 type  1   force =     0.07082055    0.00710705    0.02568249
     atom   19 type  1   force =     0.06746135   -0.03670866    0.06747219
     atom   20 type  1   force =     0.05247191   -0.05381588    0.05244908
     atom   21 type  1   force =     0.04738391    0.03916125    0.03583835
     atom   22 type  1   force =    -0.00168239   -0.00257560    0.02903679
     atom   23 type  1   force =     0.06525382   -0.03516097   -0.01119982
     atom   24 type  1   force =     0.00881718   -0.06573710    0.01811016
     atom   25 type  1   force =     0.05487492   -0.04508752    0.05081840
     atom   26 type  1   force =     0.08597828   -0.06079825    0.00047893
     atom   27 type  1   force =     0.12165769    0.02174085   -0.11287966
     atom   28 type  1   force =     0.12723686    0.05443372   -0.09669142
     atom   29 type  1   force =     0.06666988    0.00062078   -0.00781202
     atom   30 type  1   force =     0.07511372   -0.04639501   -0.03842357
     atom   31 type  1   force =     0.04957664    0.05530661    0.04956737
     atom   32 type  1   force =     0.02242318   -0.02414743    0.02243001
     atom   33 type  1   force =     0.09370370   -0.12229373   -0.13439022
     atom   34 type  1   force =     0.24303951   -0.11696674   -0.13049540
     atom   35 type  1   force =     0.66000750   -0.18488050   -0.20970752
     atom   36 type  1   force =     0.41203412    0.00120830   -0.00631432
     atom   37 type  1   force =     0.14979431   -0.10414733   -0.02702541
     atom   38 type  1   force =     0.07567163   -0.08144531   -0.04824893
     atom   39 type  1   force =     0.14770435   -0.01794126   -0.11625049
     atom   40 type  1   force =     0.07270193   -0.04565695   -0.09074726
     atom   41 type  1   force =     0.23752432   -0.23858138    0.13426894
     atom   42 type  1   force =     0.19019914   -0.11040318    0.12920045
     atom   43 type  1   force =     0.21756454   -0.07824078    0.21756439
     atom   44 type  1   force =     0.10903835   -0.08404398    0.10905058
     atom   45 type  1   force =     0.05080329   -0.04508826    0.05489103
     atom   46 type  1   force =     0.00050568   -0.06082193    0.08600624
     atom   47 type  1   force =     0.15847506   -0.06660464    0.05175007
     atom   48 type  1   force =     0.02476567   -0.00838104    0.06549251
     atom   49 type  1   force =     0.12647408    0.02327500    0.10921904
     atom   50 type  1   force =     0.06743168    0.01731491    0.00872747
     atom   51 type  1   force =     0.06282276    0.05109256   -0.03521260
     atom   52 type  1   force =     0.05198207    0.04307352   -0.06186807
     atom   53 type  1   force =     0.05891837   -0.02398590   -0.03451425
     atom   54 type  1   force =     0.00550215    0.01121017   -0.07320918
     atom   55 type  1   force =     0.04598846    0.02360483    0.04598338
     atom   56 type  1   force =    -0.00239087    0.02241225   -0.00236574
     atom   57 type  1   force =     0.21962976    0.10734626   -0.23359590
     atom   58 type  1   force =     0.18709716    0.11879384   -0.12303688
     atom   59 type  1   force =     0.21855962    0.20095668   -0.09109819
     atom   60 type  1   force =     0.11172841    0.09871384   -0.08875348
     atom   61 type  1   force =     0.15426538    0.04897934   -0.07663278
     atom   62 type  1   force =     0.02164682    0.05754636   -0.01090115
     atom   63 type  1   force =     0.04514904    0.03980106   -0.05093842
     atom   64 type  1   force =    -0.00322704    0.07902649   -0.07323625
     atom   65 type  1   force =     0.73185410    0.19860282    0.19727346
     atom   66 type  1   force =     0.21296923    0.09949964    0.10768197
     atom   67 type  1   force =     0.15213613    0.14096491    0.15213565
     atom   68 type  1   force =     0.06362985    0.05515321    0.06361575
     atom   69 type  1   force =     0.10924189    0.02328385    0.12645894
     atom   70 type  1   force =     0.00872498    0.01730560    0.06741663
     atom   71 type  1   force =     0.10878402    0.11767676    0.02604350
     atom   72 type  1   force =     0.00796003    0.05868607    0.02464545
     atom   73 type  1   force =    -0.00291053    0.02549860    0.03127459
     atom   74 type  1   force =    -0.04089993    0.01680827    0.01618766
     atom   75 type  1   force =     0.02558402    0.02775723    0.02558504
     atom   76 type  1   force =    -0.00524030    0.00350289   -0.00522783
     atom   77 type  1   force =    -0.00710917    0.06057752   -0.01032493
     atom   78 type  1   force =    -0.05993573    0.07807690   -0.04312070
     atom   79 type  1   force =    -0.00738931   -0.00545817    0.06644495
     atom   80 type  1   force =    -0.05838316   -0.03197082    0.07610280
     atom   81 type  1   force =    -0.01031035    0.06057277   -0.00711981
     atom   82 type  1   force =    -0.04311152    0.07805298   -0.05993157
     atom   83 type  1   force =     0.01333429    0.01888178    0.01230788
     atom   84 type  1   force =    -0.03702742   -0.02866023   -0.15040432
     atom   85 type  1   force =    -0.11896182    0.14807886   -0.02237686
     atom   86 type  1   force =    -0.09287943    0.07556031   -0.04655861
     atom   87 type  1   force =    -0.00248987    0.07549003   -0.00250477
     atom   88 type  1   force =    -0.09786396    0.09493026   -0.09789417
     atom   89 type  1   force =    -0.03892169    0.05686671   -0.01075352
     atom   90 type  1   force =    -0.07498736    0.00533152    0.01984789
     atom   91 type  1   force =    -0.02147722   -0.01902305    0.02053135
     atom   92 type  1   force =    -0.07913243   -0.07192211    0.08665240
     atom   93 type  1   force =    -0.05403572    0.04304899    0.05474647
     atom   94 type  1   force =    -0.07425808   -0.00381475    0.08929475
     atom   95 type  1   force =    -0.12146417   -0.04836587   -0.06456728
     atom   96 type  1   force =    -0.20323048   -0.20471393    0.08824734
     atom   97 type  1   force =    -0.00782227    0.00064894    0.06664518
     atom   98 type  1   force =    -0.03844968   -0.04640026    0.07513358
     atom   99 type  1   force =     0.01540645    0.01831876    0.01536204
     atom  100 type  1   force =    -0.03389266   -0.15313855   -0.03388090
     atom  101 type  1   force =    -0.00088182    0.00813677    0.07185983
     atom  102 type  1   force =    -0.09721986   -0.08810776    0.08830715
     atom  103 type  1   force =    -0.11626408   -0.01790536    0.14767870
     atom  104 type  1   force =    -0.09078864   -0.04568590    0.07271839
     atom  105 type  1   force =     0.07186732    0.00811676   -0.00086898
     atom  106 type  1   force =     0.08830362   -0.08814012   -0.09716668
     atom  107 type  1   force =    -0.00796179   -0.11625054   -0.12191866
     atom  108 type  1   force =    -0.19238510   -0.12214447   -0.11936997
     atom  109 type  1   force =     0.08416525    0.09717567   -0.16938699
     atom  110 type  1   force =    -0.41757975   -0.40821294   -1.16102490
     atom  111 type  1   force =     0.09008057   -0.15684453    0.09005849
     atom  112 type  1   force =    -0.40915360   -1.17654997   -0.40914113
     atom  113 type  1   force =    -0.05212105   -0.10880910   -0.06411670
     atom  114 type  1   force =    -0.20626956   -0.18505327    0.08341152
     atom  115 type  1   force =    -0.11285925    0.02178149    0.12165786
     atom  116 type  1   force =    -0.09669357    0.05437878    0.12723411
     atom  117 type  1   force =    -0.13442876   -0.12225105    0.09369487
     atom  118 type  1   force =    -0.13051476   -0.11698135    0.24304250
     atom  119 type  1   force =    -0.68139656   -0.18048420   -0.10324146
     atom  120 type  1   force =    -0.67227605    0.35155635    0.66643482
     atom  121 type  1   force =    -0.03450583   -0.02397128    0.05890780
     atom  122 type  1   force =    -0.07325115    0.01120513    0.00553402
     atom  123 type  1   force =    -0.02263459    0.00780796   -0.02265474
     atom  124 type  1   force =    -0.08150988    0.08082047   -0.08149542
     atom  125 type  1   force =    -0.11919010   -0.07043291   -0.05497784
     atom  126 type  1   force =    -0.19779724    0.07443776   -0.21247340
     atom  127 type  1   force =    -0.05095044    0.03983282    0.04512268
     atom  128 type  1   force =    -0.07325122    0.07905767   -0.00321200
     atom  129 type  1   force =    -0.05495920   -0.07041369   -0.11917931
     atom  130 type  1   force =    -0.21249415    0.07440374   -0.19775716
     atom  131 type  1   force =    -0.11737982    0.11047319    0.01574656
     atom  132 type  1   force =    -0.10846466    0.12592382    0.04300393
     atom  133 type  1   force =    -0.68119311   -0.12114186   -0.18900217
     atom  134 type  1   force =    -0.71141910    0.66017432    0.33601497
     atom  135 type  1   force =    -0.13572583    0.08352335   -0.13574112
     atom  136 type  1   force =    -0.13986450    0.24449977   -0.13984260
     atom  137 type  1   force =    -0.13224440    0.04191585    0.04924213
     atom  138 type  1   force =    -0.16183195    0.10276850    0.11880800
     atom  139 type  1   force =    -0.03522406    0.05110418    0.06279626
     atom  140 type  1   force =    -0.06186877    0.04304928    0.05199349
     atom  141 type  1   force =    -0.23362023    0.10737219    0.21959350
     atom  142 type  1   force =    -0.12302579    0.11876945    0.18709863
     atom  143 type  1   force =    -0.24825799    0.21660091    0.13683917
     atom  144 type  1   force =    -0.12368819    0.17849281    0.13574970
     atom  145 type  1   force =     0.04953893    0.04255438    0.04901510
     atom  146 type  1   force =    -0.03312721    0.01988691    0.02207014
     atom  147 type  1   force =     0.01229658    0.01883915    0.01338019
     atom  148 type  1   force =    -0.15042007   -0.02865156   -0.03702646
     atom  149 type  1   force =    -0.01072993    0.05686081   -0.03891607
     atom  150 type  1   force =     0.01985665    0.00536770   -0.07502222
     atom  151 type  1   force =    -0.01121604   -0.03517004    0.06525044
     atom  152 type  1   force =     0.01809831   -0.06569685    0.00877744
     atom  153 type  1   force =    -0.02235770    0.14807148   -0.11897320
     atom  154 type  1   force =    -0.04658433    0.07559987   -0.09290692
     atom  155 type  1   force =    -0.12366965   -0.00299427   -0.12366577
     atom  156 type  1   force =    -0.12388051   -0.18621911   -0.12389152
     atom  157 type  1   force =     0.05803548    0.15876314   -0.07818010
     atom  158 type  1   force =     0.06781375    0.02164660   -0.01278235
     atom  159 type  1   force =    -0.06460013   -0.04840675   -0.12146027
     atom  160 type  1   force =     0.08828418   -0.20466801   -0.20324022
     atom  161 type  1   force =    -0.07819767    0.15880376    0.05801558
     atom  162 type  1   force =    -0.01278050    0.02163450    0.06780428
     atom  163 type  1   force =     0.01316649   -0.11119227    0.12202092
     atom  164 type  1   force =     0.03660039   -0.09948287    0.13827968
     atom  165 type  1   force =     0.02402935    0.10479003    0.13173086
     atom  166 type  1   force =     0.02567597    0.00712580    0.07079300
     atom  167 type  1   force =     0.04644238   -0.13073619    0.04646580
     atom  168 type  1   force =     0.11454981   -0.15824511    0.11452253
     atom  169 type  1   force =    -0.02705119   -0.10413171    0.14978925
     atom  170 type  1   force =    -0.04824618   -0.08141236    0.07563726
     atom  171 type  1   force =    -0.12191868   -0.11625724   -0.00797106
     atom  172 type  1   force =    -0.11939795   -0.12211917   -0.19239313
     atom  173 type  1   force =    -0.06408302   -0.10881320   -0.05210533
     atom  174 type  1   force =     0.08337894   -0.18502416   -0.20629615
     atom  175 type  1   force =     0.05173073   -0.06661119    0.15849712
     atom  176 type  1   force =     0.06549136   -0.00837217    0.02474781
     atom  177 type  1   force =    -0.16939265    0.09713851    0.08419814
     atom  178 type  1   force =    -1.16103690   -0.40820322   -0.41757487
     atom  179 type  1   force =    -0.11592761   -0.66323866   -0.19204012
     atom  180 type  1   force =     0.67115694   -0.67072432    0.30330459
     atom  181 type  1   force =    -0.10322606   -0.18051079   -0.68137532
     atom  182 type  1   force =     0.66642731    0.35159788   -0.67224847
     atom  183 type  1   force =    -0.19205010   -0.66322096   -0.11592732
     atom  184 type  1   force =     0.30332670   -0.67072623    0.67113703
     atom  185 type  1   force =    -0.20972046   -0.18486648    0.66000462
     atom  186 type  1   force =    -0.00632036    0.00119923    0.41202340
     atom  187 type  1   force =     0.13424781   -0.23856898    0.23754783
     atom  188 type  1   force =     0.12920620   -0.11042175    0.19018480
     atom  189 type  1   force =     1.96324069   -1.99336631    1.96327430
     atom  190 type  1   force =     0.68786036   -0.41400182    0.68784475
     atom  191 type  1   force =    -0.07664612    0.04900851    0.15422673
     atom  192 type  1   force =    -0.01089392    0.05755264    0.02163678
     atom  193 type  1   force =     0.01576398    0.11050460   -0.11735372
     atom  194 type  1   force =     0.04293177    0.12595397   -0.10848561
     atom  195 type  1   force =     0.04925553    0.04188599   -0.13224346
     atom  196 type  1   force =     0.11880003    0.10280654   -0.16182584
     atom  197 type  1   force =     0.02604276    0.11767988    0.10881088
     atom  198 type  1   force =     0.02464965    0.05870772    0.00793392
     atom  199 type  1   force =    -0.18900910   -0.12116653   -0.68119563
     atom  200 type  1   force =     0.33597695    0.66023147   -0.71142758
     atom  201 type  1   force =    -0.20162373    0.66623076   -0.20162866
     atom  202 type  1   force =    -0.00122969    0.40836085   -0.00123782
     atom  203 type  1   force =     1.98720036    1.91549967   -2.03052674
     atom  204 type  1   force =     0.72602373    0.68117817   -0.43310152
     atom  205 type  1   force =     0.13688926    0.21656346   -0.24825303
     atom  206 type  1   force =     0.13575871    0.17850665   -0.12367057
     atom  207 type  1   force =    -2.03056418    1.91555238    1.98713164
     atom  208 type  1   force =    -0.43309653    0.68119474    0.72601624
     atom  209 type  1   force =    -0.09109994    0.20097488    0.21854661
     atom  210 type  1   force =    -0.08875097    0.09873921    0.11169401
     atom  211 type  1   force =     0.19727450    0.19860564    0.73186104
     atom  212 type  1   force =     0.10770469    0.09949836    0.21295416
     atom  213 type  1   force =     0.20712691    0.73877053    0.20712748
     atom  214 type  1   force =     0.11771571    0.20723240    0.11770797
     atom  215 type  2   force =    -2.32145609   -2.30178236   -2.32145302
     The core correction contribution to forces
     atom    1 type  1   force =     0.00000000    0.00000000    0.00000000
     atom    2 type  1   force =     0.00000000    0.00000000    0.00000000
     atom    3 type  1   force =     0.00000000    0.00000000    0.00000000
     atom    4 type  1   force =     0.00000000    0.00000000    0.00000000
     atom    5 type  1   force =     0.00000000    0.00000000    0.00000000
     atom    6 type  1   force =     0.00000000    0.00000000    0.00000000
     atom    7 type  1   force =     0.00000000    0.00000000    0.00000000
     atom    8 type  1   force =     0.00000000    0.00000000    0.00000000
     atom    9 type  1   force =     0.00000000    0.00000000    0.00000000
     atom   10 type  1   force =     0.00000000    0.00000000    0.00000000
     atom   11 type  1   force =     0.00000000    0.00000000    0.00000000
     atom   12 type  1   force =     0.00000000    0.00000000    0.00000000
     atom   13 type  1   force =     0.00000000    0.00000000    0.00000000
     atom   14 type  1   force =     0.00000000    0.00000000    0.00000000
     atom   15 type  1   force =     0.00000000    0.00000000    0.00000000
     atom   16 type  1   force =     0.00000000    0.00000000    0.00000000
     atom   17 type  1   force =     0.00000000    0.00000000    0.00000000
     atom   18 type  1   force =     0.00000000    0.00000000    0.00000000
     atom   19 type  1   force =     0.00000000    0.00000000    0.00000000
     atom   20 type  1   force =     0.00000000    0.00000000    0.00000000
     atom   21 type  1   force =     0.00000000    0.00000000    0.00000000
     atom   22 type  1   force =     0.00000000    0.00000000    0.00000000
     atom   23 type  1   force =     0.00000000    0.00000000    0.00000000
     atom   24 type  1   force =     0.00000000    0.00000000    0.00000000
     atom   25 type  1   force =     0.00000000    0.00000000    0.00000000
     atom   26 type  1   force =     0.00000000    0.00000000    0.00000000
     atom   27 type  1   force =     0.00000000    0.00000000    0.00000000
     atom   28 type  1   force =     0.00000000    0.00000000    0.00000000
     atom   29 type  1   force =     0.00000000    0.00000000    0.00000000
     atom   30 type  1   force =     0.00000000    0.00000000    0.00000000
     atom   31 type  1   force =     0.00000000    0.00000000    0.00000000
     atom   32 type  1   force =     0.00000000    0.00000000    0.00000000
     atom   33 type  1   force =     0.00000000    0.00000000    0.00000000
     atom   34 type  1   force =     0.00000000    0.00000000    0.00000000
     atom   35 type  1   force =     0.00000000    0.00000000    0.00000000
     atom   36 type  1   force =     0.00000000    0.00000000    0.00000000
     atom   37 type  1   force =     0.00000000    0.00000000    0.00000000
     atom   38 type  1   force =     0.00000000    0.00000000    0.00000000
     atom   39 type  1   force =     0.00000000    0.00000000    0.00000000
     atom   40 type  1   force =     0.00000000    0.00000000    0.00000000
     atom   41 type  1   force =     0.00000000    0.00000000    0.00000000
     atom   42 type  1   force =     0.00000000    0.00000000    0.00000000
     atom   43 type  1   force =     0.00000000    0.00000000    0.00000000
     atom   44 type  1   force =     0.00000000    0.00000000    0.00000000
     atom   45 type  1   force =     0.00000000    0.00000000    0.00000000
     atom   46 type  1   force =     0.00000000    0.00000000    0.00000000
     atom   47 type  1   force =     0.00000000    0.00000000    0.00000000
     atom   48 type  1   force =     0.00000000    0.00000000    0.00000000
     atom   49 type  1   force =     0.00000000    0.00000000    0.00000000
     atom   50 type  1   force =     0.00000000    0.00000000    0.00000000
     atom   51 type  1   force =     0.00000000    0.00000000    0.00000000
     atom   52 type  1   force =     0.00000000    0.00000000    0.00000000
     atom   53 type  1   force =     0.00000000    0.00000000    0.00000000
     atom   54 type  1   force =     0.00000000    0.00000000    0.00000000
     atom   55 type  1   force =     0.00000000    0.00000000    0.00000000
     atom   56 type  1   force =     0.00000000    0.00000000    0.00000000
     atom   57 type  1   force =     0.00000000    0.00000000    0.00000000
     atom   58 type  1   force =     0.00000000    0.00000000    0.00000000
     atom   59 type  1   force =     0.00000000    0.00000000    0.00000000
     atom   60 type  1   force =     0.00000000    0.00000000    0.00000000
     atom   61 type  1   force =     0.00000000    0.00000000    0.00000000
     atom   62 type  1   force =     0.00000000    0.00000000    0.00000000
     atom   63 type  1   force =     0.00000000    0.00000000    0.00000000
     atom   64 type  1   force =     0.00000000    0.00000000    0.00000000
     atom   65 type  1   force =     0.00000000    0.00000000    0.00000000
     atom   66 type  1   force =     0.00000000    0.00000000    0.00000000
     atom   67 type  1   force =     0.00000000    0.00000000    0.00000000
     atom   68 type  1   force =     0.00000000    0.00000000    0.00000000
     atom   69 type  1   force =     0.00000000    0.00000000    0.00000000
     atom   70 type  1   force =     0.00000000    0.00000000    0.00000000
     atom   71 type  1   force =     0.00000000    0.00000000    0.00000000
     atom   72 type  1   force =     0.00000000    0.00000000    0.00000000
     atom   73 type  1   force =     0.00000000    0.00000000    0.00000000
     atom   74 type  1   force =     0.00000000    0.00000000    0.00000000
     atom   75 type  1   force =     0.00000000    0.00000000    0.00000000
     atom   76 type  1   force =     0.00000000    0.00000000    0.00000000
     atom   77 type  1   force =     0.00000000    0.00000000    0.00000000
     atom   78 type  1   force =     0.00000000    0.00000000    0.00000000
     atom   79 type  1   force =     0.00000000    0.00000000    0.00000000
     atom   80 type  1   force =     0.00000000    0.00000000    0.00000000
     atom   81 type  1   force =     0.00000000    0.00000000    0.00000000
     atom   82 type  1   force =     0.00000000    0.00000000    0.00000000
     atom   83 type  1   force =     0.00000000    0.00000000    0.00000000
     atom   84 type  1   force =     0.00000000    0.00000000    0.00000000
     atom   85 type  1   force =     0.00000000    0.00000000    0.00000000
     atom   86 type  1   force =     0.00000000    0.00000000    0.00000000
     atom   87 type  1   force =     0.00000000    0.00000000    0.00000000
     atom   88 type  1   force =     0.00000000    0.00000000    0.00000000
     atom   89 type  1   force =     0.00000000    0.00000000    0.00000000
     atom   90 type  1   force =     0.00000000    0.00000000    0.00000000
     atom   91 type  1   force =     0.00000000    0.00000000    0.00000000
     atom   92 type  1   force =     0.00000000    0.00000000    0.00000000
     atom   93 type  1   force =     0.00000000    0.00000000    0.00000000
     atom   94 type  1   force =     0.00000000    0.00000000    0.00000000
     atom   95 type  1   force =     0.00000000    0.00000000    0.00000000
     atom   96 type  1   force =     0.00000000    0.00000000    0.00000000
     atom   97 type  1   force =     0.00000000    0.00000000    0.00000000
     atom   98 type  1   force =     0.00000000    0.00000000    0.00000000
     atom   99 type  1   force =     0.00000000    0.00000000    0.00000000
     atom  100 type  1   force =     0.00000000    0.00000000    0.00000000
     atom  101 type  1   force =     0.00000000    0.00000000    0.00000000
     atom  102 type  1   force =     0.00000000    0.00000000    0.00000000
     atom  103 type  1   force =     0.00000000    0.00000000    0.00000000
     atom  104 type  1   force =     0.00000000    0.00000000    0.00000000
     atom  105 type  1   force =     0.00000000    0.00000000    0.00000000
     atom  106 type  1   force =     0.00000000    0.00000000    0.00000000
     atom  107 type  1   force =     0.00000000    0.00000000    0.00000000
     atom  108 type  1   force =     0.00000000    0.00000000    0.00000000
     atom  109 type  1   force =     0.00000000    0.00000000    0.00000000
     atom  110 type  1   force =     0.00000000    0.00000000    0.00000000
     atom  111 type  1   force =     0.00000000    0.00000000    0.00000000
     atom  112 type  1   force =     0.00000000    0.00000000    0.00000000
     atom  113 type  1   force =     0.00000000    0.00000000    0.00000000
     atom  114 type  1   force =     0.00000000    0.00000000    0.00000000
     atom  115 type  1   force =     0.00000000    0.00000000    0.00000000
     atom  116 type  1   force =     0.00000000    0.00000000    0.00000000
     atom  117 type  1   force =     0.00000000    0.00000000    0.00000000
     atom  118 type  1   force =     0.00000000    0.00000000    0.00000000
     atom  119 type  1   force =     0.00000000    0.00000000    0.00000000
     atom  120 type  1   force =     0.00000000    0.00000000    0.00000000
     atom  121 type  1   force =     0.00000000    0.00000000    0.00000000
     atom  122 type  1   force =     0.00000000    0.00000000    0.00000000
     atom  123 type  1   force =     0.00000000    0.00000000    0.00000000
     atom  124 type  1   force =     0.00000000    0.00000000    0.00000000
     atom  125 type  1   force =     0.00000000    0.00000000    0.00000000
     atom  126 type  1   force =     0.00000000    0.00000000    0.00000000
     atom  127 type  1   force =     0.00000000    0.00000000    0.00000000
     atom  128 type  1   force =     0.00000000    0.00000000    0.00000000
     atom  129 type  1   force =     0.00000000    0.00000000    0.00000000
     atom  130 type  1   force =     0.00000000    0.00000000    0.00000000
     atom  131 type  1   force =     0.00000000    0.00000000    0.00000000
     atom  132 type  1   force =     0.00000000    0.00000000    0.00000000
     atom  133 type  1   force =     0.00000000    0.00000000    0.00000000
     atom  134 type  1   force =     0.00000000    0.00000000    0.00000000
     atom  135 type  1   force =     0.00000000    0.00000000    0.00000000
     atom  136 type  1   force =     0.00000000    0.00000000    0.00000000
     atom  137 type  1   force =     0.00000000    0.00000000    0.00000000
     atom  138 type  1   force =     0.00000000    0.00000000    0.00000000
     atom  139 type  1   force =     0.00000000    0.00000000    0.00000000
     atom  140 type  1   force =     0.00000000    0.00000000    0.00000000
     atom  141 type  1   force =     0.00000000    0.00000000    0.00000000
     atom  142 type  1   force =     0.00000000    0.00000000    0.00000000
     atom  143 type  1   force =     0.00000000    0.00000000    0.00000000
     atom  144 type  1   force =     0.00000000    0.00000000    0.00000000
     atom  145 type  1   force =     0.00000000    0.00000000    0.00000000
     atom  146 type  1   force =     0.00000000    0.00000000    0.00000000
     atom  147 type  1   force =     0.00000000    0.00000000    0.00000000
     atom  148 type  1   force =     0.00000000    0.00000000    0.00000000
     atom  149 type  1   force =     0.00000000    0.00000000    0.00000000
     atom  150 type  1   force =     0.00000000    0.00000000    0.00000000
     atom  151 type  1   force =     0.00000000    0.00000000    0.00000000
     atom  152 type  1   force =     0.00000000    0.00000000    0.00000000
     atom  153 type  1   force =     0.00000000    0.00000000    0.00000000
     atom  154 type  1   force =     0.00000000    0.00000000    0.00000000
     atom  155 type  1   force =     0.00000000    0.00000000    0.00000000
     atom  156 type  1   force =     0.00000000    0.00000000    0.00000000
     atom  157 type  1   force =     0.00000000    0.00000000    0.00000000
     atom  158 type  1   force =     0.00000000    0.00000000    0.00000000
     atom  159 type  1   force =     0.00000000    0.00000000    0.00000000
     atom  160 type  1   force =     0.00000000    0.00000000    0.00000000
     atom  161 type  1   force =     0.00000000    0.00000000    0.00000000
     atom  162 type  1   force =     0.00000000    0.00000000    0.00000000
     atom  163 type  1   force =     0.00000000    0.00000000    0.00000000
     atom  164 type  1   force =     0.00000000    0.00000000    0.00000000
     atom  165 type  1   force =     0.00000000    0.00000000    0.00000000
     atom  166 type  1   force =     0.00000000    0.00000000    0.00000000
     atom  167 type  1   force =     0.00000000    0.00000000    0.00000000
     atom  168 type  1   force =     0.00000000    0.00000000    0.00000000
     atom  169 type  1   force =     0.00000000    0.00000000    0.00000000
     atom  170 type  1   force =     0.00000000    0.00000000    0.00000000
     atom  171 type  1   force =     0.00000000    0.00000000    0.00000000
     atom  172 type  1   force =     0.00000000    0.00000000    0.00000000
     atom  173 type  1   force =     0.00000000    0.00000000    0.00000000
     atom  174 type  1   force =     0.00000000    0.00000000    0.00000000
     atom  175 type  1   force =     0.00000000    0.00000000    0.00000000
     atom  176 type  1   force =     0.00000000    0.00000000    0.00000000
     atom  177 type  1   force =     0.00000000    0.00000000    0.00000000
     atom  178 type  1   force =     0.00000000    0.00000000    0.00000000
     atom  179 type  1   force =     0.00000000    0.00000000    0.00000000
     atom  180 type  1   force =     0.00000000    0.00000000    0.00000000
     atom  181 type  1   force =     0.00000000    0.00000000    0.00000000
     atom  182 type  1   force =     0.00000000    0.00000000    0.00000000
     atom  183 type  1   force =     0.00000000    0.00000000    0.00000000
     atom  184 type  1   force =     0.00000000    0.00000000    0.00000000
     atom  185 type  1   force =     0.00000000    0.00000000    0.00000000
     atom  186 type  1   force =     0.00000000    0.00000000    0.00000000
     atom  187 type  1   force =     0.00000000    0.00000000    0.00000000
     atom  188 type  1   force =     0.00000000    0.00000000    0.00000000
     atom  189 type  1   force =     0.00000000    0.00000000    0.00000000
     atom  190 type  1   force =     0.00000000    0.00000000    0.00000000
     atom  191 type  1   force =     0.00000000    0.00000000    0.00000000
     atom  192 type  1   force =     0.00000000    0.00000000    0.00000000
     atom  193 type  1   force =     0.00000000    0.00000000    0.00000000
     atom  194 type  1   force =     0.00000000    0.00000000    0.00000000
     atom  195 type  1   force =     0.00000000    0.00000000    0.00000000
     atom  196 type  1   force =     0.00000000    0.00000000    0.00000000
     atom  197 type  1   force =     0.00000000    0.00000000    0.00000000
     atom  198 type  1   force =     0.00000000    0.00000000    0.00000000
     atom  199 type  1   force =     0.00000000    0.00000000    0.00000000
     atom  200 type  1   force =     0.00000000    0.00000000    0.00000000
     atom  201 type  1   force =     0.00000000    0.00000000    0.00000000
     atom  202 type  1   force =     0.00000000    0.00000000    0.00000000
     atom  203 type  1   force =     0.00000000    0.00000000    0.00000000
     atom  204 type  1   force =     0.00000000    0.00000000    0.00000000
     atom  205 type  1   force =     0.00000000    0.00000000    0.00000000
     atom  206 type  1   force =     0.00000000    0.00000000    0.00000000
     atom  207 type  1   force =     0.00000000    0.00000000    0.00000000
     atom  208 type  1   force =     0.00000000    0.00000000    0.00000000
     atom  209 type  1   force =     0.00000000    0.00000000    0.00000000
     atom  210 type  1   force =     0.00000000    0.00000000    0.00000000
     atom  211 type  1   force =     0.00000000    0.00000000    0.00000000
     atom  212 type  1   force =     0.00000000    0.00000000    0.00000000
     atom  213 type  1   force =     0.00000000    0.00000000    0.00000000
     atom  214 type  1   force =     0.00000000    0.00000000    0.00000000
     atom  215 type  2   force =     0.00000000    0.00000000    0.00000000
     The Hubbard contrib.    to forces
     atom    1 type  1   force =     0.00000000    0.00000000    0.00000000
     atom    2 type  1   force =     0.00000000    0.00000000    0.00000000
     atom    3 type  1   force =     0.00000000    0.00000000    0.00000000
     atom    4 type  1   force =     0.00000000    0.00000000    0.00000000
     atom    5 type  1   force =     0.00000000    0.00000000    0.00000000
     atom    6 type  1   force =     0.00000000    0.00000000    0.00000000
     atom    7 type  1   force =     0.00000000    0.00000000    0.00000000
     atom    8 type  1   force =     0.00000000    0.00000000    0.00000000
     atom    9 type  1   force =     0.00000000    0.00000000    0.00000000
     atom   10 type  1   force =     0.00000000    0.00000000    0.00000000
     atom   11 type  1   force =     0.00000000    0.00000000    0.00000000
     atom   12 type  1   force =     0.00000000    0.00000000    0.00000000
     atom   13 type  1   force =     0.00000000    0.00000000    0.00000000
     atom   14 type  1   force =     0.00000000    0.00000000    0.00000000
     atom   15 type  1   force =     0.00000000    0.00000000    0.00000000
     atom   16 type  1   force =     0.00000000    0.00000000    0.00000000
     atom   17 type  1   force =     0.00000000    0.00000000    0.00000000
     atom   18 type  1   force =     0.00000000    0.00000000    0.00000000
     atom   19 type  1   force =     0.00000000    0.00000000    0.00000000
     atom   20 type  1   force =     0.00000000    0.00000000    0.00000000
     atom   21 type  1   force =     0.00000000    0.00000000    0.00000000
     atom   22 type  1   force =     0.00000000    0.00000000    0.00000000
     atom   23 type  1   force =     0.00000000    0.00000000    0.00000000
     atom   24 type  1   force =     0.00000000    0.00000000    0.00000000
     atom   25 type  1   force =     0.00000000    0.00000000    0.00000000
     atom   26 type  1   force =     0.00000000    0.00000000    0.00000000
     atom   27 type  1   force =     0.00000000    0.00000000    0.00000000
     atom   28 type  1   force =     0.00000000    0.00000000    0.00000000
     atom   29 type  1   force =     0.00000000    0.00000000    0.00000000
     atom   30 type  1   force =     0.00000000    0.00000000    0.00000000
     atom   31 type  1   force =     0.00000000    0.00000000    0.00000000
     atom   32 type  1   force =     0.00000000    0.00000000    0.00000000
     atom   33 type  1   force =     0.00000000    0.00000000    0.00000000
     atom   34 type  1   force =     0.00000000    0.00000000    0.00000000
     atom   35 type  1   force =     0.00000000    0.00000000    0.00000000
     atom   36 type  1   force =     0.00000000    0.00000000    0.00000000
     atom   37 type  1   force =     0.00000000    0.00000000    0.00000000
     atom   38 type  1   force =     0.00000000    0.00000000    0.00000000
     atom   39 type  1   force =     0.00000000    0.00000000    0.00000000
     atom   40 type  1   force =     0.00000000    0.00000000    0.00000000
     atom   41 type  1   force =     0.00000000    0.00000000    0.00000000
     atom   42 type  1   force =     0.00000000    0.00000000    0.00000000
     atom   43 type  1   force =     0.00000000    0.00000000    0.00000000
     atom   44 type  1   force =     0.00000000    0.00000000    0.00000000
     atom   45 type  1   force =     0.00000000    0.00000000    0.00000000
     atom   46 type  1   force =     0.00000000    0.00000000    0.00000000
     atom   47 type  1   force =     0.00000000    0.00000000    0.00000000
     atom   48 type  1   force =     0.00000000    0.00000000    0.00000000
     atom   49 type  1   force =     0.00000000    0.00000000    0.00000000
     atom   50 type  1   force =     0.00000000    0.00000000    0.00000000
     atom   51 type  1   force =     0.00000000    0.00000000    0.00000000
     atom   52 type  1   force =     0.00000000    0.00000000    0.00000000
     atom   53 type  1   force =     0.00000000    0.00000000    0.00000000
     atom   54 type  1   force =     0.00000000    0.00000000    0.00000000
     atom   55 type  1   force =     0.00000000    0.00000000    0.00000000
     atom   56 type  1   force =     0.00000000    0.00000000    0.00000000
     atom   57 type  1   force =     0.00000000    0.00000000    0.00000000
     atom   58 type  1   force =     0.00000000    0.00000000    0.00000000
     atom   59 type  1   force =     0.00000000    0.00000000    0.00000000
     atom   60 type  1   force =     0.00000000    0.00000000    0.00000000
     atom   61 type  1   force =     0.00000000    0.00000000    0.00000000
     atom   62 type  1   force =     0.00000000    0.00000000    0.00000000
     atom   63 type  1   force =     0.00000000    0.00000000    0.00000000
     atom   64 type  1   force =     0.00000000    0.00000000    0.00000000
     atom   65 type  1   force =     0.00000000    0.00000000    0.00000000
     atom   66 type  1   force =     0.00000000    0.00000000    0.00000000
     atom   67 type  1   force =     0.00000000    0.00000000    0.00000000
     atom   68 type  1   force =     0.00000000    0.00000000    0.00000000
     atom   69 type  1   force =     0.00000000    0.00000000    0.00000000
     atom   70 type  1   force =     0.00000000    0.00000000    0.00000000
     atom   71 type  1   force =     0.00000000    0.00000000    0.00000000
     atom   72 type  1   force =     0.00000000    0.00000000    0.00000000
     atom   73 type  1   force =     0.00000000    0.00000000    0.00000000
     atom   74 type  1   force =     0.00000000    0.00000000    0.00000000
     atom   75 type  1   force =     0.00000000    0.00000000    0.00000000
     atom   76 type  1   force =     0.00000000    0.00000000    0.00000000
     atom   77 type  1   force =     0.00000000    0.00000000    0.00000000
     atom   78 type  1   force =     0.00000000    0.00000000    0.00000000
     atom   79 type  1   force =     0.00000000    0.00000000    0.00000000
     atom   80 type  1   force =     0.00000000    0.00000000    0.00000000
     atom   81 type  1   force =     0.00000000    0.00000000    0.00000000
     atom   82 type  1   force =     0.00000000    0.00000000    0.00000000
     atom   83 type  1   force =     0.00000000    0.00000000    0.00000000
     atom   84 type  1   force =     0.00000000    0.00000000    0.00000000
     atom   85 type  1   force =     0.00000000    0.00000000    0.00000000
     atom   86 type  1   force =     0.00000000    0.00000000    0.00000000
     atom   87 type  1   force =     0.00000000    0.00000000    0.00000000
     atom   88 type  1   force =     0.00000000    0.00000000    0.00000000
     atom   89 type  1   force =     0.00000000    0.00000000    0.00000000
     atom   90 type  1   force =     0.00000000    0.00000000    0.00000000
     atom   91 type  1   force =     0.00000000    0.00000000    0.00000000
     atom   92 type  1   force =     0.00000000    0.00000000    0.00000000
     atom   93 type  1   force =     0.00000000    0.00000000    0.00000000
     atom   94 type  1   force =     0.00000000    0.00000000    0.00000000
     atom   95 type  1   force =     0.00000000    0.00000000    0.00000000
     atom   96 type  1   force =     0.00000000    0.00000000    0.00000000
     atom   97 type  1   force =     0.00000000    0.00000000    0.00000000
     atom   98 type  1   force =     0.00000000    0.00000000    0.00000000
     atom   99 type  1   force =     0.00000000    0.00000000    0.00000000
     atom  100 type  1   force =     0.00000000    0.00000000    0.00000000
     atom  101 type  1   force =     0.00000000    0.00000000    0.00000000
     atom  102 type  1   force =     0.00000000    0.00000000    0.00000000
     atom  103 type  1   force =     0.00000000    0.00000000    0.00000000
     atom  104 type  1   force =     0.00000000    0.00000000    0.00000000
     atom  105 type  1   force =     0.00000000    0.00000000    0.00000000
     atom  106 type  1   force =     0.00000000    0.00000000    0.00000000
     atom  107 type  1   force =     0.00000000    0.00000000    0.00000000
     atom  108 type  1   force =     0.00000000    0.00000000    0.00000000
     atom  109 type  1   force =     0.00000000    0.00000000    0.00000000
     atom  110 type  1   force =     0.00000000    0.00000000    0.00000000
     atom  111 type  1   force =     0.00000000    0.00000000    0.00000000
     atom  112 type  1   force =     0.00000000    0.00000000    0.00000000
     atom  113 type  1   force =     0.00000000    0.00000000    0.00000000
     atom  114 type  1   force =     0.00000000    0.00000000    0.00000000
     atom  115 type  1   force =     0.00000000    0.00000000    0.00000000
     atom  116 type  1   force =     0.00000000    0.00000000    0.00000000
     atom  117 type  1   force =     0.00000000    0.00000000    0.00000000
     atom  118 type  1   force =     0.00000000    0.00000000    0.00000000
     atom  119 type  1   force =     0.00000000    0.00000000    0.00000000
     atom  120 type  1   force =     0.00000000    0.00000000    0.00000000
     atom  121 type  1   force =     0.00000000    0.00000000    0.00000000
     atom  122 type  1   force =     0.00000000    0.00000000    0.00000000
     atom  123 type  1   force =     0.00000000    0.00000000    0.00000000
     atom  124 type  1   force =     0.00000000    0.00000000    0.00000000
     atom  125 type  1   force =     0.00000000    0.00000000    0.00000000
     atom  126 type  1   force =     0.00000000    0.00000000    0.00000000
     atom  127 type  1   force =     0.00000000    0.00000000    0.00000000
     atom  128 type  1   force =     0.00000000    0.00000000    0.00000000
     atom  129 type  1   force =     0.00000000    0.00000000    0.00000000
     atom  130 type  1   force =     0.00000000    0.00000000    0.00000000
     atom  131 type  1   force =     0.00000000    0.00000000    0.00000000
     atom  132 type  1   force =     0.00000000    0.00000000    0.00000000
     atom  133 type  1   force =     0.00000000    0.00000000    0.00000000
     atom  134 type  1   force =     0.00000000    0.00000000    0.00000000
     atom  135 type  1   force =     0.00000000    0.00000000    0.00000000
     atom  136 type  1   force =     0.00000000    0.00000000    0.00000000
     atom  137 type  1   force =     0.00000000    0.00000000    0.00000000
     atom  138 type  1   force =     0.00000000    0.00000000    0.00000000
     atom  139 type  1   force =     0.00000000    0.00000000    0.00000000
     atom  140 type  1   force =     0.00000000    0.00000000    0.00000000
     atom  141 type  1   force =     0.00000000    0.00000000    0.00000000
     atom  142 type  1   force =     0.00000000    0.00000000    0.00000000
     atom  143 type  1   force =     0.00000000    0.00000000    0.00000000
     atom  144 type  1   force =     0.00000000    0.00000000    0.00000000
     atom  145 type  1   force =     0.00000000    0.00000000    0.00000000
     atom  146 type  1   force =     0.00000000    0.00000000    0.00000000
     atom  147 type  1   force =     0.00000000    0.00000000    0.00000000
     atom  148 type  1   force =     0.00000000    0.00000000    0.00000000
     atom  149 type  1   force =     0.00000000    0.00000000    0.00000000
     atom  150 type  1   force =     0.00000000    0.00000000    0.00000000
     atom  151 type  1   force =     0.00000000    0.00000000    0.00000000
     atom  152 type  1   force =     0.00000000    0.00000000    0.00000000
     atom  153 type  1   force =     0.00000000    0.00000000    0.00000000
     atom  154 type  1   force =     0.00000000    0.00000000    0.00000000
     atom  155 type  1   force =     0.00000000    0.00000000    0.00000000
     atom  156 type  1   force =     0.00000000    0.00000000    0.00000000
     atom  157 type  1   force =     0.00000000    0.00000000    0.00000000
     atom  158 type  1   force =     0.00000000    0.00000000    0.00000000
     atom  159 type  1   force =     0.00000000    0.00000000    0.00000000
     atom  160 type  1   force =     0.00000000    0.00000000    0.00000000
     atom  161 type  1   force =     0.00000000    0.00000000    0.00000000
     atom  162 type  1   force =     0.00000000    0.00000000    0.00000000
     atom  163 type  1   force =     0.00000000    0.00000000    0.00000000
     atom  164 type  1   force =     0.00000000    0.00000000    0.00000000
     atom  165 type  1   force =     0.00000000    0.00000000    0.00000000
     atom  166 type  1   force =     0.00000000    0.00000000    0.00000000
     atom  167 type  1   force =     0.00000000    0.00000000    0.00000000
     atom  168 type  1   force =     0.00000000    0.00000000    0.00000000
     atom  169 type  1   force =     0.00000000    0.00000000    0.00000000
     atom  170 type  1   force =     0.00000000    0.00000000    0.00000000
     atom  171 type  1   force =     0.00000000    0.00000000    0.00000000
     atom  172 type  1   force =     0.00000000    0.00000000    0.00000000
     atom  173 type  1   force =     0.00000000    0.00000000    0.00000000
     atom  174 type  1   force =     0.00000000    0.00000000    0.00000000
     atom  175 type  1   force =     0.00000000    0.00000000    0.00000000
     atom  176 type  1   force =     0.00000000    0.00000000    0.00000000
     atom  177 type  1   force =     0.00000000    0.00000000    0.00000000
     atom  178 type  1   force =     0.00000000    0.00000000    0.00000000
     atom  179 type  1   force =     0.00000000    0.00000000    0.00000000
     atom  180 type  1   force =     0.00000000    0.00000000    0.00000000
     atom  181 type  1   force =     0.00000000    0.00000000    0.00000000
     atom  182 type  1   force =     0.00000000    0.00000000    0.00000000
     atom  183 type  1   force =     0.00000000    0.00000000    0.00000000
     atom  184 type  1   force =     0.00000000    0.00000000    0.00000000
     atom  185 type  1   force =     0.00000000    0.00000000    0.00000000
     atom  186 type  1   force =     0.00000000    0.00000000    0.00000000
     atom  187 type  1   force =     0.00000000    0.00000000    0.00000000
     atom  188 type  1   force =     0.00000000    0.00000000    0.00000000
     atom  189 type  1   force =     0.00000000    0.00000000    0.00000000
     atom  190 type  1   force =     0.00000000    0.00000000    0.00000000
     atom  191 type  1   force =     0.00000000    0.00000000    0.00000000
     atom  192 type  1   force =     0.00000000    0.00000000    0.00000000
     atom  193 type  1   force =     0.00000000    0.00000000    0.00000000
     atom  194 type  1   force =     0.00000000    0.00000000    0.00000000
     atom  195 type  1   force =     0.00000000    0.00000000    0.00000000
     atom  196 type  1   force =     0.00000000    0.00000000    0.00000000
     atom  197 type  1   force =     0.00000000    0.00000000    0.00000000
     atom  198 type  1   force =     0.00000000    0.00000000    0.00000000
     atom  199 type  1   force =     0.00000000    0.00000000    0.00000000
     atom  200 type  1   force =     0.00000000    0.00000000    0.00000000
     atom  201 type  1   force =     0.00000000    0.00000000    0.00000000
     atom  202 type  1   force =     0.00000000    0.00000000    0.00000000
     atom  203 type  1   force =     0.00000000    0.00000000    0.00000000
     atom  204 type  1   force =     0.00000000    0.00000000    0.00000000
     atom  205 type  1   force =     0.00000000    0.00000000    0.00000000
     atom  206 type  1   force =     0.00000000    0.00000000    0.00000000
     atom  207 type  1   force =     0.00000000    0.00000000    0.00000000
     atom  208 type  1   force =     0.00000000    0.00000000    0.00000000
     atom  209 type  1   force =     0.00000000    0.00000000    0.00000000
     atom  210 type  1   force =     0.00000000    0.00000000    0.00000000
     atom  211 type  1   force =     0.00000000    0.00000000    0.00000000
     atom  212 type  1   force =     0.00000000    0.00000000    0.00000000
     atom  213 type  1   force =     0.00000000    0.00000000    0.00000000
     atom  214 type  1   force =     0.00000000    0.00000000    0.00000000
     atom  215 type  2   force =     0.00000000    0.00000000    0.00000000
     The SCF correction term to forces
     atom    1 type  1   force =     0.00000085   -0.00000058    0.00000073
     atom    2 type  1   force =     0.00000216   -0.00000025    0.00000129
     atom    3 type  1   force =     0.00000179   -0.00000047    0.00000093
     atom    4 type  1   force =     0.00000135   -0.00000098   -0.00000015
     atom    5 type  1   force =     0.00000190    0.00000058    0.00000078
     atom    6 type  1   force =     0.00000103   -0.00000058   -0.00000083
     atom    7 type  1   force =     0.00000199   -0.00000062    0.00000185
     atom    8 type  1   force =     0.00000108   -0.00000168    0.00000090
     atom    9 type  1   force =     0.00000117   -0.00000032   -0.00000010
     atom   10 type  1   force =     0.00000098   -0.00000097   -0.00000171
     atom   11 type  1   force =     0.00000022   -0.00000081   -0.00000180
     atom   12 type  1   force =     0.00000075   -0.00000065   -0.00000155
     atom   13 type  1   force =     0.00000060   -0.00000081   -0.00000171
     atom   14 type  1   force =     0.00000069   -0.00000109   -0.00000113
     atom   15 type  1   force =     0.00000103   -0.00000110   -0.00000148
     atom   16 type  1   force =     0.00000034   -0.00000109   -0.00000176
     atom   17 type  1   force =     0.00000006   -0.00000138   -0.00000061
     atom   18 type  1   force =     0.00000059   -0.00000123    0.00000034
     atom   19 type  1   force =     0.00000081   -0.00000133    0.00000084
     atom   20 type  1   force =     0.00000167   -0.00000072    0.00000162
     atom   21 type  1   force =     0.00000089   -0.00000059    0.00000087
     atom   22 type  1   force =     0.00000149   -0.00000027    0.00000209
     atom   23 type  1   force =     0.00000089   -0.00000107   -0.00000034
     atom   24 type  1   force =     0.00000146   -0.00000034    0.00000090
     atom   25 type  1   force =     0.00000134   -0.00000039    0.00000137
     atom   26 type  1   force =     0.00000105   -0.00000108    0.00000078
     atom   27 type  1   force =     0.00000011   -0.00000035    0.00000090
     atom   28 type  1   force =     0.00000035    0.00000021    0.00000052
     atom   29 type  1   force =     0.00000105   -0.00000159    0.00000029
     atom   30 type  1   force =     0.00000030   -0.00000113   -0.00000024
     atom   31 type  1   force =     0.00000080   -0.00000047    0.00000064
     atom   32 type  1   force =     0.00000067    0.00000035    0.00000045
     atom   33 type  1   force =     0.00000016   -0.00000043   -0.00000044
     atom   34 type  1   force =     0.00000011   -0.00000038   -0.00000129
     atom   35 type  1   force =     0.00000020    0.00000036   -0.00000187
     atom   36 type  1   force =     0.00000098    0.00000123   -0.00000099
     atom   37 type  1   force =     0.00000060   -0.00000044   -0.00000160
     atom   38 type  1   force =     0.00000147    0.00000040   -0.00000071
     atom   39 type  1   force =     0.00000038   -0.00000021   -0.00000029
     atom   40 type  1   force =     0.00000126    0.00000088   -0.00000022
     atom   41 type  1   force =     0.00000094   -0.00000069   -0.00000100
     atom   42 type  1   force =     0.00000173    0.00000033    0.00000048
     atom   43 type  1   force =     0.00000107    0.00000105    0.00000111
     atom   44 type  1   force =     0.00000051    0.00000080    0.00000044
     atom   45 type  1   force =     0.00000153   -0.00000038    0.00000136
     atom   46 type  1   force =     0.00000097   -0.00000107    0.00000098
     atom   47 type  1   force =     0.00000128    0.00000072   -0.00000035
     atom   48 type  1   force =     0.00000074    0.00000051   -0.00000024
     atom   49 type  1   force =     0.00000015    0.00000100    0.00000027
     atom   50 type  1   force =     0.00000049    0.00000121    0.00000052
     atom   51 type  1   force =     0.00000062    0.00000082    0.00000045
     atom   52 type  1   force =     0.00000140    0.00000074    0.00000035
     atom   53 type  1   force =     0.00000068    0.00000105    0.00000046
     atom   54 type  1   force =     0.00000121    0.00000173    0.00000058
     atom   55 type  1   force =     0.00000086    0.00000104    0.00000069
     atom   56 type  1   force =     0.00000143    0.00000147    0.00000122
     atom   57 type  1   force =     0.00000008    0.00000062    0.00000011
     atom   58 type  1   force =     0.00000076    0.00000127   -0.00000015
     atom   59 type  1   force =     0.00000019    0.00000057   -0.00000036
     atom   60 type  1   force =     0.00000011   -0.00000060   -0.00000095
     atom   61 type  1   force =     0.00000079    0.00000123   -0.00000066
     atom   62 type  1   force =     0.00000054    0.00000070   -0.00000107
     atom   63 type  1   force =     0.00000106    0.00000135   -0.00000009
     atom   64 type  1   force =     0.00000075    0.00000025   -0.00000161
     atom   65 type  1   force =     0.00000007    0.00000197   -0.00000046
     atom   66 type  1   force =     0.00000025    0.00000107   -0.00000017
     atom   67 type  1   force =    -0.00000003    0.00000028   -0.00000001
     atom   68 type  1   force =     0.00000071    0.00000001    0.00000062
     atom   69 type  1   force =     0.00000046    0.00000101    0.00000016
     atom   70 type  1   force =     0.00000076    0.00000121    0.00000039
     atom   71 type  1   force =     0.00000023    0.00000029   -0.00000057
     atom   72 type  1   force =     0.00000072   -0.00000025    0.00000029
     atom   73 type  1   force =     0.00000096    0.00000056    0.00000173
     atom   74 type  1   force =    -0.00000074   -0.00000059    0.00000083
     atom   75 type  1   force =    -0.00000009   -0.00000156   -0.00000025
     atom   76 type  1   force =    -0.00000084   -0.00000174   -0.00000093
     atom   77 type  1   force =    -0.00000142   -0.00000035    0.00000021
     atom   78 type  1   force =    -0.00000179   -0.00000137   -0.00000024
     atom   79 type  1   force =    -0.00000147   -0.00000111    0.00000087
     atom   80 type  1   force =    -0.00000185   -0.00000109    0.00000014
     atom   81 type  1   force =     0.00000039   -0.00000032   -0.00000142
     atom   82 type  1   force =    -0.00000014   -0.00000137   -0.00000168
     atom   83 type  1   force =     0.00000072   -0.00000081   -0.00000147
     atom   84 type  1   force =     0.00000117    0.00000025   -0.00000051
     atom   85 type  1   force =    -0.00000013   -0.00000120   -0.00000127
     atom   86 type  1   force =    -0.00000036   -0.00000072   -0.00000062
     atom   87 type  1   force =    -0.00000091   -0.00000144   -0.00000090
     atom   88 type  1   force =    -0.00000039    0.00000007   -0.00000028
     atom   89 type  1   force =     0.00000069   -0.00000076   -0.00000029
     atom   90 type  1   force =     0.00000070   -0.00000049    0.00000086
     atom   91 type  1   force =     0.00000112   -0.00000048    0.00000179
     atom   92 type  1   force =    -0.00000004   -0.00000097    0.00000126
     atom   93 type  1   force =    -0.00000007   -0.00000039    0.00000114
     atom   94 type  1   force =    -0.00000180   -0.00000100    0.00000088
     atom   95 type  1   force =     0.00000011    0.00000005   -0.00000011
     atom   96 type  1   force =    -0.00000137   -0.00000012   -0.00000008
     atom   97 type  1   force =     0.00000046   -0.00000158    0.00000090
     atom   98 type  1   force =    -0.00000014   -0.00000112    0.00000010
     atom   99 type  1   force =     0.00000071   -0.00000030    0.00000052
     atom  100 type  1   force =     0.00000127    0.00000096    0.00000115
     atom  101 type  1   force =    -0.00000091   -0.00000102   -0.00000013
     atom  102 type  1   force =    -0.00000029    0.00000045    0.00000096
     atom  103 type  1   force =    -0.00000026   -0.00000016    0.00000018
     atom  104 type  1   force =    -0.00000033    0.00000090    0.00000101
     atom  105 type  1   force =     0.00000004   -0.00000103   -0.00000090
     atom  106 type  1   force =     0.00000106    0.00000046   -0.00000018
     atom  107 type  1   force =     0.00000127    0.00000075   -0.00000050
     atom  108 type  1   force =     0.00000081    0.00000057   -0.00000103
     atom  109 type  1   force =    -0.00000030   -0.00000027   -0.00000032
     atom  110 type  1   force =    -0.00000176   -0.00000042   -0.00000039
     atom  111 type  1   force =    -0.00000013    0.00000100   -0.00000011
     atom  112 type  1   force =    -0.00000123    0.00000152   -0.00000106
     atom  113 type  1   force =     0.00000176    0.00000007   -0.00000015
     atom  114 type  1   force =     0.00000096   -0.00000025   -0.00000011
     atom  115 type  1   force =     0.00000113   -0.00000031    0.00000009
     atom  116 type  1   force =     0.00000069    0.00000026    0.00000020
     atom  117 type  1   force =    -0.00000041   -0.00000038    0.00000014
     atom  118 type  1   force =    -0.00000138   -0.00000031   -0.00000003
     atom  119 type  1   force =    -0.00000045    0.00000036   -0.00000007
     atom  120 type  1   force =    -0.00000089    0.00000061   -0.00000052
     atom  121 type  1   force =     0.00000067    0.00000107    0.00000049
     atom  122 type  1   force =     0.00000071    0.00000172    0.00000098
     atom  123 type  1   force =     0.00000105    0.00000191    0.00000086
     atom  124 type  1   force =     0.00000001    0.00000061   -0.00000010
     atom  125 type  1   force =     0.00000026    0.00000120    0.00000150
     atom  126 type  1   force =    -0.00000092    0.00000074    0.00000105
     atom  127 type  1   force =    -0.00000006    0.00000133    0.00000085
     atom  128 type  1   force =    -0.00000172    0.00000023    0.00000052
     atom  129 type  1   force =     0.00000170    0.00000120    0.00000026
     atom  130 type  1   force =     0.00000118    0.00000074   -0.00000076
     atom  131 type  1   force =     0.00000109    0.00000020   -0.00000146
     atom  132 type  1   force =     0.00000081   -0.00000051   -0.00000121
     atom  133 type  1   force =    -0.00000002    0.00000150   -0.00000096
     atom  134 type  1   force =    -0.00000026    0.00000051   -0.00000129
     atom  135 type  1   force =    -0.00000007    0.00000013   -0.00000007
     atom  136 type  1   force =    -0.00000092   -0.00000105   -0.00000079
     atom  137 type  1   force =     0.00000097    0.00000062   -0.00000082
     atom  138 type  1   force =     0.00000063    0.00000081   -0.00000016
     atom  139 type  1   force =     0.00000070    0.00000078    0.00000061
     atom  140 type  1   force =     0.00000049    0.00000069    0.00000128
     atom  141 type  1   force =     0.00000022    0.00000063   -0.00000002
     atom  142 type  1   force =    -0.00000022    0.00000124    0.00000055
     atom  143 type  1   force =     0.00000046    0.00000012   -0.00000092
     atom  144 type  1   force =    -0.00000013   -0.00000017    0.00000017
     atom  145 type  1   force =    -0.00000188   -0.00000084    0.00000042
     atom  146 type  1   force =    -0.00000132   -0.00000109    0.00000047
     atom  147 type  1   force =    -0.00000163   -0.00000081    0.00000052
     atom  148 type  1   force =    -0.00000070    0.00000025    0.00000106
     atom  149 type  1   force =    -0.00000045   -0.00000073    0.00000047
     atom  150 type  1   force =     0.00000079   -0.00000046    0.00000057
     atom  151 type  1   force =    -0.00000050   -0.00000107    0.00000072
     atom  152 type  1   force =     0.00000083   -0.00000035    0.00000126
     atom  153 type  1   force =    -0.00000148   -0.00000118   -0.00000014
     atom  154 type  1   force =    -0.00000083   -0.00000069   -0.00000025
     atom  155 type  1   force =    -0.00000079   -0.00000058   -0.00000061
     atom  156 type  1   force =    -0.00000161   -0.00000083   -0.00000140
     atom  157 type  1   force =    -0.00000048   -0.00000105   -0.00000059
     atom  158 type  1   force =    -0.00000032   -0.00000166   -0.00000117
     atom  159 type  1   force =    -0.00000027    0.00000007    0.00000011
     atom  160 type  1   force =    -0.00000016   -0.00000014   -0.00000128
     atom  161 type  1   force =    -0.00000080   -0.00000112   -0.00000029
     atom  162 type  1   force =    -0.00000138   -0.00000169   -0.00000022
     atom  163 type  1   force =    -0.00000196   -0.00000080    0.00000022
     atom  164 type  1   force =    -0.00000173   -0.00000063    0.00000064
     atom  165 type  1   force =    -0.00000080   -0.00000141    0.00000007
     atom  166 type  1   force =     0.00000023   -0.00000123    0.00000051
     atom  167 type  1   force =    -0.00000107   -0.00000144   -0.00000089
     atom  168 type  1   force =     0.00000004   -0.00000142    0.00000016
     atom  169 type  1   force =    -0.00000176   -0.00000043    0.00000041
     atom  170 type  1   force =    -0.00000090    0.00000040    0.00000125
     atom  171 type  1   force =    -0.00000069    0.00000075    0.00000105
     atom  172 type  1   force =    -0.00000129    0.00000051    0.00000063
     atom  173 type  1   force =    -0.00000030    0.00000005    0.00000157
     atom  174 type  1   force =    -0.00000020   -0.00000031    0.00000081
     atom  175 type  1   force =    -0.00000052    0.00000073    0.00000107
     atom  176 type  1   force =    -0.00000033    0.00000050    0.00000048
     atom  177 type  1   force =    -0.00000051   -0.00000029   -0.00000030
     atom  178 type  1   force =    -0.00000063   -0.00000048   -0.00000166
     atom  179 type  1   force =    -0.00000031   -0.00000084   -0.00000196
     atom  180 type  1   force =     0.00000016   -0.00000036   -0.00000273
     atom  181 type  1   force =    -0.00000027    0.00000024   -0.00000053
     atom  182 type  1   force =    -0.00000055    0.00000044   -0.00000087
     atom  183 type  1   force =    -0.00000214   -0.00000078   -0.00000012
     atom  184 type  1   force =    -0.00000298   -0.00000029    0.00000027
     atom  185 type  1   force =    -0.00000206    0.00000046    0.00000012
     atom  186 type  1   force =    -0.00000124    0.00000128    0.00000080
     atom  187 type  1   force =    -0.00000119   -0.00000067    0.00000094
     atom  188 type  1   force =     0.00000037    0.00000033    0.00000164
     atom  189 type  1   force =    -0.00000123    0.00000153   -0.00000093
     atom  190 type  1   force =     0.00000021    0.00000258    0.00000039
     atom  191 type  1   force =    -0.00000086    0.00000124    0.00000053
     atom  192 type  1   force =    -0.00000130    0.00000069    0.00000024
     atom  193 type  1   force =    -0.00000169    0.00000021    0.00000086
     atom  194 type  1   force =    -0.00000145   -0.00000046    0.00000066
     atom  195 type  1   force =    -0.00000101    0.00000060    0.00000068
     atom  196 type  1   force =    -0.00000022    0.00000085    0.00000040
     atom  197 type  1   force =    -0.00000076    0.00000028    0.00000002
     atom  198 type  1   force =     0.00000020   -0.00000023    0.00000048
     atom  199 type  1   force =    -0.00000127    0.00000149   -0.00000005
     atom  200 type  1   force =    -0.00000171    0.00000059   -0.00000017
     atom  201 type  1   force =    -0.00000116   -0.00000039   -0.00000085
     atom  202 type  1   force =    -0.00000095   -0.00000063   -0.00000064
     atom  203 type  1   force =    -0.00000136    0.00000132   -0.00000042
     atom  204 type  1   force =    -0.00000060    0.00000121   -0.00000062
     atom  205 type  1   force =    -0.00000112    0.00000023    0.00000037
     atom  206 type  1   force =     0.00000009   -0.00000005   -0.00000005
     atom  207 type  1   force =    -0.00000069    0.00000132   -0.00000108
     atom  208 type  1   force =    -0.00000103    0.00000112   -0.00000051
     atom  209 type  1   force =    -0.00000057    0.00000046    0.00000009
     atom  210 type  1   force =    -0.00000118   -0.00000065   -0.00000003
     atom  211 type  1   force =    -0.00000076    0.00000197    0.00000005
     atom  212 type  1   force =    -0.00000031    0.00000106    0.00000015
     atom  213 type  1   force =    -0.00000079   -0.00000005   -0.00000048
     atom  214 type  1   force =    -0.00000036   -0.00000066   -0.00000022
     atom  215 type  2   force =    -0.00000178    0.00000111   -0.00000142

     Total force =     0.018040     Total SCF correction =     0.000023


     Computing stress (Cartesian axis) and pressure

          total   stress  (Ry/bohr**3)                   (kbar)     P=   25.90
   0.00017786   0.00003306   0.00003024         26.16      4.86      4.45
   0.00003306   0.00017248   0.00003306          4.86     25.37      4.86
   0.00003024   0.00003306   0.00017786          4.45      4.86     26.16

     kinetic stress (kbar)  21593.02     16.16     15.89
                               16.16  21592.05     16.16
                               15.89     16.16  21593.02

     local   stress (kbar)  -3677.69     14.07     13.20
                               14.07  -3683.66     14.07
                               13.20     14.07  -3677.69

     nonloc. stress (kbar)   1304.01     -3.37     -3.36
                               -3.37   1304.08     -3.37
                               -3.36     -3.37   1304.01

     hartree stress (kbar)   1288.41    -10.17     -9.67
                              -10.17   1290.51    -10.17
                               -9.67    -10.17   1288.41

     exc-cor stress (kbar)  -4229.75     -0.05     -0.04
                               -0.05  -4229.74     -0.05
                               -0.04     -0.05  -4229.75

     corecor stress (kbar)      0.00      0.00      0.00
                                0.00      0.00      0.00
                                0.00      0.00      0.00

     ewald   stress (kbar) -16251.83    -11.78    -11.58
                              -11.78 -16247.87    -11.78
                              -11.58    -11.78 -16251.83

     hubbard stress (kbar)      0.00      0.00      0.00
                                0.00      0.00      0.00
                                0.00      0.00      0.00

     london  stress (kbar)      0.00      0.00      0.00
                                0.00      0.00      0.00
                                0.00      0.00      0.00

     XDM     stress (kbar)      0.00      0.00      0.00
                                0.00      0.00      0.00
                                0.00      0.00      0.00

     dft-nl  stress (kbar)      0.00      0.00      0.00
                                0.00      0.00      0.00
                                0.00      0.00      0.00

     TS-vdW  stress (kbar)      0.00      0.00      0.00
                                0.00      0.00      0.00
                                0.00      0.00      0.00



     Writing output data file pwscf.save
 
     init_run     :      2.56s CPU      2.71s WALL (       1 calls)
     electrons    :    408.70s CPU    414.83s WALL (       1 calls)
     forces       :      0.97s CPU      1.04s WALL (       1 calls)
     stress       :     18.62s CPU     18.67s WALL (       1 calls)

     Called by init_run:
     wfcinit      :      1.63s CPU      1.73s WALL (       1 calls)
     wfcinit:atom :      0.00s CPU      0.00s WALL (       1 calls)
     wfcinit:wfcr :      1.60s CPU      1.66s WALL (       1 calls)
     potinit      :      0.10s CPU      0.11s WALL (       1 calls)

     Called by electrons:
     c_bands      :    397.25s CPU    403.04s WALL (      20 calls)
     sum_band     :      9.48s CPU      9.73s WALL (      20 calls)
     v_of_rho     :      1.50s CPU      1.52s WALL (      21 calls)
     v_h          :      0.06s CPU      0.06s WALL (      21 calls)
     v_xc         :      1.44s CPU      1.45s WALL (      21 calls)
     mix_rho      :      0.24s CPU      0.25s WALL (      20 calls)

     Called by c_bands:
     init_us_2    :      0.38s CPU      0.55s WALL (      41 calls)
     regterg      :    395.86s CPU    401.55s WALL (      20 calls)

     Called by sum_band:

     Called by *egterg:
     h_psi        :     84.59s CPU     85.21s WALL (     159 calls)
     g_psi        :      0.27s CPU      0.27s WALL (     138 calls)
     rdiaghg      :    265.09s CPU    268.16s WALL (     158 calls)
     regterg:over :     19.55s CPU     19.64s WALL (     138 calls)
     regterg:upda :     17.23s CPU     17.40s WALL (     138 calls)
     regterg:last :      6.56s CPU      6.63s WALL (      22 calls)
     rdiaghg:chol :     10.61s CPU     10.76s WALL (     158 calls)
     rdiaghg:inve :      7.95s CPU      7.98s WALL (     158 calls)
     rdiaghg:para :     16.10s CPU     17.10s WALL (     316 calls)

     Called by h_psi:
     h_psi:pot    :     83.97s CPU     84.57s WALL (     159 calls)
     h_psi:calbec :     12.80s CPU     12.93s WALL (     159 calls)
     vloc_psi     :     59.03s CPU     59.33s WALL (     159 calls)
     add_vuspsi   :     12.13s CPU     12.31s WALL (     159 calls)

     General routines
     calbec       :     13.69s CPU     13.84s WALL (     164 calls)
     fft          :      1.14s CPU      1.18s WALL (     450 calls)
     fftw         :     64.53s CPU     64.89s WALL (   63218 calls)
 
     Parallel routines
     fft_scatter  :     38.89s CPU     39.17s WALL (   63668 calls)
 
     PWSCF        :  7m15.87s CPU     7m27.14s WALL

 
   This run was terminated on:   7:20:27  22Jun2022            

=------------------------------------------------------------------------------=
   JOB DONE.
=------------------------------------------------------------------------------=
