
     Program PWSCF v.6.1 (svn rev. 13369) starts on  1Mar2023 at  0:50:33 

     This program is part of the open-source Quantum ESPRESSO suite
     for quantum simulation of materials; please cite
         "P. Giannozzi et al., J. Phys.:Condens. Matter 21 395502 (2009);
          URL http://www.quantum-espresso.org", 
     in publications or presentations arising from this work. More details at
     http://www.quantum-espresso.org/quote

     Parallel version (MPI & OpenMP), running on     168 processor cores
     Number of MPI processes:               168
     Threads/MPI process:                     1
     R & G space division:  proc/nbgrp/npool/nimage =     168
     Waiting for input...
     Reading input from standard input

     Current dimensions of program PWSCF are:
     Max number of different atomic species (ntypx) = 10
     Max number of k-points (npk) =  40000
     Max angular momentum in pseudopotentials (lmaxx) =  3

     IMPORTANT: XC functional enforced from input :
     Exchange-correlation      = PBE0 ( 6  4  8  4 0 0)
     EXX-fraction              =        0.25
     Any further DFT definition will be discarded
     Please, verify this is what you really want

     EXX fraction changed:   0.36

     gamma-point specific algorithms are used

     Subspace diagonalization in iterative solution of the eigenvalue problem:
     one sub-group per band group will be used
     scalapack distributed-memory algorithm (size of sub-group:  9*  9 procs)

EXX: grid of k+q points same as grid of k-points
 
     Parallelization info
     --------------------
     sticks:   dense  smooth     PW     G-vecs:    dense   smooth      PW
     Min          63      63     15                 5004     5004     616
     Max          66      66     20                 5020     5020     636
     Sum       10773   10773   2709               842161   842161  105399
 


     bravais-lattice index     =            0
     lattice parameter (alat)  =      23.7539  a.u.
     unit-cell volume          =   13403.0130 (a.u.)^3
     number of atoms/cell      =          215
     number of atomic types    =            2
     number of electrons       =      1722.00 (up: 861.00, down: 861.00)
     number of Kohn-Sham states=         1064
     kinetic-energy cutoff     =      60.0000  Ry
     charge density cutoff     =     240.0000  Ry
     cutoff for Fock operator  =     120.0000  Ry
     convergence threshold     =      1.0E-07
     mixing beta               =       0.3000
     number of iterations used =            8  plain     mixing
     Exchange-correlation      = PBE0 ( 6  4  8  4 0 0)
     EXX-fraction              =        0.36

     celldm(1)=  23.753857  celldm(2)=   0.000000  celldm(3)=   0.000000
     celldm(4)=   0.000000  celldm(5)=   0.000000  celldm(6)=   0.000000

     crystal axes: (cart. coord. in units of alat)
               a(1) = (   1.000000   0.000000   0.000000 )  
               a(2) = (   0.000000   1.000000   0.000000 )  
               a(3) = (   0.000000   0.000000   1.000000 )  

     reciprocal axes: (cart. coord. in units 2 pi/alat)
               b(1) = (  1.000000  0.000000  0.000000 )  
               b(2) = (  0.000000  1.000000  0.000000 )  
               b(3) = (  0.000000  0.000000  1.000000 )  


     PseudoPot. # 1 for Mg read from file:
     /home/jinyuchem/program/QE/pseudo-potential/Mg_ONCV_PBE-1.0.upf
     MD5 check sum: 17b1391fa68439aabf384d02b0276f1b
     Pseudo is Norm-conserving, Zval = 10.0
     Generated using ONCVPSP code by D. R. Hamann
     Using radial grid of  602 points,  4 beta functions with: 
                l(1) =   0
                l(2) =   0
                l(3) =   1
                l(4) =   1

     PseudoPot. # 2 for O  read from file:
     /home/jinyuchem/program/QE/pseudo-potential/O_ONCV_PBE-1.0.upf
     MD5 check sum: 80a85145cbbb6f60b39549a50e3ff56c
     Pseudo is Norm-conserving, Zval =  6.0
     Generated using ONCVPSP code by D. R. Hamann
     Using radial grid of  602 points,  4 beta functions with: 
                l(1) =   0
                l(2) =   0
                l(3) =   1
                l(4) =   1

     atomic species   valence    mass     pseudopotential
        Mg            10.00    24.30500     Mg( 1.00)
        O              6.00    15.99900     O ( 1.00)

     Starting magnetic structure 
     atomic species   magnetization
        Mg           0.000
        O            0.000

     48 Sym. Ops., with inversion, found


                                    s                        frac. trans.

      isym =  1     identity                                     

 cryst.   s( 1) = (     1          0          0      )
                  (     0          1          0      )
                  (     0          0          1      )

 cart.    s( 1) = (  1.0000000  0.0000000  0.0000000 )
                  (  0.0000000  1.0000000  0.0000000 )
                  (  0.0000000  0.0000000  1.0000000 )


      isym =  2     180 deg rotation - cart. axis [0,0,1]        

 cryst.   s( 2) = (    -1          0          0      )
                  (     0         -1          0      )
                  (     0          0          1      )

 cart.    s( 2) = ( -1.0000000  0.0000000  0.0000000 )
                  (  0.0000000 -1.0000000  0.0000000 )
                  (  0.0000000  0.0000000  1.0000000 )


      isym =  3     180 deg rotation - cart. axis [0,1,0]        

 cryst.   s( 3) = (    -1          0          0      )
                  (     0          1          0      )
                  (     0          0         -1      )

 cart.    s( 3) = ( -1.0000000  0.0000000  0.0000000 )
                  (  0.0000000  1.0000000  0.0000000 )
                  (  0.0000000  0.0000000 -1.0000000 )


      isym =  4     180 deg rotation - cart. axis [1,0,0]        

 cryst.   s( 4) = (     1          0          0      )
                  (     0         -1          0      )
                  (     0          0         -1      )

 cart.    s( 4) = (  1.0000000  0.0000000  0.0000000 )
                  (  0.0000000 -1.0000000  0.0000000 )
                  (  0.0000000  0.0000000 -1.0000000 )


      isym =  5     180 deg rotation - cart. axis [1,1,0]        

 cryst.   s( 5) = (     0          1          0      )
                  (     1          0          0      )
                  (     0          0         -1      )

 cart.    s( 5) = (  0.0000000  1.0000000  0.0000000 )
                  (  1.0000000  0.0000000  0.0000000 )
                  (  0.0000000  0.0000000 -1.0000000 )


      isym =  6     180 deg rotation - cart. axis [1,-1,0]       

 cryst.   s( 6) = (     0         -1          0      )
                  (    -1          0          0      )
                  (     0          0         -1      )

 cart.    s( 6) = (  0.0000000 -1.0000000  0.0000000 )
                  ( -1.0000000  0.0000000  0.0000000 )
                  (  0.0000000  0.0000000 -1.0000000 )


      isym =  7      90 deg rotation - cart. axis [0,0,-1]       

 cryst.   s( 7) = (     0         -1          0      )
                  (     1          0          0      )
                  (     0          0          1      )

 cart.    s( 7) = (  0.0000000  1.0000000  0.0000000 )
                  ( -1.0000000  0.0000000  0.0000000 )
                  (  0.0000000  0.0000000  1.0000000 )


      isym =  8      90 deg rotation - cart. axis [0,0,1]        

 cryst.   s( 8) = (     0          1          0      )
                  (    -1          0          0      )
                  (     0          0          1      )

 cart.    s( 8) = (  0.0000000 -1.0000000  0.0000000 )
                  (  1.0000000  0.0000000  0.0000000 )
                  (  0.0000000  0.0000000  1.0000000 )


      isym =  9     180 deg rotation - cart. axis [1,0,1]        

 cryst.   s( 9) = (     0          0          1      )
                  (     0         -1          0      )
                  (     1          0          0      )

 cart.    s( 9) = (  0.0000000  0.0000000  1.0000000 )
                  (  0.0000000 -1.0000000  0.0000000 )
                  (  1.0000000  0.0000000  0.0000000 )


      isym = 10     180 deg rotation - cart. axis [-1,0,1]       

 cryst.   s(10) = (     0          0         -1      )
                  (     0         -1          0      )
                  (    -1          0          0      )

 cart.    s(10) = (  0.0000000  0.0000000 -1.0000000 )
                  (  0.0000000 -1.0000000  0.0000000 )
                  ( -1.0000000  0.0000000  0.0000000 )


      isym = 11      90 deg rotation - cart. axis [0,1,0]        

 cryst.   s(11) = (     0          0         -1      )
                  (     0          1          0      )
                  (     1          0          0      )

 cart.    s(11) = (  0.0000000  0.0000000  1.0000000 )
                  (  0.0000000  1.0000000  0.0000000 )
                  ( -1.0000000  0.0000000  0.0000000 )


      isym = 12      90 deg rotation - cart. axis [0,-1,0]       

 cryst.   s(12) = (     0          0          1      )
                  (     0          1          0      )
                  (    -1          0          0      )

 cart.    s(12) = (  0.0000000  0.0000000 -1.0000000 )
                  (  0.0000000  1.0000000  0.0000000 )
                  (  1.0000000  0.0000000  0.0000000 )


      isym = 13     180 deg rotation - cart. axis [0,1,1]        

 cryst.   s(13) = (    -1          0          0      )
                  (     0          0          1      )
                  (     0          1          0      )

 cart.    s(13) = ( -1.0000000  0.0000000  0.0000000 )
                  (  0.0000000  0.0000000  1.0000000 )
                  (  0.0000000  1.0000000  0.0000000 )


      isym = 14     180 deg rotation - cart. axis [0,1,-1]       

 cryst.   s(14) = (    -1          0          0      )
                  (     0          0         -1      )
                  (     0         -1          0      )

 cart.    s(14) = ( -1.0000000  0.0000000  0.0000000 )
                  (  0.0000000  0.0000000 -1.0000000 )
                  (  0.0000000 -1.0000000  0.0000000 )


      isym = 15      90 deg rotation - cart. axis [-1,0,0]       

 cryst.   s(15) = (     1          0          0      )
                  (     0          0         -1      )
                  (     0          1          0      )

 cart.    s(15) = (  1.0000000  0.0000000  0.0000000 )
                  (  0.0000000  0.0000000  1.0000000 )
                  (  0.0000000 -1.0000000  0.0000000 )


      isym = 16      90 deg rotation - cart. axis [1,0,0]        

 cryst.   s(16) = (     1          0          0      )
                  (     0          0          1      )
                  (     0         -1          0      )

 cart.    s(16) = (  1.0000000  0.0000000  0.0000000 )
                  (  0.0000000  0.0000000 -1.0000000 )
                  (  0.0000000  1.0000000  0.0000000 )


      isym = 17     120 deg rotation - cart. axis [-1,-1,-1]     

 cryst.   s(17) = (     0          0          1      )
                  (     1          0          0      )
                  (     0          1          0      )

 cart.    s(17) = (  0.0000000  1.0000000  0.0000000 )
                  (  0.0000000  0.0000000  1.0000000 )
                  (  1.0000000  0.0000000  0.0000000 )


      isym = 18     120 deg rotation - cart. axis [-1,1,1]       

 cryst.   s(18) = (     0          0         -1      )
                  (    -1          0          0      )
                  (     0          1          0      )

 cart.    s(18) = (  0.0000000 -1.0000000  0.0000000 )
                  (  0.0000000  0.0000000  1.0000000 )
                  ( -1.0000000  0.0000000  0.0000000 )


      isym = 19     120 deg rotation - cart. axis [1,1,-1]       

 cryst.   s(19) = (     0          0         -1      )
                  (     1          0          0      )
                  (     0         -1          0      )

 cart.    s(19) = (  0.0000000  1.0000000  0.0000000 )
                  (  0.0000000  0.0000000 -1.0000000 )
                  ( -1.0000000  0.0000000  0.0000000 )


      isym = 20     120 deg rotation - cart. axis [1,-1,1]       

 cryst.   s(20) = (     0          0          1      )
                  (    -1          0          0      )
                  (     0         -1          0      )

 cart.    s(20) = (  0.0000000 -1.0000000  0.0000000 )
                  (  0.0000000  0.0000000 -1.0000000 )
                  (  1.0000000  0.0000000  0.0000000 )


      isym = 21     120 deg rotation - cart. axis [1,1,1]        

 cryst.   s(21) = (     0          1          0      )
                  (     0          0          1      )
                  (     1          0          0      )

 cart.    s(21) = (  0.0000000  0.0000000  1.0000000 )
                  (  1.0000000  0.0000000  0.0000000 )
                  (  0.0000000  1.0000000  0.0000000 )


      isym = 22     120 deg rotation - cart. axis [-1,1,-1]      

 cryst.   s(22) = (     0         -1          0      )
                  (     0          0         -1      )
                  (     1          0          0      )

 cart.    s(22) = (  0.0000000  0.0000000  1.0000000 )
                  ( -1.0000000  0.0000000  0.0000000 )
                  (  0.0000000 -1.0000000  0.0000000 )


      isym = 23     120 deg rotation - cart. axis [1,-1,-1]      

 cryst.   s(23) = (     0         -1          0      )
                  (     0          0          1      )
                  (    -1          0          0      )

 cart.    s(23) = (  0.0000000  0.0000000 -1.0000000 )
                  ( -1.0000000  0.0000000  0.0000000 )
                  (  0.0000000  1.0000000  0.0000000 )


      isym = 24     120 deg rotation - cart. axis [-1,-1,1]      

 cryst.   s(24) = (     0          1          0      )
                  (     0          0         -1      )
                  (    -1          0          0      )

 cart.    s(24) = (  0.0000000  0.0000000 -1.0000000 )
                  (  1.0000000  0.0000000  0.0000000 )
                  (  0.0000000 -1.0000000  0.0000000 )


      isym = 25     inversion                                    

 cryst.   s(25) = (    -1          0          0      )
                  (     0         -1          0      )
                  (     0          0         -1      )

 cart.    s(25) = ( -1.0000000  0.0000000  0.0000000 )
                  (  0.0000000 -1.0000000  0.0000000 )
                  (  0.0000000  0.0000000 -1.0000000 )


      isym = 26     inv. 180 deg rotation - cart. axis [0,0,1]   

 cryst.   s(26) = (     1          0          0      )
                  (     0          1          0      )
                  (     0          0         -1      )

 cart.    s(26) = (  1.0000000  0.0000000  0.0000000 )
                  (  0.0000000  1.0000000  0.0000000 )
                  (  0.0000000  0.0000000 -1.0000000 )


      isym = 27     inv. 180 deg rotation - cart. axis [0,1,0]   

 cryst.   s(27) = (     1          0          0      )
                  (     0         -1          0      )
                  (     0          0          1      )

 cart.    s(27) = (  1.0000000  0.0000000  0.0000000 )
                  (  0.0000000 -1.0000000  0.0000000 )
                  (  0.0000000  0.0000000  1.0000000 )


      isym = 28     inv. 180 deg rotation - cart. axis [1,0,0]   

 cryst.   s(28) = (    -1          0          0      )
                  (     0          1          0      )
                  (     0          0          1      )

 cart.    s(28) = ( -1.0000000  0.0000000  0.0000000 )
                  (  0.0000000  1.0000000  0.0000000 )
                  (  0.0000000  0.0000000  1.0000000 )


      isym = 29     inv. 180 deg rotation - cart. axis [1,1,0]   

 cryst.   s(29) = (     0         -1          0      )
                  (    -1          0          0      )
                  (     0          0          1      )

 cart.    s(29) = (  0.0000000 -1.0000000  0.0000000 )
                  ( -1.0000000  0.0000000  0.0000000 )
                  (  0.0000000  0.0000000  1.0000000 )


      isym = 30     inv. 180 deg rotation - cart. axis [1,-1,0]  

 cryst.   s(30) = (     0          1          0      )
                  (     1          0          0      )
                  (     0          0          1      )

 cart.    s(30) = (  0.0000000  1.0000000  0.0000000 )
                  (  1.0000000  0.0000000  0.0000000 )
                  (  0.0000000  0.0000000  1.0000000 )


      isym = 31     inv.  90 deg rotation - cart. axis [0,0,-1]  

 cryst.   s(31) = (     0          1          0      )
                  (    -1          0          0      )
                  (     0          0         -1      )

 cart.    s(31) = (  0.0000000 -1.0000000  0.0000000 )
                  (  1.0000000  0.0000000  0.0000000 )
                  (  0.0000000  0.0000000 -1.0000000 )


      isym = 32     inv.  90 deg rotation - cart. axis [0,0,1]   

 cryst.   s(32) = (     0         -1          0      )
                  (     1          0          0      )
                  (     0          0         -1      )

 cart.    s(32) = (  0.0000000  1.0000000  0.0000000 )
                  ( -1.0000000  0.0000000  0.0000000 )
                  (  0.0000000  0.0000000 -1.0000000 )


      isym = 33     inv. 180 deg rotation - cart. axis [1,0,1]   

 cryst.   s(33) = (     0          0         -1      )
                  (     0          1          0      )
                  (    -1          0          0      )

 cart.    s(33) = (  0.0000000  0.0000000 -1.0000000 )
                  (  0.0000000  1.0000000  0.0000000 )
                  ( -1.0000000  0.0000000  0.0000000 )


      isym = 34     inv. 180 deg rotation - cart. axis [-1,0,1]  

 cryst.   s(34) = (     0          0          1      )
                  (     0          1          0      )
                  (     1          0          0      )

 cart.    s(34) = (  0.0000000  0.0000000  1.0000000 )
                  (  0.0000000  1.0000000  0.0000000 )
                  (  1.0000000  0.0000000  0.0000000 )


      isym = 35     inv.  90 deg rotation - cart. axis [0,1,0]   

 cryst.   s(35) = (     0          0          1      )
                  (     0         -1          0      )
                  (    -1          0          0      )

 cart.    s(35) = (  0.0000000  0.0000000 -1.0000000 )
                  (  0.0000000 -1.0000000  0.0000000 )
                  (  1.0000000  0.0000000  0.0000000 )


      isym = 36     inv.  90 deg rotation - cart. axis [0,-1,0]  

 cryst.   s(36) = (     0          0         -1      )
                  (     0         -1          0      )
                  (     1          0          0      )

 cart.    s(36) = (  0.0000000  0.0000000  1.0000000 )
                  (  0.0000000 -1.0000000  0.0000000 )
                  ( -1.0000000  0.0000000  0.0000000 )


      isym = 37     inv. 180 deg rotation - cart. axis [0,1,1]   

 cryst.   s(37) = (     1          0          0      )
                  (     0          0         -1      )
                  (     0         -1          0      )

 cart.    s(37) = (  1.0000000  0.0000000  0.0000000 )
                  (  0.0000000  0.0000000 -1.0000000 )
                  (  0.0000000 -1.0000000  0.0000000 )


      isym = 38     inv. 180 deg rotation - cart. axis [0,1,-1]  

 cryst.   s(38) = (     1          0          0      )
                  (     0          0          1      )
                  (     0          1          0      )

 cart.    s(38) = (  1.0000000  0.0000000  0.0000000 )
                  (  0.0000000  0.0000000  1.0000000 )
                  (  0.0000000  1.0000000  0.0000000 )


      isym = 39     inv.  90 deg rotation - cart. axis [-1,0,0]  

 cryst.   s(39) = (    -1          0          0      )
                  (     0          0          1      )
                  (     0         -1          0      )

 cart.    s(39) = ( -1.0000000  0.0000000  0.0000000 )
                  (  0.0000000  0.0000000 -1.0000000 )
                  (  0.0000000  1.0000000  0.0000000 )


      isym = 40     inv.  90 deg rotation - cart. axis [1,0,0]   

 cryst.   s(40) = (    -1          0          0      )
                  (     0          0         -1      )
                  (     0          1          0      )

 cart.    s(40) = ( -1.0000000  0.0000000  0.0000000 )
                  (  0.0000000  0.0000000  1.0000000 )
                  (  0.0000000 -1.0000000  0.0000000 )


      isym = 41     inv. 120 deg rotation - cart. axis [-1,-1,-1]

 cryst.   s(41) = (     0          0         -1      )
                  (    -1          0          0      )
                  (     0         -1          0      )

 cart.    s(41) = (  0.0000000 -1.0000000  0.0000000 )
                  (  0.0000000  0.0000000 -1.0000000 )
                  ( -1.0000000  0.0000000  0.0000000 )


      isym = 42     inv. 120 deg rotation - cart. axis [-1,1,1]  

 cryst.   s(42) = (     0          0          1      )
                  (     1          0          0      )
                  (     0         -1          0      )

 cart.    s(42) = (  0.0000000  1.0000000  0.0000000 )
                  (  0.0000000  0.0000000 -1.0000000 )
                  (  1.0000000  0.0000000  0.0000000 )


      isym = 43     inv. 120 deg rotation - cart. axis [1,1,-1]  

 cryst.   s(43) = (     0          0          1      )
                  (    -1          0          0      )
                  (     0          1          0      )

 cart.    s(43) = (  0.0000000 -1.0000000  0.0000000 )
                  (  0.0000000  0.0000000  1.0000000 )
                  (  1.0000000  0.0000000  0.0000000 )


      isym = 44     inv. 120 deg rotation - cart. axis [1,-1,1]  

 cryst.   s(44) = (     0          0         -1      )
                  (     1          0          0      )
                  (     0          1          0      )

 cart.    s(44) = (  0.0000000  1.0000000  0.0000000 )
                  (  0.0000000  0.0000000  1.0000000 )
                  ( -1.0000000  0.0000000  0.0000000 )


      isym = 45     inv. 120 deg rotation - cart. axis [1,1,1]   

 cryst.   s(45) = (     0         -1          0      )
                  (     0          0         -1      )
                  (    -1          0          0      )

 cart.    s(45) = (  0.0000000  0.0000000 -1.0000000 )
                  ( -1.0000000  0.0000000  0.0000000 )
                  (  0.0000000 -1.0000000  0.0000000 )


      isym = 46     inv. 120 deg rotation - cart. axis [-1,1,-1] 

 cryst.   s(46) = (     0          1          0      )
                  (     0          0          1      )
                  (    -1          0          0      )

 cart.    s(46) = (  0.0000000  0.0000000 -1.0000000 )
                  (  1.0000000  0.0000000  0.0000000 )
                  (  0.0000000  1.0000000  0.0000000 )


      isym = 47     inv. 120 deg rotation - cart. axis [1,-1,-1] 

 cryst.   s(47) = (     0          1          0      )
                  (     0          0         -1      )
                  (     1          0          0      )

 cart.    s(47) = (  0.0000000  0.0000000  1.0000000 )
                  (  1.0000000  0.0000000  0.0000000 )
                  (  0.0000000 -1.0000000  0.0000000 )


      isym = 48     inv. 120 deg rotation - cart. axis [-1,-1,1] 

 cryst.   s(48) = (     0         -1          0      )
                  (     0          0          1      )
                  (     1          0          0      )

 cart.    s(48) = (  0.0000000  0.0000000  1.0000000 )
                  ( -1.0000000  0.0000000  0.0000000 )
                  (  0.0000000  1.0000000  0.0000000 )


   Cartesian axes

     site n.     atom                  positions (alat units)
         1           Mg  tau(   1) = (   0.0000000   0.0000000   0.0000000  )
         2           Mg  tau(   2) = (   0.0000000   0.0000000   0.3332681  )
         3           Mg  tau(   3) = (   0.0000000   0.0000000   0.6667319  )
         4           Mg  tau(   4) = (   0.0000000   0.3332681   0.0000000  )
         5           Mg  tau(   5) = (   0.0000000   0.3332248   0.3332248  )
         6           Mg  tau(   6) = (   0.0000000   0.3332248   0.6667753  )
         7           Mg  tau(   7) = (   0.0000000   0.6667319   0.0000000  )
         8           Mg  tau(   8) = (   0.0000000   0.6667753   0.3332248  )
         9           Mg  tau(   9) = (   0.0000000   0.6667753   0.6667753  )
        10           Mg  tau(  10) = (   0.3332681   0.0000000   0.0000000  )
        11           Mg  tau(  11) = (   0.3332248   0.0000000   0.3332248  )
        12           Mg  tau(  12) = (   0.3332248   0.0000000   0.6667753  )
        13           Mg  tau(  13) = (   0.3332248   0.3332248   0.0000000  )
        14           Mg  tau(  14) = (   0.3333511   0.3333511   0.3333511  )
        15           Mg  tau(  15) = (   0.3333511   0.3333511   0.6666489  )
        16           Mg  tau(  16) = (   0.3332248   0.6667753   0.0000000  )
        17           Mg  tau(  17) = (   0.3333511   0.6666489   0.3333511  )
        18           Mg  tau(  18) = (   0.3333511   0.6666489   0.6666489  )
        19           Mg  tau(  19) = (   0.6667319   0.0000000   0.0000000  )
        20           Mg  tau(  20) = (   0.6667753   0.0000000   0.3332248  )
        21           Mg  tau(  21) = (   0.6667753   0.0000000   0.6667753  )
        22           Mg  tau(  22) = (   0.6667753   0.3332248   0.0000000  )
        23           Mg  tau(  23) = (   0.6666489   0.3333511   0.3333511  )
        24           Mg  tau(  24) = (   0.6666489   0.3333511   0.6666489  )
        25           Mg  tau(  25) = (   0.6667753   0.6667753   0.0000000  )
        26           Mg  tau(  26) = (   0.6666489   0.6666489   0.3333511  )
        27           Mg  tau(  27) = (   0.6666489   0.6666489   0.6666489  )
        28           Mg  tau(  28) = (   0.0000000   0.1666364   0.1666364  )
        29           Mg  tau(  29) = (   0.0000000   0.1665131   0.5000000  )
        30           Mg  tau(  30) = (   0.0000000   0.1666364   0.8333636  )
        31           Mg  tau(  31) = (   0.0000000   0.5000000   0.1665131  )
        32           Mg  tau(  32) = (   0.0000000   0.5000000   0.5000000  )
        33           Mg  tau(  33) = (   0.0000000   0.5000000   0.8334869  )
        34           Mg  tau(  34) = (   0.0000000   0.8333636   0.1666364  )
        35           Mg  tau(  35) = (   0.0000000   0.8334869   0.5000000  )
        36           Mg  tau(  36) = (   0.0000000   0.8333636   0.8333636  )
        37           Mg  tau(  37) = (   0.3332790   0.1666430   0.1666430  )
        38           Mg  tau(  38) = (   0.3330640   0.1663262   0.5000000  )
        39           Mg  tau(  39) = (   0.3332790   0.1666430   0.8333571  )
        40           Mg  tau(  40) = (   0.3330640   0.5000000   0.1663262  )
        41           Mg  tau(  41) = (   0.3319722   0.5000000   0.5000000  )
        42           Mg  tau(  42) = (   0.3330640   0.5000000   0.8336738  )
        43           Mg  tau(  43) = (   0.3332790   0.8333571   0.1666430  )
        44           Mg  tau(  44) = (   0.3330640   0.8336738   0.5000000  )
        45           Mg  tau(  45) = (   0.3332790   0.8333571   0.8333571  )
        46           Mg  tau(  46) = (   0.6667210   0.1666430   0.1666430  )
        47           Mg  tau(  47) = (   0.6669360   0.1663262   0.5000000  )
        48           Mg  tau(  48) = (   0.6667210   0.1666430   0.8333571  )
        49           Mg  tau(  49) = (   0.6669360   0.5000000   0.1663262  )
        50           Mg  tau(  50) = (   0.6680279   0.5000000   0.5000000  )
        51           Mg  tau(  51) = (   0.6669360   0.5000000   0.8336738  )
        52           Mg  tau(  52) = (   0.6667210   0.8333571   0.1666430  )
        53           Mg  tau(  53) = (   0.6669360   0.8336738   0.5000000  )
        54           Mg  tau(  54) = (   0.6667210   0.8333571   0.8333571  )
        55           Mg  tau(  55) = (   0.1666364   0.0000000   0.1666364  )
        56           Mg  tau(  56) = (   0.1665131   0.0000000   0.5000000  )
        57           Mg  tau(  57) = (   0.1666364   0.0000000   0.8333636  )
        58           Mg  tau(  58) = (   0.1666430   0.3332790   0.1666430  )
        59           Mg  tau(  59) = (   0.1663262   0.3330640   0.5000000  )
        60           Mg  tau(  60) = (   0.1666430   0.3332790   0.8333571  )
        61           Mg  tau(  61) = (   0.1666430   0.6667210   0.1666430  )
        62           Mg  tau(  62) = (   0.1663262   0.6669360   0.5000000  )
        63           Mg  tau(  63) = (   0.1666430   0.6667210   0.8333571  )
        64           Mg  tau(  64) = (   0.5000000   0.0000000   0.1665131  )
        65           Mg  tau(  65) = (   0.5000000   0.0000000   0.5000000  )
        66           Mg  tau(  66) = (   0.5000000   0.0000000   0.8334869  )
        67           Mg  tau(  67) = (   0.5000000   0.3330640   0.1663262  )
        68           Mg  tau(  68) = (   0.5000000   0.3319722   0.5000000  )
        69           Mg  tau(  69) = (   0.5000000   0.3330640   0.8336738  )
        70           Mg  tau(  70) = (   0.5000000   0.6669360   0.1663262  )
        71           Mg  tau(  71) = (   0.5000000   0.6680279   0.5000000  )
        72           Mg  tau(  72) = (   0.5000000   0.6669360   0.8336738  )
        73           Mg  tau(  73) = (   0.8333636   0.0000000   0.1666364  )
        74           Mg  tau(  74) = (   0.8334869   0.0000000   0.5000000  )
        75           Mg  tau(  75) = (   0.8333636   0.0000000   0.8333636  )
        76           Mg  tau(  76) = (   0.8333571   0.3332790   0.1666430  )
        77           Mg  tau(  77) = (   0.8336738   0.3330640   0.5000000  )
        78           Mg  tau(  78) = (   0.8333571   0.3332790   0.8333571  )
        79           Mg  tau(  79) = (   0.8333571   0.6667210   0.1666430  )
        80           Mg  tau(  80) = (   0.8336738   0.6669360   0.5000000  )
        81           Mg  tau(  81) = (   0.8333571   0.6667210   0.8333571  )
        82           Mg  tau(  82) = (   0.1666364   0.1666364   0.0000000  )
        83           Mg  tau(  83) = (   0.1666430   0.1666430   0.3332790  )
        84           Mg  tau(  84) = (   0.1666430   0.1666430   0.6667210  )
        85           Mg  tau(  85) = (   0.1665131   0.5000000   0.0000000  )
        86           Mg  tau(  86) = (   0.1663262   0.5000000   0.3330640  )
        87           Mg  tau(  87) = (   0.1663262   0.5000000   0.6669360  )
        88           Mg  tau(  88) = (   0.1666364   0.8333636   0.0000000  )
        89           Mg  tau(  89) = (   0.1666430   0.8333571   0.3332790  )
        90           Mg  tau(  90) = (   0.1666430   0.8333571   0.6667210  )
        91           Mg  tau(  91) = (   0.5000000   0.1665131   0.0000000  )
        92           Mg  tau(  92) = (   0.5000000   0.1663262   0.3330640  )
        93           Mg  tau(  93) = (   0.5000000   0.1663262   0.6669360  )
        94           Mg  tau(  94) = (   0.5000000   0.5000000   0.0000000  )
        95           Mg  tau(  95) = (   0.5000000   0.5000000   0.3319722  )
        96           Mg  tau(  96) = (   0.5000000   0.5000000   0.6680279  )
        97           Mg  tau(  97) = (   0.5000000   0.8334869   0.0000000  )
        98           Mg  tau(  98) = (   0.5000000   0.8336738   0.3330640  )
        99           Mg  tau(  99) = (   0.5000000   0.8336738   0.6669360  )
       100           Mg  tau( 100) = (   0.8333636   0.1666364   0.0000000  )
       101           Mg  tau( 101) = (   0.8333571   0.1666430   0.3332790  )
       102           Mg  tau( 102) = (   0.8333571   0.1666430   0.6667210  )
       103           Mg  tau( 103) = (   0.8334869   0.5000000   0.0000000  )
       104           Mg  tau( 104) = (   0.8336738   0.5000000   0.3330640  )
       105           Mg  tau( 105) = (   0.8336738   0.5000000   0.6669360  )
       106           Mg  tau( 106) = (   0.8333636   0.8333636   0.0000000  )
       107           Mg  tau( 107) = (   0.8333571   0.8333571   0.3332790  )
       108           Mg  tau( 108) = (   0.8333571   0.8333571   0.6667210  )
       109           O   tau( 109) = (   0.0000000   0.1666424   0.0000000  )
       110           O   tau( 110) = (   0.0000000   0.1666292   0.3333048  )
       111           O   tau( 111) = (   0.0000000   0.1666292   0.6666952  )
       112           O   tau( 112) = (   0.0000000   0.5000000   0.0000000  )
       113           O   tau( 113) = (   0.0000000   0.5000000   0.3332779  )
       114           O   tau( 114) = (   0.0000000   0.5000000   0.6667221  )
       115           O   tau( 115) = (   0.0000000   0.8333576   0.0000000  )
       116           O   tau( 116) = (   0.0000000   0.8333709   0.3333048  )
       117           O   tau( 117) = (   0.0000000   0.8333709   0.6666952  )
       118           O   tau( 118) = (   0.3333048   0.1666292   0.0000000  )
       119           O   tau( 119) = (   0.3332849   0.1665668   0.3332849  )
       120           O   tau( 120) = (   0.3332849   0.1665668   0.6667151  )
       121           O   tau( 121) = (   0.3332779   0.5000000   0.0000000  )
       122           O   tau( 122) = (   0.3327222   0.5000000   0.3327222  )
       123           O   tau( 123) = (   0.3327222   0.5000000   0.6672779  )
       124           O   tau( 124) = (   0.3333048   0.8333709   0.0000000  )
       125           O   tau( 125) = (   0.3332849   0.8334332   0.3332849  )
       126           O   tau( 126) = (   0.3332849   0.8334332   0.6667151  )
       127           O   tau( 127) = (   0.6666952   0.1666292   0.0000000  )
       128           O   tau( 128) = (   0.6667151   0.1665668   0.3332849  )
       129           O   tau( 129) = (   0.6667151   0.1665668   0.6667151  )
       130           O   tau( 130) = (   0.6667221   0.5000000   0.0000000  )
       131           O   tau( 131) = (   0.6672779   0.5000000   0.3327222  )
       132           O   tau( 132) = (   0.6672779   0.5000000   0.6672779  )
       133           O   tau( 133) = (   0.6666952   0.8333709   0.0000000  )
       134           O   tau( 134) = (   0.6667151   0.8334332   0.3332849  )
       135           O   tau( 135) = (   0.6667151   0.8334332   0.6667151  )
       136           O   tau( 136) = (   0.0000000   0.0000000   0.1666424  )
       137           O   tau( 137) = (   0.0000000   0.0000000   0.5000000  )
       138           O   tau( 138) = (   0.0000000   0.0000000   0.8333576  )
       139           O   tau( 139) = (   0.0000000   0.3333048   0.1666292  )
       140           O   tau( 140) = (   0.0000000   0.3332779   0.5000000  )
       141           O   tau( 141) = (   0.0000000   0.3333048   0.8333709  )
       142           O   tau( 142) = (   0.0000000   0.6666952   0.1666292  )
       143           O   tau( 143) = (   0.0000000   0.6667221   0.5000000  )
       144           O   tau( 144) = (   0.0000000   0.6666952   0.8333709  )
       145           O   tau( 145) = (   0.3333048   0.0000000   0.1666292  )
       146           O   tau( 146) = (   0.3332779   0.0000000   0.5000000  )
       147           O   tau( 147) = (   0.3333048   0.0000000   0.8333709  )
       148           O   tau( 148) = (   0.3332849   0.3332849   0.1665668  )
       149           O   tau( 149) = (   0.3327222   0.3327222   0.5000000  )
       150           O   tau( 150) = (   0.3332849   0.3332849   0.8334332  )
       151           O   tau( 151) = (   0.3332849   0.6667151   0.1665668  )
       152           O   tau( 152) = (   0.3327222   0.6672779   0.5000000  )
       153           O   tau( 153) = (   0.3332849   0.6667151   0.8334332  )
       154           O   tau( 154) = (   0.6666952   0.0000000   0.1666292  )
       155           O   tau( 155) = (   0.6667221   0.0000000   0.5000000  )
       156           O   tau( 156) = (   0.6666952   0.0000000   0.8333709  )
       157           O   tau( 157) = (   0.6667151   0.3332849   0.1665668  )
       158           O   tau( 158) = (   0.6672779   0.3327222   0.5000000  )
       159           O   tau( 159) = (   0.6667151   0.3332849   0.8334332  )
       160           O   tau( 160) = (   0.6667151   0.6667151   0.1665668  )
       161           O   tau( 161) = (   0.6672779   0.6672779   0.5000000  )
       162           O   tau( 162) = (   0.6667151   0.6667151   0.8334332  )
       163           O   tau( 163) = (   0.1666403   0.1666403   0.1666403  )
       164           O   tau( 164) = (   0.1665262   0.1665262   0.5000000  )
       165           O   tau( 165) = (   0.1666403   0.1666403   0.8333597  )
       166           O   tau( 166) = (   0.1665262   0.5000000   0.1665262  )
       167           O   tau( 167) = (   0.1664748   0.5000000   0.5000000  )
       168           O   tau( 168) = (   0.1665262   0.5000000   0.8334738  )
       169           O   tau( 169) = (   0.1666403   0.8333597   0.1666403  )
       170           O   tau( 170) = (   0.1665262   0.8334738   0.5000000  )
       171           O   tau( 171) = (   0.1666403   0.8333597   0.8333597  )
       172           O   tau( 172) = (   0.5000000   0.1665262   0.1665262  )
       173           O   tau( 173) = (   0.5000000   0.1664748   0.5000000  )
       174           O   tau( 174) = (   0.5000000   0.1665262   0.8334738  )
       175           O   tau( 175) = (   0.5000000   0.5000000   0.1664748  )
       176           O   tau( 176) = (   0.5000000   0.5000000   0.8335252  )
       177           O   tau( 177) = (   0.5000000   0.8334738   0.1665262  )
       178           O   tau( 178) = (   0.5000000   0.8335252   0.5000000  )
       179           O   tau( 179) = (   0.5000000   0.8334738   0.8334738  )
       180           O   tau( 180) = (   0.8333597   0.1666403   0.1666403  )
       181           O   tau( 181) = (   0.8334738   0.1665262   0.5000000  )
       182           O   tau( 182) = (   0.8333597   0.1666403   0.8333597  )
       183           O   tau( 183) = (   0.8334738   0.5000000   0.1665262  )
       184           O   tau( 184) = (   0.8335252   0.5000000   0.5000000  )
       185           O   tau( 185) = (   0.8334738   0.5000000   0.8334738  )
       186           O   tau( 186) = (   0.8333597   0.8333597   0.1666403  )
       187           O   tau( 187) = (   0.8334738   0.8334738   0.5000000  )
       188           O   tau( 188) = (   0.8333597   0.8333597   0.8333597  )
       189           O   tau( 189) = (   0.1666424   0.0000000   0.0000000  )
       190           O   tau( 190) = (   0.1666292   0.0000000   0.3333048  )
       191           O   tau( 191) = (   0.1666292   0.0000000   0.6666952  )
       192           O   tau( 192) = (   0.1666292   0.3333048   0.0000000  )
       193           O   tau( 193) = (   0.1665668   0.3332849   0.3332849  )
       194           O   tau( 194) = (   0.1665668   0.3332849   0.6667151  )
       195           O   tau( 195) = (   0.1666292   0.6666952   0.0000000  )
       196           O   tau( 196) = (   0.1665668   0.6667151   0.3332849  )
       197           O   tau( 197) = (   0.1665668   0.6667151   0.6667151  )
       198           O   tau( 198) = (   0.5000000   0.0000000   0.0000000  )
       199           O   tau( 199) = (   0.5000000   0.0000000   0.3332779  )
       200           O   tau( 200) = (   0.5000000   0.0000000   0.6667221  )
       201           O   tau( 201) = (   0.5000000   0.3332779   0.0000000  )
       202           O   tau( 202) = (   0.5000000   0.3327222   0.3327222  )
       203           O   tau( 203) = (   0.5000000   0.3327222   0.6672779  )
       204           O   tau( 204) = (   0.5000000   0.6667221   0.0000000  )
       205           O   tau( 205) = (   0.5000000   0.6672779   0.3327222  )
       206           O   tau( 206) = (   0.5000000   0.6672779   0.6672779  )
       207           O   tau( 207) = (   0.8333576   0.0000000   0.0000000  )
       208           O   tau( 208) = (   0.8333709   0.0000000   0.3333048  )
       209           O   tau( 209) = (   0.8333709   0.0000000   0.6666952  )
       210           O   tau( 210) = (   0.8333709   0.3333048   0.0000000  )
       211           O   tau( 211) = (   0.8334332   0.3332849   0.3332849  )
       212           O   tau( 212) = (   0.8334332   0.3332849   0.6667151  )
       213           O   tau( 213) = (   0.8333709   0.6666952   0.0000000  )
       214           O   tau( 214) = (   0.8334332   0.6667151   0.3332849  )
       215           O   tau( 215) = (   0.8334332   0.6667151   0.6667151  )

   Crystallographic axes

     site n.     atom                  positions (cryst. coord.)
         1           Mg  tau(   1) = (  0.0000000  0.0000000  0.0000000  )
         2           Mg  tau(   2) = (  0.0000000  0.0000000  0.3332681  )
         3           Mg  tau(   3) = (  0.0000000  0.0000000  0.6667319  )
         4           Mg  tau(   4) = (  0.0000000  0.3332681  0.0000000  )
         5           Mg  tau(   5) = (  0.0000000  0.3332248  0.3332248  )
         6           Mg  tau(   6) = (  0.0000000  0.3332248  0.6667753  )
         7           Mg  tau(   7) = (  0.0000000  0.6667319  0.0000000  )
         8           Mg  tau(   8) = (  0.0000000  0.6667753  0.3332248  )
         9           Mg  tau(   9) = (  0.0000000  0.6667753  0.6667753  )
        10           Mg  tau(  10) = (  0.3332681  0.0000000  0.0000000  )
        11           Mg  tau(  11) = (  0.3332248  0.0000000  0.3332248  )
        12           Mg  tau(  12) = (  0.3332248  0.0000000  0.6667753  )
        13           Mg  tau(  13) = (  0.3332248  0.3332248  0.0000000  )
        14           Mg  tau(  14) = (  0.3333511  0.3333511  0.3333511  )
        15           Mg  tau(  15) = (  0.3333511  0.3333511  0.6666489  )
        16           Mg  tau(  16) = (  0.3332248  0.6667753  0.0000000  )
        17           Mg  tau(  17) = (  0.3333511  0.6666489  0.3333511  )
        18           Mg  tau(  18) = (  0.3333511  0.6666489  0.6666489  )
        19           Mg  tau(  19) = (  0.6667319  0.0000000  0.0000000  )
        20           Mg  tau(  20) = (  0.6667753  0.0000000  0.3332248  )
        21           Mg  tau(  21) = (  0.6667753  0.0000000  0.6667753  )
        22           Mg  tau(  22) = (  0.6667753  0.3332248  0.0000000  )
        23           Mg  tau(  23) = (  0.6666489  0.3333511  0.3333511  )
        24           Mg  tau(  24) = (  0.6666489  0.3333511  0.6666489  )
        25           Mg  tau(  25) = (  0.6667753  0.6667753  0.0000000  )
        26           Mg  tau(  26) = (  0.6666489  0.6666489  0.3333511  )
        27           Mg  tau(  27) = (  0.6666489  0.6666489  0.6666489  )
        28           Mg  tau(  28) = (  0.0000000  0.1666364  0.1666364  )
        29           Mg  tau(  29) = (  0.0000000  0.1665131  0.5000000  )
        30           Mg  tau(  30) = (  0.0000000  0.1666364  0.8333636  )
        31           Mg  tau(  31) = (  0.0000000  0.5000000  0.1665131  )
        32           Mg  tau(  32) = (  0.0000000  0.5000000  0.5000000  )
        33           Mg  tau(  33) = (  0.0000000  0.5000000  0.8334869  )
        34           Mg  tau(  34) = (  0.0000000  0.8333636  0.1666364  )
        35           Mg  tau(  35) = (  0.0000000  0.8334869  0.5000000  )
        36           Mg  tau(  36) = (  0.0000000  0.8333636  0.8333636  )
        37           Mg  tau(  37) = (  0.3332790  0.1666430  0.1666430  )
        38           Mg  tau(  38) = (  0.3330640  0.1663262  0.5000000  )
        39           Mg  tau(  39) = (  0.3332790  0.1666430  0.8333571  )
        40           Mg  tau(  40) = (  0.3330640  0.5000000  0.1663262  )
        41           Mg  tau(  41) = (  0.3319722  0.5000000  0.5000000  )
        42           Mg  tau(  42) = (  0.3330640  0.5000000  0.8336738  )
        43           Mg  tau(  43) = (  0.3332790  0.8333571  0.1666430  )
        44           Mg  tau(  44) = (  0.3330640  0.8336738  0.5000000  )
        45           Mg  tau(  45) = (  0.3332790  0.8333571  0.8333571  )
        46           Mg  tau(  46) = (  0.6667210  0.1666430  0.1666430  )
        47           Mg  tau(  47) = (  0.6669360  0.1663262  0.5000000  )
        48           Mg  tau(  48) = (  0.6667210  0.1666430  0.8333571  )
        49           Mg  tau(  49) = (  0.6669360  0.5000000  0.1663262  )
        50           Mg  tau(  50) = (  0.6680279  0.5000000  0.5000000  )
        51           Mg  tau(  51) = (  0.6669360  0.5000000  0.8336738  )
        52           Mg  tau(  52) = (  0.6667210  0.8333571  0.1666430  )
        53           Mg  tau(  53) = (  0.6669360  0.8336738  0.5000000  )
        54           Mg  tau(  54) = (  0.6667210  0.8333571  0.8333571  )
        55           Mg  tau(  55) = (  0.1666364  0.0000000  0.1666364  )
        56           Mg  tau(  56) = (  0.1665131  0.0000000  0.5000000  )
        57           Mg  tau(  57) = (  0.1666364  0.0000000  0.8333636  )
        58           Mg  tau(  58) = (  0.1666430  0.3332790  0.1666430  )
        59           Mg  tau(  59) = (  0.1663262  0.3330640  0.5000000  )
        60           Mg  tau(  60) = (  0.1666430  0.3332790  0.8333571  )
        61           Mg  tau(  61) = (  0.1666430  0.6667210  0.1666430  )
        62           Mg  tau(  62) = (  0.1663262  0.6669360  0.5000000  )
        63           Mg  tau(  63) = (  0.1666430  0.6667210  0.8333571  )
        64           Mg  tau(  64) = (  0.5000000  0.0000000  0.1665131  )
        65           Mg  tau(  65) = (  0.5000000  0.0000000  0.5000000  )
        66           Mg  tau(  66) = (  0.5000000  0.0000000  0.8334869  )
        67           Mg  tau(  67) = (  0.5000000  0.3330640  0.1663262  )
        68           Mg  tau(  68) = (  0.5000000  0.3319722  0.5000000  )
        69           Mg  tau(  69) = (  0.5000000  0.3330640  0.8336738  )
        70           Mg  tau(  70) = (  0.5000000  0.6669360  0.1663262  )
        71           Mg  tau(  71) = (  0.5000000  0.6680279  0.5000000  )
        72           Mg  tau(  72) = (  0.5000000  0.6669360  0.8336738  )
        73           Mg  tau(  73) = (  0.8333636  0.0000000  0.1666364  )
        74           Mg  tau(  74) = (  0.8334869  0.0000000  0.5000000  )
        75           Mg  tau(  75) = (  0.8333636  0.0000000  0.8333636  )
        76           Mg  tau(  76) = (  0.8333571  0.3332790  0.1666430  )
        77           Mg  tau(  77) = (  0.8336738  0.3330640  0.5000000  )
        78           Mg  tau(  78) = (  0.8333571  0.3332790  0.8333571  )
        79           Mg  tau(  79) = (  0.8333571  0.6667210  0.1666430  )
        80           Mg  tau(  80) = (  0.8336738  0.6669360  0.5000000  )
        81           Mg  tau(  81) = (  0.8333571  0.6667210  0.8333571  )
        82           Mg  tau(  82) = (  0.1666364  0.1666364  0.0000000  )
        83           Mg  tau(  83) = (  0.1666430  0.1666430  0.3332790  )
        84           Mg  tau(  84) = (  0.1666430  0.1666430  0.6667210  )
        85           Mg  tau(  85) = (  0.1665131  0.5000000  0.0000000  )
        86           Mg  tau(  86) = (  0.1663262  0.5000000  0.3330640  )
        87           Mg  tau(  87) = (  0.1663262  0.5000000  0.6669360  )
        88           Mg  tau(  88) = (  0.1666364  0.8333636  0.0000000  )
        89           Mg  tau(  89) = (  0.1666430  0.8333571  0.3332790  )
        90           Mg  tau(  90) = (  0.1666430  0.8333571  0.6667210  )
        91           Mg  tau(  91) = (  0.5000000  0.1665131  0.0000000  )
        92           Mg  tau(  92) = (  0.5000000  0.1663262  0.3330640  )
        93           Mg  tau(  93) = (  0.5000000  0.1663262  0.6669360  )
        94           Mg  tau(  94) = (  0.5000000  0.5000000  0.0000000  )
        95           Mg  tau(  95) = (  0.5000000  0.5000000  0.3319722  )
        96           Mg  tau(  96) = (  0.5000000  0.5000000  0.6680279  )
        97           Mg  tau(  97) = (  0.5000000  0.8334869  0.0000000  )
        98           Mg  tau(  98) = (  0.5000000  0.8336738  0.3330640  )
        99           Mg  tau(  99) = (  0.5000000  0.8336738  0.6669360  )
       100           Mg  tau( 100) = (  0.8333636  0.1666364  0.0000000  )
       101           Mg  tau( 101) = (  0.8333571  0.1666430  0.3332790  )
       102           Mg  tau( 102) = (  0.8333571  0.1666430  0.6667210  )
       103           Mg  tau( 103) = (  0.8334869  0.5000000  0.0000000  )
       104           Mg  tau( 104) = (  0.8336738  0.5000000  0.3330640  )
       105           Mg  tau( 105) = (  0.8336738  0.5000000  0.6669360  )
       106           Mg  tau( 106) = (  0.8333636  0.8333636  0.0000000  )
       107           Mg  tau( 107) = (  0.8333571  0.8333571  0.3332790  )
       108           Mg  tau( 108) = (  0.8333571  0.8333571  0.6667210  )
       109           O   tau( 109) = (  0.0000000  0.1666424  0.0000000  )
       110           O   tau( 110) = (  0.0000000  0.1666292  0.3333048  )
       111           O   tau( 111) = (  0.0000000  0.1666292  0.6666952  )
       112           O   tau( 112) = (  0.0000000  0.5000000  0.0000000  )
       113           O   tau( 113) = (  0.0000000  0.5000000  0.3332779  )
       114           O   tau( 114) = (  0.0000000  0.5000000  0.6667221  )
       115           O   tau( 115) = (  0.0000000  0.8333576  0.0000000  )
       116           O   tau( 116) = (  0.0000000  0.8333709  0.3333048  )
       117           O   tau( 117) = (  0.0000000  0.8333709  0.6666952  )
       118           O   tau( 118) = (  0.3333048  0.1666292  0.0000000  )
       119           O   tau( 119) = (  0.3332849  0.1665668  0.3332849  )
       120           O   tau( 120) = (  0.3332849  0.1665668  0.6667151  )
       121           O   tau( 121) = (  0.3332779  0.5000000  0.0000000  )
       122           O   tau( 122) = (  0.3327222  0.5000000  0.3327222  )
       123           O   tau( 123) = (  0.3327222  0.5000000  0.6672779  )
       124           O   tau( 124) = (  0.3333048  0.8333709  0.0000000  )
       125           O   tau( 125) = (  0.3332849  0.8334332  0.3332849  )
       126           O   tau( 126) = (  0.3332849  0.8334332  0.6667151  )
       127           O   tau( 127) = (  0.6666952  0.1666292  0.0000000  )
       128           O   tau( 128) = (  0.6667151  0.1665668  0.3332849  )
       129           O   tau( 129) = (  0.6667151  0.1665668  0.6667151  )
       130           O   tau( 130) = (  0.6667221  0.5000000  0.0000000  )
       131           O   tau( 131) = (  0.6672779  0.5000000  0.3327222  )
       132           O   tau( 132) = (  0.6672779  0.5000000  0.6672779  )
       133           O   tau( 133) = (  0.6666952  0.8333709  0.0000000  )
       134           O   tau( 134) = (  0.6667151  0.8334332  0.3332849  )
       135           O   tau( 135) = (  0.6667151  0.8334332  0.6667151  )
       136           O   tau( 136) = (  0.0000000  0.0000000  0.1666424  )
       137           O   tau( 137) = (  0.0000000  0.0000000  0.5000000  )
       138           O   tau( 138) = (  0.0000000  0.0000000  0.8333576  )
       139           O   tau( 139) = (  0.0000000  0.3333048  0.1666292  )
       140           O   tau( 140) = (  0.0000000  0.3332779  0.5000000  )
       141           O   tau( 141) = (  0.0000000  0.3333048  0.8333709  )
       142           O   tau( 142) = (  0.0000000  0.6666952  0.1666292  )
       143           O   tau( 143) = (  0.0000000  0.6667221  0.5000000  )
       144           O   tau( 144) = (  0.0000000  0.6666952  0.8333709  )
       145           O   tau( 145) = (  0.3333048  0.0000000  0.1666292  )
       146           O   tau( 146) = (  0.3332779  0.0000000  0.5000000  )
       147           O   tau( 147) = (  0.3333048  0.0000000  0.8333709  )
       148           O   tau( 148) = (  0.3332849  0.3332849  0.1665668  )
       149           O   tau( 149) = (  0.3327222  0.3327222  0.5000000  )
       150           O   tau( 150) = (  0.3332849  0.3332849  0.8334332  )
       151           O   tau( 151) = (  0.3332849  0.6667151  0.1665668  )
       152           O   tau( 152) = (  0.3327222  0.6672779  0.5000000  )
       153           O   tau( 153) = (  0.3332849  0.6667151  0.8334332  )
       154           O   tau( 154) = (  0.6666952  0.0000000  0.1666292  )
       155           O   tau( 155) = (  0.6667221  0.0000000  0.5000000  )
       156           O   tau( 156) = (  0.6666952  0.0000000  0.8333709  )
       157           O   tau( 157) = (  0.6667151  0.3332849  0.1665668  )
       158           O   tau( 158) = (  0.6672779  0.3327222  0.5000000  )
       159           O   tau( 159) = (  0.6667151  0.3332849  0.8334332  )
       160           O   tau( 160) = (  0.6667151  0.6667151  0.1665668  )
       161           O   tau( 161) = (  0.6672779  0.6672779  0.5000000  )
       162           O   tau( 162) = (  0.6667151  0.6667151  0.8334332  )
       163           O   tau( 163) = (  0.1666403  0.1666403  0.1666403  )
       164           O   tau( 164) = (  0.1665262  0.1665262  0.5000000  )
       165           O   tau( 165) = (  0.1666403  0.1666403  0.8333597  )
       166           O   tau( 166) = (  0.1665262  0.5000000  0.1665262  )
       167           O   tau( 167) = (  0.1664748  0.5000000  0.5000000  )
       168           O   tau( 168) = (  0.1665262  0.5000000  0.8334738  )
       169           O   tau( 169) = (  0.1666403  0.8333597  0.1666403  )
       170           O   tau( 170) = (  0.1665262  0.8334738  0.5000000  )
       171           O   tau( 171) = (  0.1666403  0.8333597  0.8333597  )
       172           O   tau( 172) = (  0.5000000  0.1665262  0.1665262  )
       173           O   tau( 173) = (  0.5000000  0.1664748  0.5000000  )
       174           O   tau( 174) = (  0.5000000  0.1665262  0.8334738  )
       175           O   tau( 175) = (  0.5000000  0.5000000  0.1664748  )
       176           O   tau( 176) = (  0.5000000  0.5000000  0.8335252  )
       177           O   tau( 177) = (  0.5000000  0.8334738  0.1665262  )
       178           O   tau( 178) = (  0.5000000  0.8335252  0.5000000  )
       179           O   tau( 179) = (  0.5000000  0.8334738  0.8334738  )
       180           O   tau( 180) = (  0.8333597  0.1666403  0.1666403  )
       181           O   tau( 181) = (  0.8334738  0.1665262  0.5000000  )
       182           O   tau( 182) = (  0.8333597  0.1666403  0.8333597  )
       183           O   tau( 183) = (  0.8334738  0.5000000  0.1665262  )
       184           O   tau( 184) = (  0.8335252  0.5000000  0.5000000  )
       185           O   tau( 185) = (  0.8334738  0.5000000  0.8334738  )
       186           O   tau( 186) = (  0.8333597  0.8333597  0.1666403  )
       187           O   tau( 187) = (  0.8334738  0.8334738  0.5000000  )
       188           O   tau( 188) = (  0.8333597  0.8333597  0.8333597  )
       189           O   tau( 189) = (  0.1666424  0.0000000  0.0000000  )
       190           O   tau( 190) = (  0.1666292  0.0000000  0.3333048  )
       191           O   tau( 191) = (  0.1666292  0.0000000  0.6666952  )
       192           O   tau( 192) = (  0.1666292  0.3333048  0.0000000  )
       193           O   tau( 193) = (  0.1665668  0.3332849  0.3332849  )
       194           O   tau( 194) = (  0.1665668  0.3332849  0.6667151  )
       195           O   tau( 195) = (  0.1666292  0.6666952  0.0000000  )
       196           O   tau( 196) = (  0.1665668  0.6667151  0.3332849  )
       197           O   tau( 197) = (  0.1665668  0.6667151  0.6667151  )
       198           O   tau( 198) = (  0.5000000  0.0000000  0.0000000  )
       199           O   tau( 199) = (  0.5000000  0.0000000  0.3332779  )
       200           O   tau( 200) = (  0.5000000  0.0000000  0.6667221  )
       201           O   tau( 201) = (  0.5000000  0.3332779  0.0000000  )
       202           O   tau( 202) = (  0.5000000  0.3327222  0.3327222  )
       203           O   tau( 203) = (  0.5000000  0.3327222  0.6672779  )
       204           O   tau( 204) = (  0.5000000  0.6667221  0.0000000  )
       205           O   tau( 205) = (  0.5000000  0.6672779  0.3327222  )
       206           O   tau( 206) = (  0.5000000  0.6672779  0.6672779  )
       207           O   tau( 207) = (  0.8333576  0.0000000  0.0000000  )
       208           O   tau( 208) = (  0.8333709  0.0000000  0.3333048  )
       209           O   tau( 209) = (  0.8333709  0.0000000  0.6666952  )
       210           O   tau( 210) = (  0.8333709  0.3333048  0.0000000  )
       211           O   tau( 211) = (  0.8334332  0.3332849  0.3332849  )
       212           O   tau( 212) = (  0.8334332  0.3332849  0.6667151  )
       213           O   tau( 213) = (  0.8333709  0.6666952  0.0000000  )
       214           O   tau( 214) = (  0.8334332  0.6667151  0.3332849  )
       215           O   tau( 215) = (  0.8334332  0.6667151  0.6667151  )

     number of k points=     1
                       cart. coord. in units 2pi/alat
        k(    1) = (   0.0000000   0.0000000   0.0000000), wk =   1.0000000

                       cryst. coord.
        k(    1) = (   0.0000000   0.0000000   0.0000000), wk =   1.0000000

     Dense  grid:   421081 G-vectors     FFT dimensions: ( 120, 120, 120)

     Estimated max dynamical RAM per process >     524.52MB

     Estimated total allocated dynamical RAM >   88119.89MB
     Generating pointlists ...
     new r_m :   0.0683 (alat units)  1.6216 (a.u.) for type    1
     new r_m :   0.0683 (alat units)  1.6216 (a.u.) for type    2

     Initial potential from superposition of free atoms

     starting charge 1714.83448, renormalised to 1722.00000
     Starting wfc are random

     total cpu time spent up to now is        4.7 secs

     per-process dynamical memory:    52.7 Mb

     Self-consistent Calculation

     iteration #  1     ecut=    60.00 Ry     beta=0.30
     Davidson diagonalization with overlap
     ethr =  1.00E-02,  avg # of iterations =  8.0

     total cpu time spent up to now is       56.5 secs

     total energy              =  -15173.86657444 Ry
     Harris-Foulkes estimate   =  -15189.21567643 Ry
     estimated scf accuracy    <      37.44046444 Ry

     total magnetization       =     0.00 Bohr mag/cell
     absolute magnetization    =     0.13 Bohr mag/cell

     iteration #  2     ecut=    60.00 Ry     beta=0.30
     Davidson diagonalization with overlap
     ethr =  2.17E-03,  avg # of iterations =  5.0

     total cpu time spent up to now is       75.4 secs

     total energy              =  -15177.34022989 Ry
     Harris-Foulkes estimate   =  -15178.24424616 Ry
     estimated scf accuracy    <       2.90498136 Ry

     total magnetization       =     0.00 Bohr mag/cell
     absolute magnetization    =     0.03 Bohr mag/cell

     iteration #  3     ecut=    60.00 Ry     beta=0.30
     Davidson diagonalization with overlap
     ethr =  1.69E-04,  avg # of iterations = 10.5

     total cpu time spent up to now is      108.8 secs

     total energy              =  -15177.55037475 Ry
     Harris-Foulkes estimate   =  -15177.64423791 Ry
     estimated scf accuracy    <       0.62641620 Ry

     total magnetization       =    -0.00 Bohr mag/cell
     absolute magnetization    =     0.01 Bohr mag/cell

     iteration #  4     ecut=    60.00 Ry     beta=0.30
     Davidson diagonalization with overlap
     ethr =  3.64E-05,  avg # of iterations =  6.5

     total cpu time spent up to now is      129.4 secs

     total energy              =  -15177.57654840 Ry
     Harris-Foulkes estimate   =  -15177.57741057 Ry
     estimated scf accuracy    <       0.01815496 Ry

     total magnetization       =     0.00 Bohr mag/cell
     absolute magnetization    =     0.01 Bohr mag/cell

     iteration #  5     ecut=    60.00 Ry     beta=0.30
     Davidson diagonalization with overlap
     ethr =  1.05E-06,  avg # of iterations =  6.5

     total cpu time spent up to now is      157.2 secs

     total energy              =  -15177.57909111 Ry
     Harris-Foulkes estimate   =  -15177.57982712 Ry
     estimated scf accuracy    <       0.00221469 Ry

     total magnetization       =    -0.00 Bohr mag/cell
     absolute magnetization    =     0.00 Bohr mag/cell

     iteration #  6     ecut=    60.00 Ry     beta=0.30
     Davidson diagonalization with overlap
     ethr =  1.29E-07,  avg # of iterations =  5.0

     total cpu time spent up to now is      172.4 secs

     total energy              =  -15177.57897731 Ry
     Harris-Foulkes estimate   =  -15177.57918626 Ry
     estimated scf accuracy    <       0.00065217 Ry

     total magnetization       =    -0.00 Bohr mag/cell
     absolute magnetization    =     0.00 Bohr mag/cell

     iteration #  7     ecut=    60.00 Ry     beta=0.30
     Davidson diagonalization with overlap
     ethr =  3.79E-08,  avg # of iterations =  5.0

     total cpu time spent up to now is      198.6 secs

     total energy              =  -15177.57913636 Ry
     Harris-Foulkes estimate   =  -15177.57915298 Ry
     estimated scf accuracy    <       0.00004782 Ry

     total magnetization       =     0.00 Bohr mag/cell
     absolute magnetization    =     0.00 Bohr mag/cell

     iteration #  8     ecut=    60.00 Ry     beta=0.30
     Davidson diagonalization with overlap
     ethr =  2.78E-09,  avg # of iterations =  5.0

     total cpu time spent up to now is      219.6 secs

     total energy              =  -15177.57915374 Ry
     Harris-Foulkes estimate   =  -15177.57914764 Ry
     estimated scf accuracy    <       0.00000750 Ry

     total magnetization       =     0.00 Bohr mag/cell
     absolute magnetization    =     0.00 Bohr mag/cell

     iteration #  9     ecut=    60.00 Ry     beta=0.30
     Davidson diagonalization with overlap
     ethr =  4.36E-10,  avg # of iterations =  5.0

     total cpu time spent up to now is      240.9 secs

     total energy              =  -15177.57915556 Ry
     Harris-Foulkes estimate   =  -15177.57915575 Ry
     estimated scf accuracy    <       0.00000050 Ry

     total magnetization       =    -0.00 Bohr mag/cell
     absolute magnetization    =     0.00 Bohr mag/cell

     iteration # 10     ecut=    60.00 Ry     beta=0.30
     Davidson diagonalization with overlap
     ethr =  2.89E-11,  avg # of iterations =  6.0
 
     Magnetic moment per site:
     atom:    1    charge:    8.1647    magn:   -0.0000    constr:    0.0000
     atom:    2    charge:    8.1647    magn:   -0.0000    constr:    0.0000
     atom:    3    charge:    8.1647    magn:   -0.0000    constr:    0.0000
     atom:    4    charge:    8.1647    magn:   -0.0000    constr:    0.0000
     atom:    5    charge:    8.1647    magn:   -0.0000    constr:    0.0000
     atom:    6    charge:    8.1647    magn:   -0.0000    constr:    0.0000
     atom:    7    charge:    8.1647    magn:   -0.0000    constr:    0.0000
     atom:    8    charge:    8.1647    magn:   -0.0000    constr:    0.0000
     atom:    9    charge:    8.1647    magn:   -0.0000    constr:    0.0000
     atom:   10    charge:    8.1647    magn:   -0.0000    constr:    0.0000
     atom:   11    charge:    8.1647    magn:   -0.0000    constr:    0.0000
     atom:   12    charge:    8.1647    magn:   -0.0000    constr:    0.0000
     atom:   13    charge:    8.1647    magn:   -0.0000    constr:    0.0000
     atom:   14    charge:    8.1637    magn:   -0.0000    constr:    0.0000
     atom:   15    charge:    8.1637    magn:   -0.0000    constr:    0.0000
     atom:   16    charge:    8.1647    magn:   -0.0000    constr:    0.0000
     atom:   17    charge:    8.1637    magn:   -0.0000    constr:    0.0000
     atom:   18    charge:    8.1637    magn:   -0.0000    constr:    0.0000
     atom:   19    charge:    8.1647    magn:   -0.0000    constr:    0.0000
     atom:   20    charge:    8.1647    magn:   -0.0000    constr:    0.0000
     atom:   21    charge:    8.1647    magn:   -0.0000    constr:    0.0000
     atom:   22    charge:    8.1647    magn:   -0.0000    constr:    0.0000
     atom:   23    charge:    8.1637    magn:   -0.0000    constr:    0.0000
     atom:   24    charge:    8.1637    magn:   -0.0000    constr:    0.0000
     atom:   25    charge:    8.1647    magn:   -0.0000    constr:    0.0000
     atom:   26    charge:    8.1637    magn:   -0.0000    constr:    0.0000
     atom:   27    charge:    8.1637    magn:   -0.0000    constr:    0.0000
     atom:   28    charge:    8.1647    magn:   -0.0000    constr:    0.0000
     atom:   29    charge:    8.1649    magn:   -0.0000    constr:    0.0000
     atom:   30    charge:    8.1647    magn:   -0.0000    constr:    0.0000
     atom:   31    charge:    8.1649    magn:   -0.0000    constr:    0.0000
     atom:   32    charge:    8.1646    magn:   -0.0000    constr:    0.0000
     atom:   33    charge:    8.1649    magn:   -0.0000    constr:    0.0000
     atom:   34    charge:    8.1647    magn:   -0.0000    constr:    0.0000
     atom:   35    charge:    8.1649    magn:   -0.0000    constr:    0.0000
     atom:   36    charge:    8.1647    magn:   -0.0000    constr:    0.0000
     atom:   37    charge:    8.1646    magn:   -0.0000    constr:    0.0000
     atom:   38    charge:    8.1650    magn:   -0.0000    constr:    0.0000
     atom:   39    charge:    8.1646    magn:   -0.0000    constr:    0.0000
     atom:   40    charge:    8.1650    magn:   -0.0000    constr:    0.0000
     atom:   41    charge:    8.1580    magn:   -0.0000    constr:    0.0000
     atom:   42    charge:    8.1650    magn:   -0.0000    constr:    0.0000
     atom:   43    charge:    8.1646    magn:   -0.0000    constr:    0.0000
     atom:   44    charge:    8.1650    magn:   -0.0000    constr:    0.0000
     atom:   45    charge:    8.1646    magn:   -0.0000    constr:    0.0000
     atom:   46    charge:    8.1646    magn:   -0.0000    constr:    0.0000
     atom:   47    charge:    8.1650    magn:   -0.0000    constr:    0.0000
     atom:   48    charge:    8.1646    magn:   -0.0000    constr:    0.0000
     atom:   49    charge:    8.1650    magn:   -0.0000    constr:    0.0000
     atom:   50    charge:    8.1580    magn:   -0.0000    constr:    0.0000
     atom:   51    charge:    8.1650    magn:   -0.0000    constr:    0.0000
     atom:   52    charge:    8.1646    magn:   -0.0000    constr:    0.0000
     atom:   53    charge:    8.1650    magn:   -0.0000    constr:    0.0000
     atom:   54    charge:    8.1646    magn:   -0.0000    constr:    0.0000
     atom:   55    charge:    8.1647    magn:   -0.0000    constr:    0.0000
     atom:   56    charge:    8.1649    magn:   -0.0000    constr:    0.0000
     atom:   57    charge:    8.1647    magn:   -0.0000    constr:    0.0000
     atom:   58    charge:    8.1646    magn:   -0.0000    constr:    0.0000
     atom:   59    charge:    8.1650    magn:   -0.0000    constr:    0.0000
     atom:   60    charge:    8.1646    magn:   -0.0000    constr:    0.0000
     atom:   61    charge:    8.1646    magn:   -0.0000    constr:    0.0000
     atom:   62    charge:    8.1650    magn:   -0.0000    constr:    0.0000
     atom:   63    charge:    8.1646    magn:   -0.0000    constr:    0.0000
     atom:   64    charge:    8.1649    magn:   -0.0000    constr:    0.0000
     atom:   65    charge:    8.1646    magn:   -0.0000    constr:    0.0000
     atom:   66    charge:    8.1649    magn:   -0.0000    constr:    0.0000
     atom:   67    charge:    8.1650    magn:   -0.0000    constr:    0.0000
     atom:   68    charge:    8.1580    magn:   -0.0000    constr:    0.0000
     atom:   69    charge:    8.1650    magn:   -0.0000    constr:    0.0000
     atom:   70    charge:    8.1650    magn:   -0.0000    constr:    0.0000
     atom:   71    charge:    8.1580    magn:   -0.0000    constr:    0.0000
     atom:   72    charge:    8.1650    magn:   -0.0000    constr:    0.0000
     atom:   73    charge:    8.1647    magn:   -0.0000    constr:    0.0000
     atom:   74    charge:    8.1649    magn:   -0.0000    constr:    0.0000
     atom:   75    charge:    8.1647    magn:   -0.0000    constr:    0.0000
     atom:   76    charge:    8.1646    magn:   -0.0000    constr:    0.0000
     atom:   77    charge:    8.1650    magn:   -0.0000    constr:    0.0000
     atom:   78    charge:    8.1646    magn:   -0.0000    constr:    0.0000
     atom:   79    charge:    8.1646    magn:   -0.0000    constr:    0.0000
     atom:   80    charge:    8.1650    magn:   -0.0000    constr:    0.0000
     atom:   81    charge:    8.1646    magn:   -0.0000    constr:    0.0000
     atom:   82    charge:    8.1647    magn:   -0.0000    constr:    0.0000
     atom:   83    charge:    8.1646    magn:   -0.0000    constr:    0.0000
     atom:   84    charge:    8.1646    magn:   -0.0000    constr:    0.0000
     atom:   85    charge:    8.1649    magn:   -0.0000    constr:    0.0000
     atom:   86    charge:    8.1650    magn:   -0.0000    constr:    0.0000
     atom:   87    charge:    8.1650    magn:   -0.0000    constr:    0.0000
     atom:   88    charge:    8.1647    magn:   -0.0000    constr:    0.0000
     atom:   89    charge:    8.1646    magn:   -0.0000    constr:    0.0000
     atom:   90    charge:    8.1646    magn:   -0.0000    constr:    0.0000
     atom:   91    charge:    8.1649    magn:   -0.0000    constr:    0.0000
     atom:   92    charge:    8.1650    magn:   -0.0000    constr:    0.0000
     atom:   93    charge:    8.1650    magn:   -0.0000    constr:    0.0000
     atom:   94    charge:    8.1646    magn:   -0.0000    constr:    0.0000
     atom:   95    charge:    8.1580    magn:   -0.0000    constr:    0.0000
     atom:   96    charge:    8.1580    magn:   -0.0000    constr:    0.0000
     atom:   97    charge:    8.1649    magn:   -0.0000    constr:    0.0000
     atom:   98    charge:    8.1650    magn:   -0.0000    constr:    0.0000
     atom:   99    charge:    8.1650    magn:   -0.0000    constr:    0.0000
     atom:  100    charge:    8.1647    magn:   -0.0000    constr:    0.0000
     atom:  101    charge:    8.1646    magn:   -0.0000    constr:    0.0000
     atom:  102    charge:    8.1646    magn:   -0.0000    constr:    0.0000
     atom:  103    charge:    8.1649    magn:   -0.0000    constr:    0.0000
     atom:  104    charge:    8.1650    magn:   -0.0000    constr:    0.0000
     atom:  105    charge:    8.1650    magn:   -0.0000    constr:    0.0000
     atom:  106    charge:    8.1647    magn:   -0.0000    constr:    0.0000
     atom:  107    charge:    8.1646    magn:   -0.0000    constr:    0.0000
     atom:  108    charge:    8.1646    magn:   -0.0000    constr:    0.0000
     atom:  109    charge:    5.7931    magn:    0.0000    constr:    0.0000
     atom:  110    charge:    5.7930    magn:    0.0000    constr:    0.0000
     atom:  111    charge:    5.7930    magn:    0.0000    constr:    0.0000
     atom:  112    charge:    5.7936    magn:   -0.0000    constr:    0.0000
     atom:  113    charge:    5.7933    magn:    0.0000    constr:    0.0000
     atom:  114    charge:    5.7933    magn:    0.0000    constr:    0.0000
     atom:  115    charge:    5.7931    magn:    0.0000    constr:    0.0000
     atom:  116    charge:    5.7930    magn:    0.0000    constr:    0.0000
     atom:  117    charge:    5.7930    magn:    0.0000    constr:    0.0000
     atom:  118    charge:    5.7930    magn:    0.0000    constr:    0.0000
     atom:  119    charge:    5.7926    magn:    0.0000    constr:    0.0000
     atom:  120    charge:    5.7926    magn:    0.0000    constr:    0.0000
     atom:  121    charge:    5.7933    magn:   -0.0000    constr:    0.0000
     atom:  122    charge:    5.7874    magn:    0.0000    constr:    0.0000
     atom:  123    charge:    5.7874    magn:    0.0000    constr:    0.0000
     atom:  124    charge:    5.7930    magn:    0.0000    constr:    0.0000
     atom:  125    charge:    5.7926    magn:    0.0000    constr:    0.0000
     atom:  126    charge:    5.7926    magn:    0.0000    constr:    0.0000
     atom:  127    charge:    5.7930    magn:    0.0000    constr:    0.0000
     atom:  128    charge:    5.7926    magn:    0.0000    constr:    0.0000
     atom:  129    charge:    5.7926    magn:    0.0000    constr:    0.0000
     atom:  130    charge:    5.7933    magn:   -0.0000    constr:    0.0000
     atom:  131    charge:    5.7874    magn:    0.0000    constr:    0.0000
     atom:  132    charge:    5.7874    magn:    0.0000    constr:    0.0000
     atom:  133    charge:    5.7930    magn:    0.0000    constr:    0.0000
     atom:  134    charge:    5.7926    magn:    0.0000    constr:    0.0000
     atom:  135    charge:    5.7926    magn:   -0.0000    constr:    0.0000
     atom:  136    charge:    5.7931    magn:    0.0000    constr:    0.0000
     atom:  137    charge:    5.7937    magn:    0.0000    constr:    0.0000
     atom:  138    charge:    5.7931    magn:    0.0000    constr:    0.0000
     atom:  139    charge:    5.7930    magn:    0.0000    constr:    0.0000
     atom:  140    charge:    5.7933    magn:    0.0000    constr:    0.0000
     atom:  141    charge:    5.7930    magn:    0.0000    constr:    0.0000
     atom:  142    charge:    5.7930    magn:    0.0000    constr:    0.0000
     atom:  143    charge:    5.7933    magn:   -0.0000    constr:    0.0000
     atom:  144    charge:    5.7930    magn:    0.0000    constr:    0.0000
     atom:  145    charge:    5.7930    magn:    0.0000    constr:    0.0000
     atom:  146    charge:    5.7933    magn:    0.0000    constr:    0.0000
     atom:  147    charge:    5.7930    magn:    0.0000    constr:    0.0000
     atom:  148    charge:    5.7926    magn:    0.0000    constr:    0.0000
     atom:  149    charge:    5.7874    magn:    0.0000    constr:    0.0000
     atom:  150    charge:    5.7926    magn:    0.0000    constr:    0.0000
     atom:  151    charge:    5.7926    magn:    0.0000    constr:    0.0000
     atom:  152    charge:    5.7874    magn:    0.0000    constr:    0.0000
     atom:  153    charge:    5.7926    magn:    0.0000    constr:    0.0000
     atom:  154    charge:    5.7930    magn:    0.0000    constr:    0.0000
     atom:  155    charge:    5.7933    magn:    0.0000    constr:    0.0000
     atom:  156    charge:    5.7930    magn:    0.0000    constr:    0.0000
     atom:  157    charge:    5.7926    magn:    0.0000    constr:    0.0000
     atom:  158    charge:    5.7874    magn:    0.0000    constr:    0.0000
     atom:  159    charge:    5.7926    magn:    0.0000    constr:    0.0000
     atom:  160    charge:    5.7926    magn:    0.0000    constr:    0.0000
     atom:  161    charge:    5.7874    magn:    0.0000    constr:    0.0000
     atom:  162    charge:    5.7926    magn:    0.0000    constr:    0.0000
     atom:  163    charge:    5.7931    magn:    0.0000    constr:    0.0000
     atom:  164    charge:    5.7935    magn:    0.0000    constr:    0.0000
     atom:  165    charge:    5.7931    magn:    0.0000    constr:    0.0000
     atom:  166    charge:    5.7935    magn:    0.0000    constr:    0.0000
     atom:  167    charge:    5.7933    magn:    0.0000    constr:    0.0000
     atom:  168    charge:    5.7935    magn:    0.0000    constr:    0.0000
     atom:  169    charge:    5.7931    magn:    0.0000    constr:    0.0000
     atom:  170    charge:    5.7935    magn:    0.0000    constr:    0.0000
     atom:  171    charge:    5.7931    magn:    0.0000    constr:    0.0000
     atom:  172    charge:    5.7935    magn:   -0.0000    constr:    0.0000
     atom:  173    charge:    5.7933    magn:    0.0000    constr:    0.0000
     atom:  174    charge:    5.7935    magn:   -0.0000    constr:    0.0000
     atom:  175    charge:    5.7933    magn:    0.0000    constr:    0.0000
     atom:  176    charge:    5.7933    magn:    0.0000    constr:    0.0000
     atom:  177    charge:    5.7935    magn:    0.0000    constr:    0.0000
     atom:  178    charge:    5.7933    magn:    0.0000    constr:    0.0000
     atom:  179    charge:    5.7935    magn:   -0.0000    constr:    0.0000
     atom:  180    charge:    5.7931    magn:    0.0000    constr:    0.0000
     atom:  181    charge:    5.7935    magn:   -0.0000    constr:    0.0000
     atom:  182    charge:    5.7931    magn:    0.0000    constr:    0.0000
     atom:  183    charge:    5.7935    magn:    0.0000    constr:    0.0000
     atom:  184    charge:    5.7933    magn:    0.0000    constr:    0.0000
     atom:  185    charge:    5.7935    magn:    0.0000    constr:    0.0000
     atom:  186    charge:    5.7931    magn:    0.0000    constr:    0.0000
     atom:  187    charge:    5.7935    magn:    0.0000    constr:    0.0000
     atom:  188    charge:    5.7931    magn:    0.0000    constr:    0.0000
     atom:  189    charge:    5.7931    magn:    0.0000    constr:    0.0000
     atom:  190    charge:    5.7930    magn:    0.0000    constr:    0.0000
     atom:  191    charge:    5.7930    magn:    0.0000    constr:    0.0000
     atom:  192    charge:    5.7930    magn:    0.0000    constr:    0.0000
     atom:  193    charge:    5.7926    magn:    0.0000    constr:    0.0000
     atom:  194    charge:    5.7926    magn:    0.0000    constr:    0.0000
     atom:  195    charge:    5.7930    magn:    0.0000    constr:    0.0000
     atom:  196    charge:    5.7926    magn:    0.0000    constr:    0.0000
     atom:  197    charge:    5.7926    magn:    0.0000    constr:    0.0000
     atom:  198    charge:    5.7936    magn:    0.0000    constr:    0.0000
     atom:  199    charge:    5.7933    magn:   -0.0000    constr:    0.0000
     atom:  200    charge:    5.7933    magn:    0.0000    constr:    0.0000
     atom:  201    charge:    5.7933    magn:    0.0000    constr:    0.0000
     atom:  202    charge:    5.7874    magn:   -0.0000    constr:    0.0000
     atom:  203    charge:    5.7874    magn:    0.0000    constr:    0.0000
     atom:  204    charge:    5.7933    magn:    0.0000    constr:    0.0000
     atom:  205    charge:    5.7874    magn:    0.0000    constr:    0.0000
     atom:  206    charge:    5.7874    magn:    0.0000    constr:    0.0000
     atom:  207    charge:    5.7931    magn:    0.0000    constr:    0.0000
     atom:  208    charge:    5.7930    magn:    0.0000    constr:    0.0000
     atom:  209    charge:    5.7930    magn:    0.0000    constr:    0.0000
     atom:  210    charge:    5.7930    magn:    0.0000    constr:    0.0000
     atom:  211    charge:    5.7926    magn:    0.0000    constr:    0.0000
     atom:  212    charge:    5.7926    magn:    0.0000    constr:    0.0000
     atom:  213    charge:    5.7930    magn:    0.0000    constr:    0.0000
     atom:  214    charge:    5.7926    magn:    0.0000    constr:    0.0000
     atom:  215    charge:    5.7926    magn:    0.0000    constr:    0.0000

     total cpu time spent up to now is      267.6 secs

     End of self-consistent calculation

 ------ SPIN UP ------------


          k = 0.0000 0.0000 0.0000 ( 52700 PWs)   bands (ev):

   -63.3993 -63.3966 -63.3966 -63.3966 -63.3952 -63.3952 -63.3734 -63.3724
   -63.3724 -63.3721 -63.3721 -63.3721 -63.3717 -63.3717 -63.3717 -63.3713
   -63.3712 -63.3695 -63.3677 -63.3677 -63.3677 -63.3676 -63.3676 -63.3669
   -63.3669 -63.3669 -63.3664 -63.3658 -63.3658 -63.3658 -63.3655 -63.3655
   -63.3655 -63.3650 -63.3650 -63.3647 -63.3647 -63.3647 -63.3646 -63.3646
   -63.3646 -63.3639 -63.3636 -63.3631 -63.3631 -63.3630 -63.3630 -63.3630
   -63.3629 -63.3629 -63.3629 -63.3626 -63.3626 -63.3626 -63.3625 -63.3625
   -63.3625 -63.3625 -63.3623 -63.3623 -63.3623 -63.3622 -63.3622 -63.3622
   -63.3621 -63.3620 -63.3620 -63.3618 -63.3618 -63.3618 -63.3617 -63.3617
   -63.3617 -63.3616 -63.3616 -63.3616 -63.3616 -63.3615 -63.3615 -63.3615
   -63.3615 -63.3615 -63.3614 -63.3614 -63.3609 -63.3609 -63.3609 -63.3608
   -63.3607 -63.3607 -63.3607 -63.3606 -63.3606 -63.3606 -63.3599 -63.3599
   -63.3599 -63.3599 -63.3599 -63.3594 -63.3594 -63.3594 -63.3594 -63.3594
   -63.3594 -63.3593 -63.3593 -63.3593 -30.2502 -30.2437 -30.2437 -30.2437
   -30.2429 -30.2429 -30.2429 -30.2361 -30.2361 -30.2361 -30.2334 -30.2334
   -30.2334 -30.2323 -30.2323 -30.2322 -30.2322 -30.2315 -30.2315 -30.2315
   -30.2313 -30.2313 -30.2313 -30.2312 -30.2310 -30.2310 -30.2310 -30.2271
   -30.2271 -30.2243 -30.2243 -30.2243 -30.2239 -30.2239 -30.2239 -30.2234
   -30.2224 -30.2224 -30.2224 -30.2222 -30.2222 -30.2222 -30.2207 -30.2207
   -30.2207 -30.2201 -30.2190 -30.2190 -30.2190 -30.2186 -30.2186 -30.2186
   -30.2178 -30.2170 -30.2170 -30.2170 -30.2167 -30.2167 -30.2167 -30.2165
   -30.2165 -30.2162 -30.2160 -30.2160 -30.2160 -30.2156 -30.2156 -30.2156
   -30.2153 -30.2153 -30.2153 -30.2128 -30.2128 -30.2126 -30.2126 -30.2126
   -30.2126 -30.2126 -30.2126 -30.2122 -30.2121 -30.2121 -30.2121 -30.2115
   -30.2113 -30.2113 -30.2112 -30.2112 -30.2112 -30.2095 -30.2095 -30.2095
   -30.2092 -30.2092 -30.2092 -30.2068 -30.2068 -30.2068 -30.2068 -30.2067
   -30.2067 -30.2029 -30.2029 -30.2029 -30.2003 -30.2003 -30.1994 -30.1994
   -30.1994 -30.1981 -30.1979 -30.1979 -30.1979 -30.1974 -30.1974 -30.1974
   -30.1966 -30.1966 -30.1966 -30.1963 -30.1963 -30.1963 -30.1942 -30.1942
   -30.1942 -30.1934 -30.1934 -30.1914 -30.1914 -30.1914 -30.1903 -30.1903
   -30.1903 -30.1896 -30.1896 -30.1896 -30.1869 -30.1869 -30.1869 -30.1869
   -30.1867 -30.1867 -30.1862 -30.1861 -30.1861 -30.1861 -30.1855 -30.1855
   -30.1855 -30.1855 -30.1855 -30.1855 -30.1849 -30.1849 -30.1849 -30.1842
   -30.1840 -30.1840 -30.1829 -30.1829 -30.1827 -30.1826 -30.1826 -30.1820
   -30.1820 -30.1820 -30.1815 -30.1815 -30.1814 -30.1805 -30.1805 -30.1805
   -30.1801 -30.1801 -30.1801 -30.1772 -30.1772 -30.1772 -30.1771 -30.1771
   -30.1771 -30.1768 -30.1768 -30.1768 -30.1752 -30.1752 -30.1752 -30.1747
   -30.1747 -30.1747 -30.1745 -30.1745 -30.1745 -30.1745 -30.1742 -30.1742
   -30.1742 -30.1740 -30.1740 -30.1740 -30.1739 -30.1737 -30.1733 -30.1733
   -30.1729 -30.1729 -30.1729 -30.1729 -30.1729 -30.1725 -30.1725 -30.1725
   -30.1724 -30.1724 -30.1724 -30.1715 -30.1715 -30.1712 -30.1708 -30.1708
   -30.1708 -30.1708 -30.1708 -30.1708 -30.1698 -30.1698 -30.1698 -30.1693
   -30.1693 -30.1693 -30.1693 -30.1693 -30.1693 -30.1692 -30.1692 -30.1692
   -30.1690 -30.1690 -30.1690 -30.1686 -30.1686 -30.1686 -30.1686 -30.1686
   -30.1686 -30.1686 -30.1686 -30.1685 -30.1685 -30.1685 -30.1685 -30.1684
   -30.1684 -30.1681 -30.1681 -30.1681 -30.1678 -30.1673 -30.1673 -30.1673
   -30.1671 -30.1671 -30.1671 -30.1668 -30.1668 -30.1661 -30.1661 -30.1661
   -30.1660 -30.1660 -30.1660 -30.1660 -30.1660 -30.1658 -30.1658 -30.1658
   -30.1658 -30.1652 -30.1652 -30.1652 -30.1650 -30.1623 -30.1623 -30.1623
   -30.1604 -30.1604 -30.1604 -30.1602 -30.1602 -30.1598 -30.1598 -30.1598
   -30.1596 -30.1596 -30.1596 -30.1594 -30.1594 -30.1594 -30.1590 -30.1590
   -30.1590 -30.1584 -30.1584 -30.1584 -30.1584 -30.1584 -30.1582 -30.1582
   -30.1582 -30.1555 -30.1555 -30.1554 -30.1554 -30.1554 -30.1547 -30.1547
   -30.1547 -30.1546 -30.1546 -30.1546 -30.1545 -30.1519 -30.1519 -30.1519
    -8.3815  -8.0064  -8.0064  -8.0037  -8.0037  -8.0037  -7.9657  -7.6816
    -7.6816  -7.6797  -7.6797  -7.6797  -7.6791  -7.6791  -7.6791  -7.6763
    -7.6763  -7.6763  -7.6089  -7.4254  -7.4254  -7.4254  -7.4250  -7.4250
    -7.4250  -7.4185  -7.3838  -7.2188  -7.2188  -7.2122  -7.2122  -7.2122
    -7.1935  -7.0593  -7.0593  -7.0588  -7.0588  -7.0588  -7.0574  -7.0574
    -7.0567  -7.0566  -7.0566  -7.0566  -7.0542  -7.0542  -7.0542  -7.0534
    -7.0534  -7.0534  -7.0514  -7.0514  -7.0514  -7.0489  -7.0489  -7.0489
    -7.0238  -6.9969  -6.9968  -6.9968  -6.9964  -6.9964  -6.9964  -6.9945
    -6.9945  -6.9945  -6.9934  -6.9934  -6.9898  -6.9898  -6.9898  -6.9886
    -6.9886  -6.9886  -6.9872  -6.9868  -6.9868  -6.9868  -6.9856  -6.9856
    -6.8812  -6.8317  -6.8317  -6.8281  -6.8281  -6.8281  -6.8262  -6.8262
    -6.8262  -6.8229  -6.8229  -6.8229  -6.8202  -6.8161  -6.8161  -6.7845
    -6.7708  -6.7708  -6.7658  -6.7658  -6.7658  -6.7651  -6.7647  -6.7647
    -6.7639  -6.7639  -6.7639   4.6731   4.7115   4.7115   4.7139   4.7139
     4.7139   4.7172   4.7172   4.7172   4.7175   4.7175   4.7175   4.7182
     4.7182   4.7182   4.7193   4.7193   4.7203   4.7203   4.7203   4.7212
     4.7809   4.7809   4.7809   4.8479   4.8479   4.8479   5.0397   5.2234
     5.2234   5.2234   5.2251   5.2348   5.2348   5.2348   5.2740   5.3358
     5.3358   5.3358   5.3370   5.3370   5.3370   5.3401   5.3401   5.3401
     5.3431   5.3431   5.3431   5.3516   5.3520   5.3520   5.3527   5.3527
     5.3527   5.3530   5.3530   5.3530   5.3533   5.3533   5.3549   5.3549
     5.3549   5.3551   5.3551   5.3551   5.3573   5.3573   5.3573   5.4358
     5.4358   5.4358   5.4427   5.4621   5.4621   5.5376   5.5376   5.5376
     5.6635   5.6680   5.6680   5.6680   5.6715   5.6715   5.6728   5.6728
     5.6728   5.7378   5.7378   5.7378   5.8310   5.8310   5.8310   5.8330
     5.8330   5.8332   5.8332   5.8332   5.8377   5.9713   5.9713   5.9713
     6.1290   6.2788   6.2788   6.2810   6.2810   6.2810   6.2817   6.2817
     6.2817   6.3536   6.3536   6.3536   6.6599   6.6599   6.6599   6.6631
     6.6631   6.6631   6.6715   6.6715   6.6715   6.7248   6.7248   6.7248
     7.0522   7.0522   7.0522   7.0525   7.0525   7.0525   7.0532   7.0532
     7.0537   7.0537   7.0537   7.0539   7.0539   7.0539   7.0584   7.0618
     7.0618   7.0626   7.0626   7.0626   7.0661   7.1264   7.1264   7.1264
     7.2229   7.2306   7.2384   7.2384   7.2389   7.2389   7.2389   7.2439
     7.2465   7.2465   7.2811   7.2811   7.2811   7.3334   7.3334   7.3560
     7.3560   7.3560   7.4445   7.4691   7.4691   7.4691   7.4699   7.4699
     7.4711   7.4711   7.4711   7.4723   7.4723   7.4723   7.4726   7.4726
     7.4755   7.4760   7.4760   7.4760   7.4772   7.4772   7.4772   7.5359
     7.5359   7.5359   7.5608   7.5608   7.5608   7.6342   7.6342   7.6342
     7.8592   7.8592   7.8592   7.8597   7.8597   7.8597   7.8627   7.8627
     7.8627   7.8684   7.8684   7.8684   7.8863   7.8921   7.8921   7.8921
     7.8941   7.8941   7.8941   7.8942   7.8945   7.8945   7.8981   7.8981
     7.8981   7.8985   7.8985   7.8985   7.9017   7.9017   7.9036   7.9036
     7.9036   7.9101   7.9101   7.9101   7.9103   7.9125   7.9125   7.9140
     7.9140   7.9140   7.9149   7.9149   7.9149   7.9509   7.9509   7.9509
     7.9723   7.9723   7.9723   7.9770   7.9770   7.9790   7.9790   7.9790
     7.9860   8.0307   8.0307   8.0307   8.0672   8.0708   8.0708   8.0709
     8.0709   8.0709   8.0719   8.0719   8.0721   8.0721   8.0721   8.0758
     8.0758   8.0758   8.0761   8.0761   8.0761   8.0764   8.0764   8.0764
     8.0789   8.3346   8.3346   8.3346   8.4155   8.4155   8.4168   8.4168
     8.4168   8.4220   8.4220   8.4220   8.4222   8.4222   8.4235   8.4235
     8.4235   8.4902   8.4902   8.4902   8.5326   8.5326   8.5326   8.5339
     8.5339   8.5339   8.5381   8.5381   8.5381   8.5826   8.5826   8.5826
     8.6033   8.6033   8.6035   8.6035   8.6035   8.6036   8.6053   8.6053
     8.6053   8.9180   8.9180   8.9180  11.4539  13.9844  15.3923  15.3923
    15.3923  15.7529  15.7529  15.9613  16.1099  16.1099  16.1099  16.7613
    16.7624  16.7624  16.7624  16.7682  16.7682  16.7682  16.7791  16.8022
    16.8022  16.8048  16.8048  16.8048  16.8057  16.8057  16.8057  17.2572
    17.2573  17.2573  17.4070  18.0624  18.0624  18.0624  18.0645  18.0645
    18.0645  18.0647  18.0647  18.0682  18.0682  18.0682  18.0700  18.0705
    18.0705  18.0705  18.0723  18.0723  18.0754  18.0754  18.0754  18.1501
    18.1501  18.1501  18.2162  18.2162  18.2162  18.3434  18.4366  18.4366
    18.5442  18.5442  18.5442  18.7501  19.0609  19.0609  19.0672  19.0771
    19.0771  19.0771  19.1148  19.1148  19.1255  19.1255  19.1255  19.1261
    19.1261  19.1261  19.1265  19.1269  19.1269  19.1269  19.1287  19.1287
    19.1287  19.1332  19.1332  19.1343  19.1343  19.1343  19.1473  19.1568
    19.1568  19.3114  19.3114  19.3114  19.3386  19.3691  19.3691  19.3691
    19.3865  19.3865  19.3865  19.3897  19.3897  19.4986  19.4986  19.4986
    19.6025  19.6025  19.6025  19.6038  19.6038  19.6038  19.6150  19.6150
    19.6150  19.8108  19.8108  19.8108  20.1125  20.1224  20.1224  20.1257
    20.1257  20.1257  20.1274  20.1317  20.1317  20.1317  20.1333  20.1333
    20.1333  20.1339  20.1339  20.1339  20.1371  20.1371  20.1706  20.1706
    20.1706  20.3804  20.3804  20.3804  20.5148  20.6074  20.6074  20.6094
    20.6095  20.6095  20.6147  20.6233  20.6233  20.6859  20.6859  20.6859
    21.2552  21.2785  21.2785  21.2785  21.2803  21.2803  21.2867  21.2867
    21.2867  21.2903  21.2903  21.2903  21.2944  21.2944  21.2944  21.3016
    21.3080  21.3080  21.3102  21.3102  21.3102  21.3160  21.3160  21.3160
    21.3209  21.3228  21.3308  21.3308  21.3311  21.3311  21.3311  21.3361
    21.3361  21.3382  21.3382  21.3382  21.3383  21.3383  21.3383  21.3393
    21.3393  21.3393  21.3501  21.3501  21.3501  21.4196  21.4196  21.4196

     occupation numbers 
     1.0000   1.0000   1.0000   1.0000   1.0000   1.0000   1.0000   1.0000
     1.0000   1.0000   1.0000   1.0000   1.0000   1.0000   1.0000   1.0000
     1.0000   1.0000   1.0000   1.0000   1.0000   1.0000   1.0000   1.0000
     1.0000   1.0000   1.0000   1.0000   1.0000   1.0000   1.0000   1.0000
     1.0000   1.0000   1.0000   1.0000   1.0000   1.0000   1.0000   1.0000
     1.0000   1.0000   1.0000   1.0000   1.0000   1.0000   1.0000   1.0000
     1.0000   1.0000   1.0000   1.0000   1.0000   1.0000   1.0000   1.0000
     1.0000   1.0000   1.0000   1.0000   1.0000   1.0000   1.0000   1.0000
     1.0000   1.0000   1.0000   1.0000   1.0000   1.0000   1.0000   1.0000
     1.0000   1.0000   1.0000   1.0000   1.0000   1.0000   1.0000   1.0000
     1.0000   1.0000   1.0000   1.0000   1.0000   1.0000   1.0000   1.0000
     1.0000   1.0000   1.0000   1.0000   1.0000   1.0000   1.0000   1.0000
     1.0000   1.0000   1.0000   1.0000   1.0000   1.0000   1.0000   1.0000
     1.0000   1.0000   1.0000   1.0000   1.0000   1.0000   1.0000   1.0000
     1.0000   1.0000   1.0000   1.0000   1.0000   1.0000   1.0000   1.0000
     1.0000   1.0000   1.0000   1.0000   1.0000   1.0000   1.0000   1.0000
     1.0000   1.0000   1.0000   1.0000   1.0000   1.0000   1.0000   1.0000
     1.0000   1.0000   1.0000   1.0000   1.0000   1.0000   1.0000   1.0000
     1.0000   1.0000   1.0000   1.0000   1.0000   1.0000   1.0000   1.0000
     1.0000   1.0000   1.0000   1.0000   1.0000   1.0000   1.0000   1.0000
     1.0000   1.0000   1.0000   1.0000   1.0000   1.0000   1.0000   1.0000
     1.0000   1.0000   1.0000   1.0000   1.0000   1.0000   1.0000   1.0000
     1.0000   1.0000   1.0000   1.0000   1.0000   1.0000   1.0000   1.0000
     1.0000   1.0000   1.0000   1.0000   1.0000   1.0000   1.0000   1.0000
     1.0000   1.0000   1.0000   1.0000   1.0000   1.0000   1.0000   1.0000
     1.0000   1.0000   1.0000   1.0000   1.0000   1.0000   1.0000   1.0000
     1.0000   1.0000   1.0000   1.0000   1.0000   1.0000   1.0000   1.0000
     1.0000   1.0000   1.0000   1.0000   1.0000   1.0000   1.0000   1.0000
     1.0000   1.0000   1.0000   1.0000   1.0000   1.0000   1.0000   1.0000
     1.0000   1.0000   1.0000   1.0000   1.0000   1.0000   1.0000   1.0000
     1.0000   1.0000   1.0000   1.0000   1.0000   1.0000   1.0000   1.0000
     1.0000   1.0000   1.0000   1.0000   1.0000   1.0000   1.0000   1.0000
     1.0000   1.0000   1.0000   1.0000   1.0000   1.0000   1.0000   1.0000
     1.0000   1.0000   1.0000   1.0000   1.0000   1.0000   1.0000   1.0000
     1.0000   1.0000   1.0000   1.0000   1.0000   1.0000   1.0000   1.0000
     1.0000   1.0000   1.0000   1.0000   1.0000   1.0000   1.0000   1.0000
     1.0000   1.0000   1.0000   1.0000   1.0000   1.0000   1.0000   1.0000
     1.0000   1.0000   1.0000   1.0000   1.0000   1.0000   1.0000   1.0000
     1.0000   1.0000   1.0000   1.0000   1.0000   1.0000   1.0000   1.0000
     1.0000   1.0000   1.0000   1.0000   1.0000   1.0000   1.0000   1.0000
     1.0000   1.0000   1.0000   1.0000   1.0000   1.0000   1.0000   1.0000
     1.0000   1.0000   1.0000   1.0000   1.0000   1.0000   1.0000   1.0000
     1.0000   1.0000   1.0000   1.0000   1.0000   1.0000   1.0000   1.0000
     1.0000   1.0000   1.0000   1.0000   1.0000   1.0000   1.0000   1.0000
     1.0000   1.0000   1.0000   1.0000   1.0000   1.0000   1.0000   1.0000
     1.0000   1.0000   1.0000   1.0000   1.0000   1.0000   1.0000   1.0000
     1.0000   1.0000   1.0000   1.0000   1.0000   1.0000   1.0000   1.0000
     1.0000   1.0000   1.0000   1.0000   1.0000   1.0000   1.0000   1.0000
     1.0000   1.0000   1.0000   1.0000   1.0000   1.0000   1.0000   1.0000
     1.0000   1.0000   1.0000   1.0000   1.0000   1.0000   1.0000   1.0000
     1.0000   1.0000   1.0000   1.0000   1.0000   1.0000   1.0000   1.0000
     1.0000   1.0000   1.0000   1.0000   1.0000   1.0000   1.0000   1.0000
     1.0000   1.0000   1.0000   1.0000   1.0000   1.0000   1.0000   1.0000
     1.0000   1.0000   1.0000   1.0000   1.0000   1.0000   1.0000   1.0000
     1.0000   1.0000   1.0000   1.0000   1.0000   1.0000   1.0000   1.0000
     1.0000   1.0000   1.0000   1.0000   1.0000   1.0000   1.0000   1.0000
     1.0000   1.0000   1.0000   1.0000   1.0000   1.0000   1.0000   1.0000
     1.0000   1.0000   1.0000   1.0000   1.0000   1.0000   1.0000   1.0000
     1.0000   1.0000   1.0000   1.0000   1.0000   1.0000   1.0000   1.0000
     1.0000   1.0000   1.0000   1.0000   1.0000   1.0000   1.0000   1.0000
     1.0000   1.0000   1.0000   1.0000   1.0000   1.0000   1.0000   1.0000
     1.0000   1.0000   1.0000   1.0000   1.0000   1.0000   1.0000   1.0000
     1.0000   1.0000   1.0000   1.0000   1.0000   1.0000   1.0000   1.0000
     1.0000   1.0000   1.0000   1.0000   1.0000   1.0000   1.0000   1.0000
     1.0000   1.0000   1.0000   1.0000   1.0000   1.0000   1.0000   1.0000
     1.0000   1.0000   1.0000   1.0000   1.0000   1.0000   1.0000   1.0000
     1.0000   1.0000   1.0000   1.0000   1.0000   1.0000   1.0000   1.0000
     1.0000   1.0000   1.0000   1.0000   1.0000   1.0000   1.0000   1.0000
     1.0000   1.0000   1.0000   1.0000   1.0000   1.0000   1.0000   1.0000
     1.0000   1.0000   1.0000   1.0000   1.0000   1.0000   1.0000   1.0000
     1.0000   1.0000   1.0000   1.0000   1.0000   1.0000   1.0000   1.0000
     1.0000   1.0000   1.0000   1.0000   1.0000   1.0000   1.0000   1.0000
     1.0000   1.0000   1.0000   1.0000   1.0000   1.0000   1.0000   1.0000
     1.0000   1.0000   1.0000   1.0000   1.0000   1.0000   1.0000   1.0000
     1.0000   1.0000   1.0000   1.0000   1.0000   1.0000   1.0000   1.0000
     1.0000   1.0000   1.0000   1.0000   1.0000   1.0000   1.0000   1.0000
     1.0000   1.0000   1.0000   1.0000   1.0000   1.0000   1.0000   1.0000
     1.0000   1.0000   1.0000   1.0000   1.0000   1.0000   1.0000   1.0000
     1.0000   1.0000   1.0000   1.0000   1.0000   1.0000   1.0000   1.0000
     1.0000   1.0000   1.0000   1.0000   1.0000   1.0000   1.0000   1.0000
     1.0000   1.0000   1.0000   1.0000   1.0000   1.0000   1.0000   1.0000
     1.0000   1.0000   1.0000   1.0000   1.0000   1.0000   1.0000   1.0000
     1.0000   1.0000   1.0000   1.0000   1.0000   1.0000   1.0000   1.0000
     1.0000   1.0000   1.0000   1.0000   1.0000   1.0000   1.0000   1.0000
     1.0000   1.0000   1.0000   1.0000   1.0000   1.0000   1.0000   1.0000
     1.0000   1.0000   1.0000   1.0000   1.0000   1.0000   1.0000   1.0000
     1.0000   1.0000   1.0000   1.0000   1.0000   1.0000   1.0000   1.0000
     1.0000   1.0000   1.0000   1.0000   1.0000   1.0000   1.0000   1.0000
     1.0000   1.0000   1.0000   1.0000   1.0000   1.0000   1.0000   1.0000
     1.0000   1.0000   1.0000   1.0000   1.0000   1.0000   1.0000   1.0000
     1.0000   1.0000   1.0000   1.0000   1.0000   1.0000   1.0000   1.0000
     1.0000   1.0000   1.0000   1.0000   1.0000   1.0000   1.0000   1.0000
     1.0000   1.0000   1.0000   1.0000   1.0000   1.0000   1.0000   1.0000
     1.0000   1.0000   1.0000   1.0000   1.0000   1.0000   1.0000   1.0000
     1.0000   1.0000   1.0000   1.0000   1.0000   1.0000   1.0000   1.0000
     1.0000   1.0000   1.0000   1.0000   1.0000   1.0000   1.0000   1.0000
     1.0000   1.0000   1.0000   1.0000   1.0000   1.0000   1.0000   1.0000
     1.0000   1.0000   1.0000   1.0000   1.0000   1.0000   1.0000   1.0000
     1.0000   1.0000   1.0000   1.0000   1.0000   1.0000   1.0000   1.0000
     1.0000   1.0000   1.0000   1.0000   1.0000   1.0000   1.0000   1.0000
     1.0000   1.0000   1.0000   1.0000   1.0000   1.0000   1.0000   1.0000
     1.0000   1.0000   1.0000   1.0000   1.0000   1.0000   1.0000   1.0000
     1.0000   1.0000   1.0000   1.0000   1.0000   1.0000   1.0000   1.0000
     1.0000   1.0000   1.0000   1.0000   1.0000   1.0000   1.0000   1.0000
     1.0000   1.0000   1.0000   1.0000   1.0000   1.0000   1.0000   1.0000
     1.0000   1.0000   1.0000   1.0000   1.0000   1.0000   1.0000   1.0000
     1.0000   1.0000   1.0000   1.0000   1.0000   1.0000   1.0000   1.0000
     1.0000   1.0000   1.0000   1.0000   1.0000   0.0000   0.0000   0.0000
     0.0000   0.0000   0.0000   0.0000   0.0000   0.0000   0.0000   0.0000
     0.0000   0.0000   0.0000   0.0000   0.0000   0.0000   0.0000   0.0000
     0.0000   0.0000   0.0000   0.0000   0.0000   0.0000   0.0000   0.0000
     0.0000   0.0000   0.0000   0.0000   0.0000   0.0000   0.0000   0.0000
     0.0000   0.0000   0.0000   0.0000   0.0000   0.0000   0.0000   0.0000
     0.0000   0.0000   0.0000   0.0000   0.0000   0.0000   0.0000   0.0000
     0.0000   0.0000   0.0000   0.0000   0.0000   0.0000   0.0000   0.0000
     0.0000   0.0000   0.0000   0.0000   0.0000   0.0000   0.0000   0.0000
     0.0000   0.0000   0.0000   0.0000   0.0000   0.0000   0.0000   0.0000
     0.0000   0.0000   0.0000   0.0000   0.0000   0.0000   0.0000   0.0000
     0.0000   0.0000   0.0000   0.0000   0.0000   0.0000   0.0000   0.0000
     0.0000   0.0000   0.0000   0.0000   0.0000   0.0000   0.0000   0.0000
     0.0000   0.0000   0.0000   0.0000   0.0000   0.0000   0.0000   0.0000
     0.0000   0.0000   0.0000   0.0000   0.0000   0.0000   0.0000   0.0000
     0.0000   0.0000   0.0000   0.0000   0.0000   0.0000   0.0000   0.0000
     0.0000   0.0000   0.0000   0.0000   0.0000   0.0000   0.0000   0.0000
     0.0000   0.0000   0.0000   0.0000   0.0000   0.0000   0.0000   0.0000
     0.0000   0.0000   0.0000   0.0000   0.0000   0.0000   0.0000   0.0000
     0.0000   0.0000   0.0000   0.0000   0.0000   0.0000   0.0000   0.0000
     0.0000   0.0000   0.0000   0.0000   0.0000   0.0000   0.0000   0.0000
     0.0000   0.0000   0.0000   0.0000   0.0000   0.0000   0.0000   0.0000
     0.0000   0.0000   0.0000   0.0000   0.0000   0.0000   0.0000   0.0000
     0.0000   0.0000   0.0000   0.0000   0.0000   0.0000   0.0000   0.0000
     0.0000   0.0000   0.0000   0.0000   0.0000   0.0000   0.0000   0.0000
     0.0000   0.0000   0.0000   0.0000   0.0000   0.0000   0.0000   0.0000

 ------ SPIN DOWN ----------


          k = 0.0000 0.0000 0.0000 ( 52700 PWs)   bands (ev):

   -63.3993 -63.3966 -63.3966 -63.3966 -63.3952 -63.3952 -63.3734 -63.3724
   -63.3724 -63.3721 -63.3721 -63.3721 -63.3717 -63.3717 -63.3717 -63.3713
   -63.3712 -63.3695 -63.3677 -63.3677 -63.3677 -63.3676 -63.3676 -63.3669
   -63.3669 -63.3669 -63.3664 -63.3658 -63.3658 -63.3658 -63.3655 -63.3655
   -63.3655 -63.3650 -63.3650 -63.3647 -63.3647 -63.3647 -63.3646 -63.3646
   -63.3646 -63.3639 -63.3636 -63.3631 -63.3631 -63.3630 -63.3630 -63.3630
   -63.3629 -63.3629 -63.3629 -63.3626 -63.3626 -63.3626 -63.3625 -63.3625
   -63.3625 -63.3625 -63.3623 -63.3623 -63.3623 -63.3622 -63.3622 -63.3622
   -63.3621 -63.3620 -63.3620 -63.3618 -63.3618 -63.3618 -63.3617 -63.3617
   -63.3617 -63.3616 -63.3616 -63.3616 -63.3616 -63.3615 -63.3615 -63.3615
   -63.3615 -63.3615 -63.3614 -63.3614 -63.3609 -63.3609 -63.3609 -63.3608
   -63.3607 -63.3607 -63.3607 -63.3606 -63.3606 -63.3606 -63.3599 -63.3599
   -63.3599 -63.3599 -63.3599 -63.3594 -63.3594 -63.3594 -63.3594 -63.3594
   -63.3594 -63.3593 -63.3593 -63.3593 -30.2502 -30.2437 -30.2437 -30.2437
   -30.2429 -30.2429 -30.2429 -30.2361 -30.2361 -30.2361 -30.2334 -30.2334
   -30.2334 -30.2323 -30.2323 -30.2322 -30.2322 -30.2315 -30.2315 -30.2315
   -30.2313 -30.2313 -30.2313 -30.2312 -30.2310 -30.2310 -30.2310 -30.2271
   -30.2271 -30.2243 -30.2243 -30.2243 -30.2239 -30.2239 -30.2239 -30.2234
   -30.2224 -30.2224 -30.2224 -30.2222 -30.2222 -30.2222 -30.2207 -30.2207
   -30.2207 -30.2201 -30.2190 -30.2190 -30.2190 -30.2186 -30.2186 -30.2186
   -30.2178 -30.2170 -30.2170 -30.2170 -30.2167 -30.2167 -30.2167 -30.2165
   -30.2165 -30.2162 -30.2160 -30.2160 -30.2160 -30.2156 -30.2156 -30.2156
   -30.2153 -30.2153 -30.2153 -30.2128 -30.2128 -30.2126 -30.2126 -30.2126
   -30.2126 -30.2126 -30.2126 -30.2122 -30.2121 -30.2121 -30.2121 -30.2115
   -30.2113 -30.2113 -30.2112 -30.2112 -30.2112 -30.2095 -30.2095 -30.2095
   -30.2092 -30.2092 -30.2092 -30.2068 -30.2068 -30.2068 -30.2068 -30.2067
   -30.2067 -30.2029 -30.2029 -30.2029 -30.2003 -30.2003 -30.1994 -30.1994
   -30.1994 -30.1981 -30.1979 -30.1979 -30.1979 -30.1974 -30.1974 -30.1974
   -30.1966 -30.1966 -30.1966 -30.1963 -30.1963 -30.1963 -30.1942 -30.1942
   -30.1942 -30.1934 -30.1934 -30.1914 -30.1914 -30.1914 -30.1903 -30.1903
   -30.1903 -30.1896 -30.1896 -30.1896 -30.1869 -30.1869 -30.1869 -30.1869
   -30.1867 -30.1867 -30.1862 -30.1861 -30.1861 -30.1861 -30.1855 -30.1855
   -30.1855 -30.1855 -30.1855 -30.1855 -30.1849 -30.1849 -30.1849 -30.1842
   -30.1840 -30.1840 -30.1829 -30.1829 -30.1827 -30.1826 -30.1826 -30.1820
   -30.1820 -30.1820 -30.1815 -30.1815 -30.1814 -30.1805 -30.1805 -30.1805
   -30.1801 -30.1801 -30.1801 -30.1772 -30.1772 -30.1772 -30.1771 -30.1771
   -30.1771 -30.1768 -30.1768 -30.1768 -30.1752 -30.1752 -30.1752 -30.1747
   -30.1747 -30.1747 -30.1745 -30.1745 -30.1745 -30.1745 -30.1742 -30.1742
   -30.1742 -30.1740 -30.1740 -30.1740 -30.1739 -30.1737 -30.1733 -30.1733
   -30.1729 -30.1729 -30.1729 -30.1729 -30.1729 -30.1725 -30.1725 -30.1725
   -30.1724 -30.1724 -30.1724 -30.1715 -30.1715 -30.1712 -30.1708 -30.1708
   -30.1708 -30.1708 -30.1708 -30.1708 -30.1698 -30.1698 -30.1698 -30.1693
   -30.1693 -30.1693 -30.1693 -30.1693 -30.1693 -30.1692 -30.1692 -30.1692
   -30.1690 -30.1690 -30.1690 -30.1686 -30.1686 -30.1686 -30.1686 -30.1686
   -30.1686 -30.1686 -30.1686 -30.1685 -30.1685 -30.1685 -30.1685 -30.1684
   -30.1684 -30.1681 -30.1681 -30.1681 -30.1678 -30.1673 -30.1673 -30.1673
   -30.1671 -30.1671 -30.1671 -30.1668 -30.1668 -30.1661 -30.1661 -30.1661
   -30.1660 -30.1660 -30.1660 -30.1660 -30.1660 -30.1658 -30.1658 -30.1658
   -30.1658 -30.1652 -30.1652 -30.1652 -30.1650 -30.1623 -30.1623 -30.1623
   -30.1604 -30.1604 -30.1604 -30.1602 -30.1602 -30.1598 -30.1598 -30.1598
   -30.1596 -30.1596 -30.1596 -30.1594 -30.1594 -30.1594 -30.1590 -30.1590
   -30.1590 -30.1584 -30.1584 -30.1584 -30.1584 -30.1584 -30.1582 -30.1582
   -30.1582 -30.1555 -30.1555 -30.1554 -30.1554 -30.1554 -30.1547 -30.1547
   -30.1547 -30.1546 -30.1546 -30.1546 -30.1545 -30.1519 -30.1519 -30.1519
    -8.3815  -8.0064  -8.0064  -8.0037  -8.0037  -8.0037  -7.9657  -7.6816
    -7.6816  -7.6797  -7.6797  -7.6797  -7.6791  -7.6791  -7.6791  -7.6763
    -7.6763  -7.6763  -7.6089  -7.4254  -7.4254  -7.4254  -7.4250  -7.4250
    -7.4250  -7.4185  -7.3838  -7.2188  -7.2188  -7.2122  -7.2122  -7.2122
    -7.1935  -7.0593  -7.0593  -7.0588  -7.0588  -7.0588  -7.0574  -7.0574
    -7.0567  -7.0566  -7.0566  -7.0566  -7.0542  -7.0542  -7.0542  -7.0534
    -7.0534  -7.0534  -7.0514  -7.0514  -7.0514  -7.0489  -7.0489  -7.0489
    -7.0238  -6.9968  -6.9968  -6.9968  -6.9964  -6.9964  -6.9964  -6.9945
    -6.9945  -6.9945  -6.9934  -6.9934  -6.9898  -6.9898  -6.9898  -6.9886
    -6.9886  -6.9886  -6.9872  -6.9868  -6.9868  -6.9868  -6.9856  -6.9856
    -6.8812  -6.8317  -6.8317  -6.8281  -6.8281  -6.8281  -6.8262  -6.8262
    -6.8262  -6.8229  -6.8229  -6.8229  -6.8202  -6.8161  -6.8161  -6.7845
    -6.7708  -6.7708  -6.7658  -6.7658  -6.7658  -6.7651  -6.7647  -6.7647
    -6.7639  -6.7639  -6.7639   4.6731   4.7115   4.7115   4.7139   4.7139
     4.7139   4.7172   4.7172   4.7172   4.7175   4.7175   4.7175   4.7182
     4.7182   4.7182   4.7193   4.7193   4.7203   4.7203   4.7203   4.7212
     4.7809   4.7809   4.7809   4.8479   4.8479   4.8479   5.0397   5.2234
     5.2234   5.2234   5.2251   5.2348   5.2348   5.2348   5.2740   5.3358
     5.3358   5.3358   5.3370   5.3370   5.3370   5.3401   5.3401   5.3401
     5.3431   5.3431   5.3431   5.3516   5.3520   5.3520   5.3527   5.3527
     5.3527   5.3530   5.3530   5.3530   5.3533   5.3533   5.3549   5.3549
     5.3549   5.3551   5.3551   5.3551   5.3573   5.3573   5.3573   5.4358
     5.4358   5.4358   5.4427   5.4621   5.4621   5.5376   5.5376   5.5376
     5.6635   5.6680   5.6680   5.6680   5.6715   5.6715   5.6728   5.6728
     5.6728   5.7378   5.7378   5.7378   5.8310   5.8310   5.8310   5.8330
     5.8330   5.8332   5.8332   5.8332   5.8377   5.9713   5.9713   5.9713
     6.1290   6.2788   6.2788   6.2810   6.2810   6.2810   6.2817   6.2817
     6.2817   6.3536   6.3536   6.3536   6.6599   6.6599   6.6599   6.6631
     6.6631   6.6631   6.6715   6.6715   6.6715   6.7248   6.7248   6.7248
     7.0522   7.0522   7.0522   7.0525   7.0525   7.0525   7.0532   7.0532
     7.0537   7.0537   7.0537   7.0539   7.0539   7.0539   7.0584   7.0618
     7.0618   7.0626   7.0626   7.0626   7.0661   7.1264   7.1264   7.1264
     7.2229   7.2306   7.2384   7.2384   7.2389   7.2389   7.2389   7.2439
     7.2465   7.2465   7.2811   7.2811   7.2811   7.3334   7.3334   7.3560
     7.3560   7.3560   7.4445   7.4691   7.4691   7.4691   7.4699   7.4699
     7.4711   7.4711   7.4711   7.4723   7.4723   7.4723   7.4726   7.4726
     7.4755   7.4760   7.4760   7.4760   7.4772   7.4772   7.4772   7.5359
     7.5359   7.5359   7.5608   7.5608   7.5608   7.6342   7.6342   7.6342
     7.8592   7.8592   7.8592   7.8597   7.8597   7.8597   7.8627   7.8627
     7.8627   7.8684   7.8684   7.8684   7.8863   7.8921   7.8921   7.8921
     7.8941   7.8941   7.8941   7.8942   7.8945   7.8945   7.8981   7.8981
     7.8981   7.8985   7.8985   7.8985   7.9017   7.9017   7.9036   7.9036
     7.9036   7.9101   7.9101   7.9101   7.9103   7.9125   7.9125   7.9140
     7.9140   7.9140   7.9149   7.9149   7.9149   7.9509   7.9509   7.9509
     7.9723   7.9723   7.9723   7.9770   7.9770   7.9790   7.9790   7.9790
     7.9860   8.0307   8.0307   8.0307   8.0672   8.0708   8.0708   8.0709
     8.0709   8.0709   8.0719   8.0719   8.0721   8.0721   8.0721   8.0758
     8.0758   8.0758   8.0761   8.0761   8.0761   8.0764   8.0764   8.0764
     8.0789   8.3346   8.3346   8.3346   8.4155   8.4155   8.4168   8.4168
     8.4168   8.4220   8.4220   8.4220   8.4222   8.4222   8.4236   8.4236
     8.4236   8.4902   8.4902   8.4902   8.5326   8.5326   8.5326   8.5339
     8.5339   8.5339   8.5381   8.5381   8.5381   8.5826   8.5826   8.5826
     8.6033   8.6033   8.6035   8.6035   8.6035   8.6036   8.6053   8.6053
     8.6053   8.9180   8.9180   8.9180  11.4539  13.9844  15.3923  15.3923
    15.3923  15.7529  15.7529  15.9613  16.1099  16.1099  16.1099  16.7613
    16.7624  16.7624  16.7624  16.7682  16.7682  16.7682  16.7791  16.8022
    16.8022  16.8048  16.8048  16.8048  16.8057  16.8057  16.8057  17.2572
    17.2573  17.2573  17.4070  18.0624  18.0624  18.0624  18.0645  18.0645
    18.0645  18.0647  18.0647  18.0682  18.0682  18.0682  18.0700  18.0705
    18.0705  18.0705  18.0723  18.0723  18.0754  18.0754  18.0754  18.1501
    18.1501  18.1501  18.2162  18.2162  18.2162  18.3434  18.4366  18.4366
    18.5442  18.5442  18.5442  18.7501  19.0609  19.0609  19.0672  19.0771
    19.0771  19.0771  19.1148  19.1148  19.1255  19.1255  19.1255  19.1261
    19.1261  19.1261  19.1265  19.1269  19.1269  19.1269  19.1287  19.1287
    19.1287  19.1332  19.1332  19.1343  19.1343  19.1343  19.1473  19.1568
    19.1568  19.3114  19.3114  19.3114  19.3386  19.3691  19.3691  19.3691
    19.3865  19.3865  19.3865  19.3897  19.3897  19.4986  19.4986  19.4986
    19.6025  19.6025  19.6025  19.6038  19.6038  19.6038  19.6150  19.6150
    19.6150  19.8108  19.8108  19.8108  20.1125  20.1224  20.1224  20.1257
    20.1257  20.1257  20.1274  20.1317  20.1317  20.1317  20.1333  20.1333
    20.1333  20.1339  20.1339  20.1339  20.1371  20.1371  20.1706  20.1706
    20.1706  20.3804  20.3804  20.3804  20.5148  20.6074  20.6074  20.6094
    20.6094  20.6095  20.6147  20.6233  20.6233  20.6859  20.6859  20.6859
    21.2552  21.2785  21.2785  21.2785  21.2803  21.2803  21.2867  21.2867
    21.2867  21.2903  21.2903  21.2903  21.2944  21.2944  21.2944  21.3016
    21.3080  21.3080  21.3102  21.3102  21.3102  21.3160  21.3160  21.3160
    21.3209  21.3228  21.3308  21.3308  21.3311  21.3311  21.3311  21.3361
    21.3361  21.3382  21.3382  21.3382  21.3383  21.3383  21.3383  21.3393
    21.3393  21.3393  21.3501  21.3501  21.3501  21.4196  21.4196  21.4196

     occupation numbers 
     1.0000   1.0000   1.0000   1.0000   1.0000   1.0000   1.0000   1.0000
     1.0000   1.0000   1.0000   1.0000   1.0000   1.0000   1.0000   1.0000
     1.0000   1.0000   1.0000   1.0000   1.0000   1.0000   1.0000   1.0000
     1.0000   1.0000   1.0000   1.0000   1.0000   1.0000   1.0000   1.0000
     1.0000   1.0000   1.0000   1.0000   1.0000   1.0000   1.0000   1.0000
     1.0000   1.0000   1.0000   1.0000   1.0000   1.0000   1.0000   1.0000
     1.0000   1.0000   1.0000   1.0000   1.0000   1.0000   1.0000   1.0000
     1.0000   1.0000   1.0000   1.0000   1.0000   1.0000   1.0000   1.0000
     1.0000   1.0000   1.0000   1.0000   1.0000   1.0000   1.0000   1.0000
     1.0000   1.0000   1.0000   1.0000   1.0000   1.0000   1.0000   1.0000
     1.0000   1.0000   1.0000   1.0000   1.0000   1.0000   1.0000   1.0000
     1.0000   1.0000   1.0000   1.0000   1.0000   1.0000   1.0000   1.0000
     1.0000   1.0000   1.0000   1.0000   1.0000   1.0000   1.0000   1.0000
     1.0000   1.0000   1.0000   1.0000   1.0000   1.0000   1.0000   1.0000
     1.0000   1.0000   1.0000   1.0000   1.0000   1.0000   1.0000   1.0000
     1.0000   1.0000   1.0000   1.0000   1.0000   1.0000   1.0000   1.0000
     1.0000   1.0000   1.0000   1.0000   1.0000   1.0000   1.0000   1.0000
     1.0000   1.0000   1.0000   1.0000   1.0000   1.0000   1.0000   1.0000
     1.0000   1.0000   1.0000   1.0000   1.0000   1.0000   1.0000   1.0000
     1.0000   1.0000   1.0000   1.0000   1.0000   1.0000   1.0000   1.0000
     1.0000   1.0000   1.0000   1.0000   1.0000   1.0000   1.0000   1.0000
     1.0000   1.0000   1.0000   1.0000   1.0000   1.0000   1.0000   1.0000
     1.0000   1.0000   1.0000   1.0000   1.0000   1.0000   1.0000   1.0000
     1.0000   1.0000   1.0000   1.0000   1.0000   1.0000   1.0000   1.0000
     1.0000   1.0000   1.0000   1.0000   1.0000   1.0000   1.0000   1.0000
     1.0000   1.0000   1.0000   1.0000   1.0000   1.0000   1.0000   1.0000
     1.0000   1.0000   1.0000   1.0000   1.0000   1.0000   1.0000   1.0000
     1.0000   1.0000   1.0000   1.0000   1.0000   1.0000   1.0000   1.0000
     1.0000   1.0000   1.0000   1.0000   1.0000   1.0000   1.0000   1.0000
     1.0000   1.0000   1.0000   1.0000   1.0000   1.0000   1.0000   1.0000
     1.0000   1.0000   1.0000   1.0000   1.0000   1.0000   1.0000   1.0000
     1.0000   1.0000   1.0000   1.0000   1.0000   1.0000   1.0000   1.0000
     1.0000   1.0000   1.0000   1.0000   1.0000   1.0000   1.0000   1.0000
     1.0000   1.0000   1.0000   1.0000   1.0000   1.0000   1.0000   1.0000
     1.0000   1.0000   1.0000   1.0000   1.0000   1.0000   1.0000   1.0000
     1.0000   1.0000   1.0000   1.0000   1.0000   1.0000   1.0000   1.0000
     1.0000   1.0000   1.0000   1.0000   1.0000   1.0000   1.0000   1.0000
     1.0000   1.0000   1.0000   1.0000   1.0000   1.0000   1.0000   1.0000
     1.0000   1.0000   1.0000   1.0000   1.0000   1.0000   1.0000   1.0000
     1.0000   1.0000   1.0000   1.0000   1.0000   1.0000   1.0000   1.0000
     1.0000   1.0000   1.0000   1.0000   1.0000   1.0000   1.0000   1.0000
     1.0000   1.0000   1.0000   1.0000   1.0000   1.0000   1.0000   1.0000
     1.0000   1.0000   1.0000   1.0000   1.0000   1.0000   1.0000   1.0000
     1.0000   1.0000   1.0000   1.0000   1.0000   1.0000   1.0000   1.0000
     1.0000   1.0000   1.0000   1.0000   1.0000   1.0000   1.0000   1.0000
     1.0000   1.0000   1.0000   1.0000   1.0000   1.0000   1.0000   1.0000
     1.0000   1.0000   1.0000   1.0000   1.0000   1.0000   1.0000   1.0000
     1.0000   1.0000   1.0000   1.0000   1.0000   1.0000   1.0000   1.0000
     1.0000   1.0000   1.0000   1.0000   1.0000   1.0000   1.0000   1.0000
     1.0000   1.0000   1.0000   1.0000   1.0000   1.0000   1.0000   1.0000
     1.0000   1.0000   1.0000   1.0000   1.0000   1.0000   1.0000   1.0000
     1.0000   1.0000   1.0000   1.0000   1.0000   1.0000   1.0000   1.0000
     1.0000   1.0000   1.0000   1.0000   1.0000   1.0000   1.0000   1.0000
     1.0000   1.0000   1.0000   1.0000   1.0000   1.0000   1.0000   1.0000
     1.0000   1.0000   1.0000   1.0000   1.0000   1.0000   1.0000   1.0000
     1.0000   1.0000   1.0000   1.0000   1.0000   1.0000   1.0000   1.0000
     1.0000   1.0000   1.0000   1.0000   1.0000   1.0000   1.0000   1.0000
     1.0000   1.0000   1.0000   1.0000   1.0000   1.0000   1.0000   1.0000
     1.0000   1.0000   1.0000   1.0000   1.0000   1.0000   1.0000   1.0000
     1.0000   1.0000   1.0000   1.0000   1.0000   1.0000   1.0000   1.0000
     1.0000   1.0000   1.0000   1.0000   1.0000   1.0000   1.0000   1.0000
     1.0000   1.0000   1.0000   1.0000   1.0000   1.0000   1.0000   1.0000
     1.0000   1.0000   1.0000   1.0000   1.0000   1.0000   1.0000   1.0000
     1.0000   1.0000   1.0000   1.0000   1.0000   1.0000   1.0000   1.0000
     1.0000   1.0000   1.0000   1.0000   1.0000   1.0000   1.0000   1.0000
     1.0000   1.0000   1.0000   1.0000   1.0000   1.0000   1.0000   1.0000
     1.0000   1.0000   1.0000   1.0000   1.0000   1.0000   1.0000   1.0000
     1.0000   1.0000   1.0000   1.0000   1.0000   1.0000   1.0000   1.0000
     1.0000   1.0000   1.0000   1.0000   1.0000   1.0000   1.0000   1.0000
     1.0000   1.0000   1.0000   1.0000   1.0000   1.0000   1.0000   1.0000
     1.0000   1.0000   1.0000   1.0000   1.0000   1.0000   1.0000   1.0000
     1.0000   1.0000   1.0000   1.0000   1.0000   1.0000   1.0000   1.0000
     1.0000   1.0000   1.0000   1.0000   1.0000   1.0000   1.0000   1.0000
     1.0000   1.0000   1.0000   1.0000   1.0000   1.0000   1.0000   1.0000
     1.0000   1.0000   1.0000   1.0000   1.0000   1.0000   1.0000   1.0000
     1.0000   1.0000   1.0000   1.0000   1.0000   1.0000   1.0000   1.0000
     1.0000   1.0000   1.0000   1.0000   1.0000   1.0000   1.0000   1.0000
     1.0000   1.0000   1.0000   1.0000   1.0000   1.0000   1.0000   1.0000
     1.0000   1.0000   1.0000   1.0000   1.0000   1.0000   1.0000   1.0000
     1.0000   1.0000   1.0000   1.0000   1.0000   1.0000   1.0000   1.0000
     1.0000   1.0000   1.0000   1.0000   1.0000   1.0000   1.0000   1.0000
     1.0000   1.0000   1.0000   1.0000   1.0000   1.0000   1.0000   1.0000
     1.0000   1.0000   1.0000   1.0000   1.0000   1.0000   1.0000   1.0000
     1.0000   1.0000   1.0000   1.0000   1.0000   1.0000   1.0000   1.0000
     1.0000   1.0000   1.0000   1.0000   1.0000   1.0000   1.0000   1.0000
     1.0000   1.0000   1.0000   1.0000   1.0000   1.0000   1.0000   1.0000
     1.0000   1.0000   1.0000   1.0000   1.0000   1.0000   1.0000   1.0000
     1.0000   1.0000   1.0000   1.0000   1.0000   1.0000   1.0000   1.0000
     1.0000   1.0000   1.0000   1.0000   1.0000   1.0000   1.0000   1.0000
     1.0000   1.0000   1.0000   1.0000   1.0000   1.0000   1.0000   1.0000
     1.0000   1.0000   1.0000   1.0000   1.0000   1.0000   1.0000   1.0000
     1.0000   1.0000   1.0000   1.0000   1.0000   1.0000   1.0000   1.0000
     1.0000   1.0000   1.0000   1.0000   1.0000   1.0000   1.0000   1.0000
     1.0000   1.0000   1.0000   1.0000   1.0000   1.0000   1.0000   1.0000
     1.0000   1.0000   1.0000   1.0000   1.0000   1.0000   1.0000   1.0000
     1.0000   1.0000   1.0000   1.0000   1.0000   1.0000   1.0000   1.0000
     1.0000   1.0000   1.0000   1.0000   1.0000   1.0000   1.0000   1.0000
     1.0000   1.0000   1.0000   1.0000   1.0000   1.0000   1.0000   1.0000
     1.0000   1.0000   1.0000   1.0000   1.0000   1.0000   1.0000   1.0000
     1.0000   1.0000   1.0000   1.0000   1.0000   1.0000   1.0000   1.0000
     1.0000   1.0000   1.0000   1.0000   1.0000   1.0000   1.0000   1.0000
     1.0000   1.0000   1.0000   1.0000   1.0000   1.0000   1.0000   1.0000
     1.0000   1.0000   1.0000   1.0000   1.0000   1.0000   1.0000   1.0000
     1.0000   1.0000   1.0000   1.0000   1.0000   1.0000   1.0000   1.0000
     1.0000   1.0000   1.0000   1.0000   1.0000   1.0000   1.0000   1.0000
     1.0000   1.0000   1.0000   1.0000   1.0000   1.0000   1.0000   1.0000
     1.0000   1.0000   1.0000   1.0000   1.0000   1.0000   1.0000   1.0000
     1.0000   1.0000   1.0000   1.0000   1.0000   0.0000   0.0000   0.0000
     0.0000   0.0000   0.0000   0.0000   0.0000   0.0000   0.0000   0.0000
     0.0000   0.0000   0.0000   0.0000   0.0000   0.0000   0.0000   0.0000
     0.0000   0.0000   0.0000   0.0000   0.0000   0.0000   0.0000   0.0000
     0.0000   0.0000   0.0000   0.0000   0.0000   0.0000   0.0000   0.0000
     0.0000   0.0000   0.0000   0.0000   0.0000   0.0000   0.0000   0.0000
     0.0000   0.0000   0.0000   0.0000   0.0000   0.0000   0.0000   0.0000
     0.0000   0.0000   0.0000   0.0000   0.0000   0.0000   0.0000   0.0000
     0.0000   0.0000   0.0000   0.0000   0.0000   0.0000   0.0000   0.0000
     0.0000   0.0000   0.0000   0.0000   0.0000   0.0000   0.0000   0.0000
     0.0000   0.0000   0.0000   0.0000   0.0000   0.0000   0.0000   0.0000
     0.0000   0.0000   0.0000   0.0000   0.0000   0.0000   0.0000   0.0000
     0.0000   0.0000   0.0000   0.0000   0.0000   0.0000   0.0000   0.0000
     0.0000   0.0000   0.0000   0.0000   0.0000   0.0000   0.0000   0.0000
     0.0000   0.0000   0.0000   0.0000   0.0000   0.0000   0.0000   0.0000
     0.0000   0.0000   0.0000   0.0000   0.0000   0.0000   0.0000   0.0000
     0.0000   0.0000   0.0000   0.0000   0.0000   0.0000   0.0000   0.0000
     0.0000   0.0000   0.0000   0.0000   0.0000   0.0000   0.0000   0.0000
     0.0000   0.0000   0.0000   0.0000   0.0000   0.0000   0.0000   0.0000
     0.0000   0.0000   0.0000   0.0000   0.0000   0.0000   0.0000   0.0000
     0.0000   0.0000   0.0000   0.0000   0.0000   0.0000   0.0000   0.0000
     0.0000   0.0000   0.0000   0.0000   0.0000   0.0000   0.0000   0.0000
     0.0000   0.0000   0.0000   0.0000   0.0000   0.0000   0.0000   0.0000
     0.0000   0.0000   0.0000   0.0000   0.0000   0.0000   0.0000   0.0000
     0.0000   0.0000   0.0000   0.0000   0.0000   0.0000   0.0000   0.0000
     0.0000   0.0000   0.0000   0.0000   0.0000   0.0000   0.0000   0.0000

     highest occupied, lowest unoccupied level (ev):    11.4539   13.9844

!    total energy              =  -15177.57915567 Ry
     Harris-Foulkes estimate   =  -15177.57915566 Ry
     estimated scf accuracy    <          9.2E-09 Ry

     total magnetization       =    -0.00 Bohr mag/cell
     absolute magnetization    =     0.00 Bohr mag/cell

     convergence has been achieved in  10 iterations
 
     Parallelization info
     --------------------
     sticks:   dense  smooth     PW     G-vecs:    dense   smooth      PW
     Min          63      63     15                 5004     5004     616
     Max          66      66     20                 5020     5020     636
     Sum       10773   10773   2709               842161   842161  105399
 

     EXX: now go back to refine exchange calculation

     total cpu time spent up to now is      516.4 secs

     per-process dynamical memory:   266.1 Mb

     Self-consistent Calculation

     iteration #  1     ecut=    60.00 Ry     beta=0.30
     Davidson diagonalization with overlap
     WARNING:    21 eigenvalues not converged
     WARNING:     7 eigenvalues not converged
     WARNING:     2 eigenvalues not converged
     c_bands:  2 eigenvalues not converged
     WARNING:    21 eigenvalues not converged
     WARNING:     7 eigenvalues not converged
     WARNING:     3 eigenvalues not converged
     c_bands:  3 eigenvalues not converged
     ethr =  2.89E-11,  avg # of iterations = 60.0

     total cpu time spent up to now is     6495.7 secs

     total energy              =  -15183.27498472 Ry
     Harris-Foulkes estimate   =  -15183.29773616 Ry
     estimated scf accuracy    <       0.07350101 Ry

     total magnetization       =     0.00 Bohr mag/cell
     absolute magnetization    =     0.00 Bohr mag/cell

     iteration #  2     ecut=    60.00 Ry     beta=0.30
     Davidson diagonalization with overlap
     ethr =  4.27E-06,  avg # of iterations =  6.0

     total cpu time spent up to now is     7492.3 secs

     total energy              =  -15183.26767078 Ry
     Harris-Foulkes estimate   =  -15183.27777891 Ry
     estimated scf accuracy    <       0.02459004 Ry

     total magnetization       =    -0.00 Bohr mag/cell
     absolute magnetization    =     0.00 Bohr mag/cell

     iteration #  3     ecut=    60.00 Ry     beta=0.30
     Davidson diagonalization with overlap
     ethr =  1.43E-06,  avg # of iterations =  9.0

     total cpu time spent up to now is     8544.0 secs

     total energy              =  -15183.26695790 Ry
     Harris-Foulkes estimate   =  -15183.26879528 Ry
     estimated scf accuracy    <       0.00388410 Ry

     total magnetization       =     0.00 Bohr mag/cell
     absolute magnetization    =     0.00 Bohr mag/cell

     iteration #  4     ecut=    60.00 Ry     beta=0.30
     Davidson diagonalization with overlap
     ethr =  2.26E-07,  avg # of iterations =  2.0

     total cpu time spent up to now is     9736.4 secs

     total energy              =  -15183.26720759 Ry
     Harris-Foulkes estimate   =  -15183.26724172 Ry
     estimated scf accuracy    <       0.00005004 Ry

     total magnetization       =    -0.00 Bohr mag/cell
     absolute magnetization    =     0.00 Bohr mag/cell

     iteration #  5     ecut=    60.00 Ry     beta=0.30
     Davidson diagonalization with overlap
     ethr =  2.91E-09,  avg # of iterations =  8.5

     total cpu time spent up to now is    11055.9 secs

     total energy              =  -15183.26721946 Ry
     Harris-Foulkes estimate   =  -15183.26722616 Ry
     estimated scf accuracy    <       0.00001322 Ry

     total magnetization       =     0.00 Bohr mag/cell
     absolute magnetization    =     0.00 Bohr mag/cell

     iteration #  6     ecut=    60.00 Ry     beta=0.30
     Davidson diagonalization with overlap
     ethr =  7.68E-10,  avg # of iterations =  9.5

     total cpu time spent up to now is    12342.2 secs

     total energy              =  -15183.26722254 Ry
     Harris-Foulkes estimate   =  -15183.26722277 Ry
     estimated scf accuracy    <       0.00000063 Ry

     total magnetization       =     0.00 Bohr mag/cell
     absolute magnetization    =     0.00 Bohr mag/cell

     iteration #  7     ecut=    60.00 Ry     beta=0.30
     Davidson diagonalization with overlap
     ethr =  3.64E-11,  avg # of iterations =  5.0

     total cpu time spent up to now is    13348.2 secs

     total energy              =  -15183.26722250 Ry
     Harris-Foulkes estimate   =  -15183.26722257 Ry
     estimated scf accuracy    <       0.00000016 Ry

     total magnetization       =    -0.00 Bohr mag/cell
     absolute magnetization    =     0.00 Bohr mag/cell

     iteration #  8     ecut=    60.00 Ry     beta=0.30
     Davidson diagonalization with overlap
     ethr =  9.27E-12,  avg # of iterations =  7.0
 
     Magnetic moment per site:
     atom:    1    charge:    8.1514    magn:   -0.0000    constr:    0.0000
     atom:    2    charge:    8.1514    magn:   -0.0000    constr:    0.0000
     atom:    3    charge:    8.1514    magn:   -0.0000    constr:    0.0000
     atom:    4    charge:    8.1514    magn:   -0.0000    constr:    0.0000
     atom:    5    charge:    8.1515    magn:   -0.0000    constr:    0.0000
     atom:    6    charge:    8.1515    magn:   -0.0000    constr:    0.0000
     atom:    7    charge:    8.1514    magn:   -0.0000    constr:    0.0000
     atom:    8    charge:    8.1515    magn:   -0.0000    constr:    0.0000
     atom:    9    charge:    8.1515    magn:   -0.0000    constr:    0.0000
     atom:   10    charge:    8.1514    magn:   -0.0000    constr:    0.0000
     atom:   11    charge:    8.1515    magn:   -0.0000    constr:    0.0000
     atom:   12    charge:    8.1515    magn:   -0.0000    constr:    0.0000
     atom:   13    charge:    8.1515    magn:   -0.0000    constr:    0.0000
     atom:   14    charge:    8.1505    magn:   -0.0000    constr:    0.0000
     atom:   15    charge:    8.1505    magn:   -0.0000    constr:    0.0000
     atom:   16    charge:    8.1515    magn:   -0.0000    constr:    0.0000
     atom:   17    charge:    8.1505    magn:   -0.0000    constr:    0.0000
     atom:   18    charge:    8.1505    magn:   -0.0000    constr:    0.0000
     atom:   19    charge:    8.1514    magn:   -0.0000    constr:    0.0000
     atom:   20    charge:    8.1515    magn:   -0.0000    constr:    0.0000
     atom:   21    charge:    8.1515    magn:   -0.0000    constr:    0.0000
     atom:   22    charge:    8.1515    magn:   -0.0000    constr:    0.0000
     atom:   23    charge:    8.1505    magn:   -0.0000    constr:    0.0000
     atom:   24    charge:    8.1505    magn:   -0.0000    constr:    0.0000
     atom:   25    charge:    8.1515    magn:   -0.0000    constr:    0.0000
     atom:   26    charge:    8.1505    magn:   -0.0000    constr:    0.0000
     atom:   27    charge:    8.1505    magn:   -0.0000    constr:    0.0000
     atom:   28    charge:    8.1514    magn:   -0.0000    constr:    0.0000
     atom:   29    charge:    8.1516    magn:   -0.0000    constr:    0.0000
     atom:   30    charge:    8.1514    magn:   -0.0000    constr:    0.0000
     atom:   31    charge:    8.1516    magn:   -0.0000    constr:    0.0000
     atom:   32    charge:    8.1513    magn:   -0.0000    constr:    0.0000
     atom:   33    charge:    8.1516    magn:   -0.0000    constr:    0.0000
     atom:   34    charge:    8.1514    magn:   -0.0000    constr:    0.0000
     atom:   35    charge:    8.1516    magn:   -0.0000    constr:    0.0000
     atom:   36    charge:    8.1514    magn:   -0.0000    constr:    0.0000
     atom:   37    charge:    8.1514    magn:   -0.0000    constr:    0.0000
     atom:   38    charge:    8.1518    magn:   -0.0000    constr:    0.0000
     atom:   39    charge:    8.1514    magn:   -0.0000    constr:    0.0000
     atom:   40    charge:    8.1518    magn:   -0.0000    constr:    0.0000
     atom:   41    charge:    8.1452    magn:   -0.0000    constr:    0.0000
     atom:   42    charge:    8.1518    magn:   -0.0000    constr:    0.0000
     atom:   43    charge:    8.1514    magn:   -0.0000    constr:    0.0000
     atom:   44    charge:    8.1518    magn:   -0.0000    constr:    0.0000
     atom:   45    charge:    8.1514    magn:   -0.0000    constr:    0.0000
     atom:   46    charge:    8.1514    magn:   -0.0000    constr:    0.0000
     atom:   47    charge:    8.1518    magn:   -0.0000    constr:    0.0000
     atom:   48    charge:    8.1514    magn:   -0.0000    constr:    0.0000
     atom:   49    charge:    8.1518    magn:   -0.0000    constr:    0.0000
     atom:   50    charge:    8.1452    magn:   -0.0000    constr:    0.0000
     atom:   51    charge:    8.1518    magn:   -0.0000    constr:    0.0000
     atom:   52    charge:    8.1514    magn:   -0.0000    constr:    0.0000
     atom:   53    charge:    8.1518    magn:   -0.0000    constr:    0.0000
     atom:   54    charge:    8.1514    magn:   -0.0000    constr:    0.0000
     atom:   55    charge:    8.1514    magn:   -0.0000    constr:    0.0000
     atom:   56    charge:    8.1516    magn:   -0.0000    constr:    0.0000
     atom:   57    charge:    8.1514    magn:   -0.0000    constr:    0.0000
     atom:   58    charge:    8.1514    magn:   -0.0000    constr:    0.0000
     atom:   59    charge:    8.1518    magn:   -0.0000    constr:    0.0000
     atom:   60    charge:    8.1514    magn:   -0.0000    constr:    0.0000
     atom:   61    charge:    8.1514    magn:   -0.0000    constr:    0.0000
     atom:   62    charge:    8.1518    magn:   -0.0000    constr:    0.0000
     atom:   63    charge:    8.1514    magn:   -0.0000    constr:    0.0000
     atom:   64    charge:    8.1516    magn:   -0.0000    constr:    0.0000
     atom:   65    charge:    8.1513    magn:   -0.0000    constr:    0.0000
     atom:   66    charge:    8.1516    magn:   -0.0000    constr:    0.0000
     atom:   67    charge:    8.1518    magn:   -0.0000    constr:    0.0000
     atom:   68    charge:    8.1452    magn:   -0.0000    constr:    0.0000
     atom:   69    charge:    8.1518    magn:   -0.0000    constr:    0.0000
     atom:   70    charge:    8.1518    magn:   -0.0000    constr:    0.0000
     atom:   71    charge:    8.1452    magn:   -0.0000    constr:    0.0000
     atom:   72    charge:    8.1518    magn:   -0.0000    constr:    0.0000
     atom:   73    charge:    8.1514    magn:   -0.0000    constr:    0.0000
     atom:   74    charge:    8.1516    magn:   -0.0000    constr:    0.0000
     atom:   75    charge:    8.1514    magn:   -0.0000    constr:    0.0000
     atom:   76    charge:    8.1514    magn:   -0.0000    constr:    0.0000
     atom:   77    charge:    8.1518    magn:   -0.0000    constr:    0.0000
     atom:   78    charge:    8.1514    magn:   -0.0000    constr:    0.0000
     atom:   79    charge:    8.1514    magn:   -0.0000    constr:    0.0000
     atom:   80    charge:    8.1518    magn:   -0.0000    constr:    0.0000
     atom:   81    charge:    8.1514    magn:   -0.0000    constr:    0.0000
     atom:   82    charge:    8.1514    magn:   -0.0000    constr:    0.0000
     atom:   83    charge:    8.1514    magn:   -0.0000    constr:    0.0000
     atom:   84    charge:    8.1514    magn:   -0.0000    constr:    0.0000
     atom:   85    charge:    8.1516    magn:   -0.0000    constr:    0.0000
     atom:   86    charge:    8.1518    magn:   -0.0000    constr:    0.0000
     atom:   87    charge:    8.1518    magn:   -0.0000    constr:    0.0000
     atom:   88    charge:    8.1514    magn:   -0.0000    constr:    0.0000
     atom:   89    charge:    8.1514    magn:   -0.0000    constr:    0.0000
     atom:   90    charge:    8.1514    magn:   -0.0000    constr:    0.0000
     atom:   91    charge:    8.1516    magn:   -0.0000    constr:    0.0000
     atom:   92    charge:    8.1518    magn:   -0.0000    constr:    0.0000
     atom:   93    charge:    8.1518    magn:   -0.0000    constr:    0.0000
     atom:   94    charge:    8.1513    magn:   -0.0000    constr:    0.0000
     atom:   95    charge:    8.1452    magn:   -0.0000    constr:    0.0000
     atom:   96    charge:    8.1452    magn:   -0.0000    constr:    0.0000
     atom:   97    charge:    8.1516    magn:   -0.0000    constr:    0.0000
     atom:   98    charge:    8.1518    magn:   -0.0000    constr:    0.0000
     atom:   99    charge:    8.1518    magn:   -0.0000    constr:    0.0000
     atom:  100    charge:    8.1514    magn:   -0.0000    constr:    0.0000
     atom:  101    charge:    8.1514    magn:   -0.0000    constr:    0.0000
     atom:  102    charge:    8.1514    magn:   -0.0000    constr:    0.0000
     atom:  103    charge:    8.1516    magn:   -0.0000    constr:    0.0000
     atom:  104    charge:    8.1518    magn:   -0.0000    constr:    0.0000
     atom:  105    charge:    8.1518    magn:   -0.0000    constr:    0.0000
     atom:  106    charge:    8.1514    magn:   -0.0000    constr:    0.0000
     atom:  107    charge:    8.1514    magn:   -0.0000    constr:    0.0000
     atom:  108    charge:    8.1514    magn:   -0.0000    constr:    0.0000
     atom:  109    charge:    5.8250    magn:    0.0000    constr:    0.0000
     atom:  110    charge:    5.8249    magn:    0.0000    constr:    0.0000
     atom:  111    charge:    5.8249    magn:    0.0000    constr:    0.0000
     atom:  112    charge:    5.8255    magn:   -0.0000    constr:    0.0000
     atom:  113    charge:    5.8252    magn:    0.0000    constr:    0.0000
     atom:  114    charge:    5.8252    magn:    0.0000    constr:    0.0000
     atom:  115    charge:    5.8250    magn:    0.0000    constr:    0.0000
     atom:  116    charge:    5.8249    magn:    0.0000    constr:    0.0000
     atom:  117    charge:    5.8249    magn:    0.0000    constr:    0.0000
     atom:  118    charge:    5.8249    magn:    0.0000    constr:    0.0000
     atom:  119    charge:    5.8245    magn:    0.0000    constr:    0.0000
     atom:  120    charge:    5.8245    magn:    0.0000    constr:    0.0000
     atom:  121    charge:    5.8252    magn:   -0.0000    constr:    0.0000
     atom:  122    charge:    5.8199    magn:    0.0000    constr:    0.0000
     atom:  123    charge:    5.8199    magn:    0.0000    constr:    0.0000
     atom:  124    charge:    5.8249    magn:    0.0000    constr:    0.0000
     atom:  125    charge:    5.8245    magn:    0.0000    constr:    0.0000
     atom:  126    charge:    5.8245    magn:    0.0000    constr:    0.0000
     atom:  127    charge:    5.8249    magn:    0.0000    constr:    0.0000
     atom:  128    charge:    5.8245    magn:    0.0000    constr:    0.0000
     atom:  129    charge:    5.8245    magn:    0.0000    constr:    0.0000
     atom:  130    charge:    5.8252    magn:   -0.0000    constr:    0.0000
     atom:  131    charge:    5.8199    magn:    0.0000    constr:    0.0000
     atom:  132    charge:    5.8199    magn:    0.0000    constr:    0.0000
     atom:  133    charge:    5.8249    magn:    0.0000    constr:    0.0000
     atom:  134    charge:    5.8245    magn:    0.0000    constr:    0.0000
     atom:  135    charge:    5.8245    magn:   -0.0000    constr:    0.0000
     atom:  136    charge:    5.8250    magn:    0.0000    constr:    0.0000
     atom:  137    charge:    5.8255    magn:    0.0000    constr:    0.0000
     atom:  138    charge:    5.8250    magn:    0.0000    constr:    0.0000
     atom:  139    charge:    5.8249    magn:    0.0000    constr:    0.0000
     atom:  140    charge:    5.8252    magn:    0.0000    constr:    0.0000
     atom:  141    charge:    5.8249    magn:    0.0000    constr:    0.0000
     atom:  142    charge:    5.8249    magn:    0.0000    constr:    0.0000
     atom:  143    charge:    5.8252    magn:   -0.0000    constr:    0.0000
     atom:  144    charge:    5.8249    magn:    0.0000    constr:    0.0000
     atom:  145    charge:    5.8249    magn:    0.0000    constr:    0.0000
     atom:  146    charge:    5.8252    magn:    0.0000    constr:    0.0000
     atom:  147    charge:    5.8249    magn:    0.0000    constr:    0.0000
     atom:  148    charge:    5.8245    magn:    0.0000    constr:    0.0000
     atom:  149    charge:    5.8199    magn:    0.0000    constr:    0.0000
     atom:  150    charge:    5.8245    magn:    0.0000    constr:    0.0000
     atom:  151    charge:    5.8245    magn:    0.0000    constr:    0.0000
     atom:  152    charge:    5.8199    magn:    0.0000    constr:    0.0000
     atom:  153    charge:    5.8245    magn:    0.0000    constr:    0.0000
     atom:  154    charge:    5.8249    magn:    0.0000    constr:    0.0000
     atom:  155    charge:    5.8252    magn:    0.0000    constr:    0.0000
     atom:  156    charge:    5.8249    magn:    0.0000    constr:    0.0000
     atom:  157    charge:    5.8245    magn:    0.0000    constr:    0.0000
     atom:  158    charge:    5.8199    magn:    0.0000    constr:    0.0000
     atom:  159    charge:    5.8245    magn:    0.0000    constr:    0.0000
     atom:  160    charge:    5.8245    magn:    0.0000    constr:    0.0000
     atom:  161    charge:    5.8199    magn:    0.0000    constr:    0.0000
     atom:  162    charge:    5.8245    magn:    0.0000    constr:    0.0000
     atom:  163    charge:    5.8249    magn:    0.0000    constr:    0.0000
     atom:  164    charge:    5.8254    magn:    0.0000    constr:    0.0000
     atom:  165    charge:    5.8249    magn:    0.0000    constr:    0.0000
     atom:  166    charge:    5.8254    magn:    0.0000    constr:    0.0000
     atom:  167    charge:    5.8251    magn:    0.0000    constr:    0.0000
     atom:  168    charge:    5.8254    magn:    0.0000    constr:    0.0000
     atom:  169    charge:    5.8249    magn:    0.0000    constr:    0.0000
     atom:  170    charge:    5.8254    magn:    0.0000    constr:    0.0000
     atom:  171    charge:    5.8249    magn:    0.0000    constr:    0.0000
     atom:  172    charge:    5.8254    magn:   -0.0000    constr:    0.0000
     atom:  173    charge:    5.8251    magn:    0.0000    constr:    0.0000
     atom:  174    charge:    5.8254    magn:   -0.0000    constr:    0.0000
     atom:  175    charge:    5.8251    magn:    0.0000    constr:    0.0000
     atom:  176    charge:    5.8251    magn:    0.0000    constr:    0.0000
     atom:  177    charge:    5.8254    magn:    0.0000    constr:    0.0000
     atom:  178    charge:    5.8251    magn:    0.0000    constr:    0.0000
     atom:  179    charge:    5.8254    magn:   -0.0000    constr:    0.0000
     atom:  180    charge:    5.8249    magn:    0.0000    constr:    0.0000
     atom:  181    charge:    5.8254    magn:   -0.0000    constr:    0.0000
     atom:  182    charge:    5.8249    magn:    0.0000    constr:    0.0000
     atom:  183    charge:    5.8254    magn:    0.0000    constr:    0.0000
     atom:  184    charge:    5.8251    magn:    0.0000    constr:    0.0000
     atom:  185    charge:    5.8254    magn:    0.0000    constr:    0.0000
     atom:  186    charge:    5.8249    magn:    0.0000    constr:    0.0000
     atom:  187    charge:    5.8254    magn:    0.0000    constr:    0.0000
     atom:  188    charge:    5.8249    magn:    0.0000    constr:    0.0000
     atom:  189    charge:    5.8250    magn:    0.0000    constr:    0.0000
     atom:  190    charge:    5.8249    magn:    0.0000    constr:    0.0000
     atom:  191    charge:    5.8249    magn:    0.0000    constr:    0.0000
     atom:  192    charge:    5.8249    magn:    0.0000    constr:    0.0000
     atom:  193    charge:    5.8245    magn:    0.0000    constr:    0.0000
     atom:  194    charge:    5.8245    magn:    0.0000    constr:    0.0000
     atom:  195    charge:    5.8249    magn:    0.0000    constr:    0.0000
     atom:  196    charge:    5.8245    magn:    0.0000    constr:    0.0000
     atom:  197    charge:    5.8245    magn:    0.0000    constr:    0.0000
     atom:  198    charge:    5.8255    magn:    0.0000    constr:    0.0000
     atom:  199    charge:    5.8252    magn:   -0.0000    constr:    0.0000
     atom:  200    charge:    5.8252    magn:    0.0000    constr:    0.0000
     atom:  201    charge:    5.8252    magn:    0.0000    constr:    0.0000
     atom:  202    charge:    5.8199    magn:   -0.0000    constr:    0.0000
     atom:  203    charge:    5.8199    magn:    0.0000    constr:    0.0000
     atom:  204    charge:    5.8252    magn:    0.0000    constr:    0.0000
     atom:  205    charge:    5.8199    magn:    0.0000    constr:    0.0000
     atom:  206    charge:    5.8199    magn:    0.0000    constr:    0.0000
     atom:  207    charge:    5.8250    magn:    0.0000    constr:    0.0000
     atom:  208    charge:    5.8249    magn:    0.0000    constr:    0.0000
     atom:  209    charge:    5.8249    magn:    0.0000    constr:    0.0000
     atom:  210    charge:    5.8249    magn:    0.0000    constr:    0.0000
     atom:  211    charge:    5.8245    magn:    0.0000    constr:    0.0000
     atom:  212    charge:    5.8245    magn:    0.0000    constr:    0.0000
     atom:  213    charge:    5.8249    magn:    0.0000    constr:    0.0000
     atom:  214    charge:    5.8245    magn:    0.0000    constr:    0.0000
     atom:  215    charge:    5.8245    magn:    0.0000    constr:    0.0000

     total cpu time spent up to now is    14642.0 secs

     End of self-consistent calculation

 ------ SPIN UP ------------


          k = 0.0000 0.0000 0.0000 ( 52700 PWs)   bands (ev):

   -71.8516 -71.8489 -71.8489 -71.8489 -71.8476 -71.8476 -71.8160 -71.8149
   -71.8149 -71.8141 -71.8125 -71.8125 -71.8125 -71.8115 -71.8113 -71.8113
   -71.8111 -71.8111 -71.8111 -71.8105 -71.8105 -71.8105 -71.8105 -71.8098
   -71.8098 -71.8098 -71.8098 -71.8096 -71.8096 -71.8096 -71.8088 -71.8088
   -71.8088 -71.8081 -71.8081 -71.8075 -71.8069 -71.8069 -71.8069 -71.8069
   -71.8066 -71.8066 -71.8066 -71.8066 -71.8065 -71.8065 -71.8065 -71.8065
   -71.8065 -71.8061 -71.8061 -71.8061 -71.8061 -71.8061 -71.8061 -71.8057
   -71.8057 -71.8057 -71.8052 -71.8052 -71.8052 -71.8052 -71.8052 -71.8051
   -71.8051 -71.8051 -71.8051 -71.8051 -71.8050 -71.8050 -71.8050 -71.8048
   -71.8047 -71.8047 -71.8047 -71.8044 -71.8040 -71.8040 -71.8039 -71.8039
   -71.8039 -71.8038 -71.8038 -71.8038 -71.8038 -71.8034 -71.8034 -71.8034
   -71.8034 -71.8034 -71.8033 -71.8030 -71.8030 -71.8030 -71.8030 -71.8030
   -71.8029 -71.8029 -71.8029 -71.8024 -71.8024 -71.8024 -71.8017 -71.8017
   -71.8016 -71.8016 -71.8016 -71.8010 -34.8206 -34.8155 -34.8155 -34.8155
   -34.8126 -34.8126 -34.8126 -34.8049 -34.8049 -34.8049 -34.8030 -34.8030
   -34.8030 -34.8014 -34.8014 -34.8011 -34.8008 -34.8008 -34.8008 -34.8005
   -34.8005 -34.8005 -34.7998 -34.7998 -34.7988 -34.7988 -34.7988 -34.7936
   -34.7936 -34.7926 -34.7926 -34.7926 -34.7917 -34.7914 -34.7914 -34.7914
   -34.7907 -34.7907 -34.7907 -34.7895 -34.7895 -34.7895 -34.7870 -34.7857
   -34.7857 -34.7857 -34.7843 -34.7843 -34.7843 -34.7834 -34.7834 -34.7834
   -34.7834 -34.7824 -34.7824 -34.7824 -34.7820 -34.7818 -34.7818 -34.7818
   -34.7818 -34.7818 -34.7818 -34.7818 -34.7818 -34.7818 -34.7817 -34.7817
   -34.7816 -34.7816 -34.7816 -34.7789 -34.7789 -34.7787 -34.7787 -34.7787
   -34.7778 -34.7778 -34.7778 -34.7775 -34.7766 -34.7766 -34.7766 -34.7764
   -34.7764 -34.7764 -34.7759 -34.7755 -34.7755 -34.7741 -34.7741 -34.7741
   -34.7741 -34.7741 -34.7741 -34.7700 -34.7700 -34.7700 -34.7694 -34.7694
   -34.7694 -34.7672 -34.7672 -34.7672 -34.7631 -34.7631 -34.7622 -34.7622
   -34.7622 -34.7606 -34.7602 -34.7602 -34.7602 -34.7590 -34.7590 -34.7590
   -34.7585 -34.7585 -34.7585 -34.7584 -34.7584 -34.7584 -34.7548 -34.7548
   -34.7548 -34.7535 -34.7535 -34.7521 -34.7521 -34.7521 -34.7511 -34.7511
   -34.7511 -34.7505 -34.7505 -34.7505 -34.7463 -34.7463 -34.7463 -34.7458
   -34.7455 -34.7455 -34.7449 -34.7449 -34.7449 -34.7448 -34.7448 -34.7448
   -34.7447 -34.7447 -34.7447 -34.7446 -34.7443 -34.7443 -34.7443 -34.7435
   -34.7433 -34.7433 -34.7426 -34.7425 -34.7425 -34.7418 -34.7418 -34.7418
   -34.7411 -34.7411 -34.7411 -34.7409 -34.7409 -34.7396 -34.7396 -34.7396
   -34.7387 -34.7387 -34.7387 -34.7349 -34.7349 -34.7349 -34.7345 -34.7345
   -34.7345 -34.7343 -34.7343 -34.7343 -34.7320 -34.7320 -34.7320 -34.7318
   -34.7318 -34.7318 -34.7317 -34.7315 -34.7315 -34.7315 -34.7314 -34.7314
   -34.7314 -34.7313 -34.7311 -34.7311 -34.7311 -34.7308 -34.7305 -34.7305
   -34.7302 -34.7302 -34.7302 -34.7297 -34.7297 -34.7289 -34.7289 -34.7289
   -34.7282 -34.7282 -34.7282 -34.7282 -34.7282 -34.7278 -34.7278 -34.7278
   -34.7276 -34.7276 -34.7276 -34.7269 -34.7266 -34.7266 -34.7266 -34.7265
   -34.7265 -34.7265 -34.7263 -34.7263 -34.7263 -34.7262 -34.7262 -34.7261
   -34.7261 -34.7261 -34.7260 -34.7258 -34.7258 -34.7258 -34.7254 -34.7254
   -34.7254 -34.7250 -34.7250 -34.7250 -34.7250 -34.7250 -34.7247 -34.7247
   -34.7247 -34.7245 -34.7239 -34.7239 -34.7239 -34.7233 -34.7233 -34.7231
   -34.7231 -34.7231 -34.7231 -34.7231 -34.7231 -34.7225 -34.7225 -34.7225
   -34.7224 -34.7224 -34.7224 -34.7221 -34.7221 -34.7218 -34.7218 -34.7218
   -34.7218 -34.7218 -34.7218 -34.7211 -34.7202 -34.7191 -34.7191 -34.7191
   -34.7156 -34.7156 -34.7156 -34.7155 -34.7155 -34.7155 -34.7152 -34.7152
   -34.7152 -34.7150 -34.7150 -34.7142 -34.7142 -34.7142 -34.7138 -34.7138
   -34.7138 -34.7137 -34.7137 -34.7137 -34.7133 -34.7133 -34.7133 -34.7130
   -34.7130 -34.7109 -34.7109 -34.7109 -34.7102 -34.7102 -34.7093 -34.7093
   -34.7093 -34.7093 -34.7093 -34.7093 -34.7087 -34.7069 -34.7069 -34.7069
   -13.1763 -12.7722 -12.7722 -12.7682 -12.7682 -12.7682 -12.7269 -12.4213
   -12.4213 -12.4182 -12.4182 -12.4182 -12.4173 -12.4173 -12.4173 -12.4148
   -12.4148 -12.4148 -12.3411 -12.1420 -12.1420 -12.1420 -12.1408 -12.1408
   -12.1408 -12.1349 -12.0978 -11.9285 -11.9285 -11.9219 -11.9219 -11.9219
   -11.9029 -11.7581 -11.7581 -11.7570 -11.7568 -11.7568 -11.7562 -11.7562
   -11.7562 -11.7560 -11.7560 -11.7560 -11.7539 -11.7539 -11.7539 -11.7511
   -11.7511 -11.7511 -11.7495 -11.7495 -11.7495 -11.7482 -11.7482 -11.7482
   -11.7207 -11.6894 -11.6894 -11.6894 -11.6881 -11.6881 -11.6881 -11.6871
   -11.6871 -11.6836 -11.6836 -11.6836 -11.6829 -11.6829 -11.6829 -11.6822
   -11.6822 -11.6822 -11.6811 -11.6803 -11.6803 -11.6803 -11.6773 -11.6773
   -11.5693 -11.5151 -11.5151 -11.5114 -11.5104 -11.5104 -11.5104 -11.5098
   -11.5098 -11.5098 -11.5092 -11.5092 -11.5057 -11.5057 -11.5057 -11.4729
   -11.4563 -11.4563 -11.4531 -11.4518 -11.4518 -11.4513 -11.4513 -11.4513
   -11.4510 -11.4510 -11.4510   1.8515   1.8885   1.8885   1.8906   1.8906
     1.8906   1.8928   1.8928   1.8928   1.8932   1.8932   1.8932   1.8936
     1.8936   1.8936   1.8945   1.8945   1.8960   1.8960   1.8960   1.9017
     1.9653   1.9653   1.9653   2.0399   2.0399   2.0399   2.2868   2.4674
     2.4674   2.4674   2.4699   2.4805   2.4805   2.4805   2.5239   2.5830
     2.5830   2.5830   2.5850   2.5850   2.5850   2.5890   2.5890   2.5890
     2.5913   2.5913   2.5913   2.6037   2.6047   2.6047   2.6047   2.6048
     2.6048   2.6048   2.6052   2.6052   2.6059   2.6059   2.6081   2.6081
     2.6081   2.6082   2.6082   2.6082   2.6111   2.6111   2.6111   2.6980
     2.6980   2.6980   2.7063   2.7290   2.7290   2.8168   2.8168   2.8168
     2.9504   2.9551   2.9551   2.9551   2.9611   2.9611   2.9611   2.9618
     2.9618   3.0360   3.0360   3.0360   3.1383   3.1383   3.1383   3.1401
     3.1401   3.1424   3.1424   3.1424   3.1454   3.3067   3.3067   3.3067
     3.5027   3.6606   3.6606   3.6632   3.6632   3.6632   3.6642   3.6642
     3.6642   3.7456   3.7456   3.7456   4.0572   4.0572   4.0572   4.0583
     4.0583   4.0583   4.0688   4.0688   4.0688   4.1302   4.1302   4.1302
     4.4943   4.4943   4.4943   4.4955   4.4955   4.4955   4.4956   4.4956
     4.4962   4.4962   4.4962   4.4963   4.4963   4.4963   4.5005   4.5039
     4.5039   4.5098   4.5099   4.5099   4.5099   4.5747   4.5747   4.5747
     4.6784   4.6841   4.6841   4.6848   4.6853   4.6853   4.6853   4.6992
     4.6992   4.7418   4.7443   4.7443   4.7443   4.8541   4.8541   4.8673
     4.8673   4.8673   4.9282   4.9504   4.9504   4.9512   4.9512   4.9512
     4.9513   4.9513   4.9513   4.9516   4.9516   4.9516   4.9545   4.9547
     4.9547   4.9547   4.9555   4.9555   4.9600   4.9600   4.9600   5.0188
     5.0188   5.0188   5.0449   5.0449   5.0449   5.1326   5.1326   5.1326
     5.3824   5.3824   5.3824   5.3829   5.3829   5.3829   5.3861   5.3861
     5.3861   5.3876   5.3876   5.3876   5.4013   5.4049   5.4049   5.4049
     5.4061   5.4070   5.4070   5.4076   5.4076   5.4076   5.4124   5.4124
     5.4124   5.4129   5.4129   5.4129   5.4172   5.4172   5.4172   5.4216
     5.4216   5.4237   5.4237   5.4237   5.4246   5.4292   5.4292   5.4292
     5.4317   5.4317   5.4324   5.4324   5.4324   5.4867   5.4867   5.4867
     5.5165   5.5165   5.5165   5.5215   5.5215   5.5271   5.5271   5.5271
     5.5311   5.5631   5.5631   5.5631   5.6008   5.6042   5.6042   5.6046
     5.6046   5.6046   5.6061   5.6061   5.6075   5.6075   5.6075   5.6092
     5.6092   5.6092   5.6101   5.6101   5.6101   5.6111   5.6115   5.6115
     5.6115   5.9106   5.9106   5.9106   5.9976   5.9976   5.9987   5.9987
     5.9987   6.0049   6.0049   6.0060   6.0060   6.0060   6.0063   6.0063
     6.0063   6.0914   6.0914   6.0914   6.1431   6.1431   6.1431   6.1435
     6.1435   6.1435   6.1502   6.1502   6.1502   6.1852   6.1852   6.1852
     6.2069   6.2074   6.2074   6.2074   6.2090   6.2090   6.2090   6.2096
     6.2096   6.5858   6.5858   6.5858  10.1761  15.0714  16.5555  16.5555
    16.5555  17.0283  17.0283  17.2566  17.3937  17.3937  17.3937  18.0889
    18.0904  18.0904  18.0904  18.1071  18.1071  18.1071  18.1321  18.2079
    18.2079  18.2107  18.2107  18.2107  18.2117  18.2117  18.2117  18.6600
    18.6600  18.6600  18.8126  19.3035  19.3035  19.3035  19.4566  19.4566
    19.4566  19.4592  19.4592  19.4604  19.4604  19.4604  19.4614  19.4614
    19.4614  19.4631  19.4643  19.4643  19.4643  19.4666  19.4666  19.4786
    19.4786  19.4786  19.6530  19.6530  19.6530  19.8579  20.0049  20.0049
    20.1020  20.1020  20.1020  20.2712  20.2712  20.2781  20.2915  20.2915
    20.2915  20.3049  20.6392  20.6392  20.6417  20.7660  20.7660  20.7768
    20.7768  20.7768  20.7775  20.7775  20.7775  20.7777  20.7779  20.7779
    20.7779  20.7804  20.7804  20.7804  20.7851  20.7851  20.7855  20.7855
    20.7855  20.8337  20.8364  20.8364  20.8364  20.8374  20.8374  20.8374
    20.8564  20.8564  20.8564  20.8607  20.8607  20.9494  20.9494  20.9494
    20.9954  20.9954  20.9954  20.9982  20.9982  20.9982  21.0140  21.0140
    21.0140  21.2940  21.2940  21.2940  21.5495  21.5578  21.5578  21.5617
    21.5617  21.5617  21.5633  21.5687  21.5687  21.5687  21.5698  21.5698
    21.5698  21.5704  21.5704  21.5704  21.5736  21.5736  21.6193  21.6193
    21.6193  21.9380  21.9380  21.9380  22.1480  22.2466  22.2466  22.2491
    22.2491  22.2491  22.2561  22.2684  22.2684  22.3372  22.3372  22.3372
    22.7557  22.7565  22.7565  22.7565  22.7571  22.7571  22.7823  22.7823
    22.7823  22.7980  22.7980  22.7980  23.0780  23.0781  23.0781  23.0781
    23.0922  23.0922  23.0972  23.0972  23.0972  23.1092  23.1092  23.1092
    23.1327  23.1327  23.1417  23.1507  23.1507  23.1507  23.1708  23.1778
    23.2045  23.2045  23.2045  23.2056  23.2056  23.2056  23.2073  23.2073
    23.2081  23.2096  23.2096  23.2096  23.2110  23.2111  23.2111  23.2126

     occupation numbers 
     1.0000   1.0000   1.0000   1.0000   1.0000   1.0000   1.0000   1.0000
     1.0000   1.0000   1.0000   1.0000   1.0000   1.0000   1.0000   1.0000
     1.0000   1.0000   1.0000   1.0000   1.0000   1.0000   1.0000   1.0000
     1.0000   1.0000   1.0000   1.0000   1.0000   1.0000   1.0000   1.0000
     1.0000   1.0000   1.0000   1.0000   1.0000   1.0000   1.0000   1.0000
     1.0000   1.0000   1.0000   1.0000   1.0000   1.0000   1.0000   1.0000
     1.0000   1.0000   1.0000   1.0000   1.0000   1.0000   1.0000   1.0000
     1.0000   1.0000   1.0000   1.0000   1.0000   1.0000   1.0000   1.0000
     1.0000   1.0000   1.0000   1.0000   1.0000   1.0000   1.0000   1.0000
     1.0000   1.0000   1.0000   1.0000   1.0000   1.0000   1.0000   1.0000
     1.0000   1.0000   1.0000   1.0000   1.0000   1.0000   1.0000   1.0000
     1.0000   1.0000   1.0000   1.0000   1.0000   1.0000   1.0000   1.0000
     1.0000   1.0000   1.0000   1.0000   1.0000   1.0000   1.0000   1.0000
     1.0000   1.0000   1.0000   1.0000   1.0000   1.0000   1.0000   1.0000
     1.0000   1.0000   1.0000   1.0000   1.0000   1.0000   1.0000   1.0000
     1.0000   1.0000   1.0000   1.0000   1.0000   1.0000   1.0000   1.0000
     1.0000   1.0000   1.0000   1.0000   1.0000   1.0000   1.0000   1.0000
     1.0000   1.0000   1.0000   1.0000   1.0000   1.0000   1.0000   1.0000
     1.0000   1.0000   1.0000   1.0000   1.0000   1.0000   1.0000   1.0000
     1.0000   1.0000   1.0000   1.0000   1.0000   1.0000   1.0000   1.0000
     1.0000   1.0000   1.0000   1.0000   1.0000   1.0000   1.0000   1.0000
     1.0000   1.0000   1.0000   1.0000   1.0000   1.0000   1.0000   1.0000
     1.0000   1.0000   1.0000   1.0000   1.0000   1.0000   1.0000   1.0000
     1.0000   1.0000   1.0000   1.0000   1.0000   1.0000   1.0000   1.0000
     1.0000   1.0000   1.0000   1.0000   1.0000   1.0000   1.0000   1.0000
     1.0000   1.0000   1.0000   1.0000   1.0000   1.0000   1.0000   1.0000
     1.0000   1.0000   1.0000   1.0000   1.0000   1.0000   1.0000   1.0000
     1.0000   1.0000   1.0000   1.0000   1.0000   1.0000   1.0000   1.0000
     1.0000   1.0000   1.0000   1.0000   1.0000   1.0000   1.0000   1.0000
     1.0000   1.0000   1.0000   1.0000   1.0000   1.0000   1.0000   1.0000
     1.0000   1.0000   1.0000   1.0000   1.0000   1.0000   1.0000   1.0000
     1.0000   1.0000   1.0000   1.0000   1.0000   1.0000   1.0000   1.0000
     1.0000   1.0000   1.0000   1.0000   1.0000   1.0000   1.0000   1.0000
     1.0000   1.0000   1.0000   1.0000   1.0000   1.0000   1.0000   1.0000
     1.0000   1.0000   1.0000   1.0000   1.0000   1.0000   1.0000   1.0000
     1.0000   1.0000   1.0000   1.0000   1.0000   1.0000   1.0000   1.0000
     1.0000   1.0000   1.0000   1.0000   1.0000   1.0000   1.0000   1.0000
     1.0000   1.0000   1.0000   1.0000   1.0000   1.0000   1.0000   1.0000
     1.0000   1.0000   1.0000   1.0000   1.0000   1.0000   1.0000   1.0000
     1.0000   1.0000   1.0000   1.0000   1.0000   1.0000   1.0000   1.0000
     1.0000   1.0000   1.0000   1.0000   1.0000   1.0000   1.0000   1.0000
     1.0000   1.0000   1.0000   1.0000   1.0000   1.0000   1.0000   1.0000
     1.0000   1.0000   1.0000   1.0000   1.0000   1.0000   1.0000   1.0000
     1.0000   1.0000   1.0000   1.0000   1.0000   1.0000   1.0000   1.0000
     1.0000   1.0000   1.0000   1.0000   1.0000   1.0000   1.0000   1.0000
     1.0000   1.0000   1.0000   1.0000   1.0000   1.0000   1.0000   1.0000
     1.0000   1.0000   1.0000   1.0000   1.0000   1.0000   1.0000   1.0000
     1.0000   1.0000   1.0000   1.0000   1.0000   1.0000   1.0000   1.0000
     1.0000   1.0000   1.0000   1.0000   1.0000   1.0000   1.0000   1.0000
     1.0000   1.0000   1.0000   1.0000   1.0000   1.0000   1.0000   1.0000
     1.0000   1.0000   1.0000   1.0000   1.0000   1.0000   1.0000   1.0000
     1.0000   1.0000   1.0000   1.0000   1.0000   1.0000   1.0000   1.0000
     1.0000   1.0000   1.0000   1.0000   1.0000   1.0000   1.0000   1.0000
     1.0000   1.0000   1.0000   1.0000   1.0000   1.0000   1.0000   1.0000
     1.0000   1.0000   1.0000   1.0000   1.0000   1.0000   1.0000   1.0000
     1.0000   1.0000   1.0000   1.0000   1.0000   1.0000   1.0000   1.0000
     1.0000   1.0000   1.0000   1.0000   1.0000   1.0000   1.0000   1.0000
     1.0000   1.0000   1.0000   1.0000   1.0000   1.0000   1.0000   1.0000
     1.0000   1.0000   1.0000   1.0000   1.0000   1.0000   1.0000   1.0000
     1.0000   1.0000   1.0000   1.0000   1.0000   1.0000   1.0000   1.0000
     1.0000   1.0000   1.0000   1.0000   1.0000   1.0000   1.0000   1.0000
     1.0000   1.0000   1.0000   1.0000   1.0000   1.0000   1.0000   1.0000
     1.0000   1.0000   1.0000   1.0000   1.0000   1.0000   1.0000   1.0000
     1.0000   1.0000   1.0000   1.0000   1.0000   1.0000   1.0000   1.0000
     1.0000   1.0000   1.0000   1.0000   1.0000   1.0000   1.0000   1.0000
     1.0000   1.0000   1.0000   1.0000   1.0000   1.0000   1.0000   1.0000
     1.0000   1.0000   1.0000   1.0000   1.0000   1.0000   1.0000   1.0000
     1.0000   1.0000   1.0000   1.0000   1.0000   1.0000   1.0000   1.0000
     1.0000   1.0000   1.0000   1.0000   1.0000   1.0000   1.0000   1.0000
     1.0000   1.0000   1.0000   1.0000   1.0000   1.0000   1.0000   1.0000
     1.0000   1.0000   1.0000   1.0000   1.0000   1.0000   1.0000   1.0000
     1.0000   1.0000   1.0000   1.0000   1.0000   1.0000   1.0000   1.0000
     1.0000   1.0000   1.0000   1.0000   1.0000   1.0000   1.0000   1.0000
     1.0000   1.0000   1.0000   1.0000   1.0000   1.0000   1.0000   1.0000
     1.0000   1.0000   1.0000   1.0000   1.0000   1.0000   1.0000   1.0000
     1.0000   1.0000   1.0000   1.0000   1.0000   1.0000   1.0000   1.0000
     1.0000   1.0000   1.0000   1.0000   1.0000   1.0000   1.0000   1.0000
     1.0000   1.0000   1.0000   1.0000   1.0000   1.0000   1.0000   1.0000
     1.0000   1.0000   1.0000   1.0000   1.0000   1.0000   1.0000   1.0000
     1.0000   1.0000   1.0000   1.0000   1.0000   1.0000   1.0000   1.0000
     1.0000   1.0000   1.0000   1.0000   1.0000   1.0000   1.0000   1.0000
     1.0000   1.0000   1.0000   1.0000   1.0000   1.0000   1.0000   1.0000
     1.0000   1.0000   1.0000   1.0000   1.0000   1.0000   1.0000   1.0000
     1.0000   1.0000   1.0000   1.0000   1.0000   1.0000   1.0000   1.0000
     1.0000   1.0000   1.0000   1.0000   1.0000   1.0000   1.0000   1.0000
     1.0000   1.0000   1.0000   1.0000   1.0000   1.0000   1.0000   1.0000
     1.0000   1.0000   1.0000   1.0000   1.0000   1.0000   1.0000   1.0000
     1.0000   1.0000   1.0000   1.0000   1.0000   1.0000   1.0000   1.0000
     1.0000   1.0000   1.0000   1.0000   1.0000   1.0000   1.0000   1.0000
     1.0000   1.0000   1.0000   1.0000   1.0000   1.0000   1.0000   1.0000
     1.0000   1.0000   1.0000   1.0000   1.0000   1.0000   1.0000   1.0000
     1.0000   1.0000   1.0000   1.0000   1.0000   1.0000   1.0000   1.0000
     1.0000   1.0000   1.0000   1.0000   1.0000   1.0000   1.0000   1.0000
     1.0000   1.0000   1.0000   1.0000   1.0000   1.0000   1.0000   1.0000
     1.0000   1.0000   1.0000   1.0000   1.0000   1.0000   1.0000   1.0000
     1.0000   1.0000   1.0000   1.0000   1.0000   1.0000   1.0000   1.0000
     1.0000   1.0000   1.0000   1.0000   1.0000   1.0000   1.0000   1.0000
     1.0000   1.0000   1.0000   1.0000   1.0000   1.0000   1.0000   1.0000
     1.0000   1.0000   1.0000   1.0000   1.0000   1.0000   1.0000   1.0000
     1.0000   1.0000   1.0000   1.0000   1.0000   1.0000   1.0000   1.0000
     1.0000   1.0000   1.0000   1.0000   1.0000   1.0000   1.0000   1.0000
     1.0000   1.0000   1.0000   1.0000   1.0000   1.0000   1.0000   1.0000
     1.0000   1.0000   1.0000   1.0000   1.0000   1.0000   1.0000   1.0000
     1.0000   1.0000   1.0000   1.0000   1.0000   1.0000   1.0000   1.0000
     1.0000   1.0000   1.0000   1.0000   1.0000   1.0000   1.0000   1.0000
     1.0000   1.0000   1.0000   1.0000   1.0000   1.0000   1.0000   1.0000
     1.0000   1.0000   1.0000   1.0000   1.0000   1.0000   1.0000   1.0000
     1.0000   1.0000   1.0000   1.0000   1.0000   0.0000   0.0000   0.0000
     0.0000   0.0000   0.0000   0.0000   0.0000   0.0000   0.0000   0.0000
     0.0000   0.0000   0.0000   0.0000   0.0000   0.0000   0.0000   0.0000
     0.0000   0.0000   0.0000   0.0000   0.0000   0.0000   0.0000   0.0000
     0.0000   0.0000   0.0000   0.0000   0.0000   0.0000   0.0000   0.0000
     0.0000   0.0000   0.0000   0.0000   0.0000   0.0000   0.0000   0.0000
     0.0000   0.0000   0.0000   0.0000   0.0000   0.0000   0.0000   0.0000
     0.0000   0.0000   0.0000   0.0000   0.0000   0.0000   0.0000   0.0000
     0.0000   0.0000   0.0000   0.0000   0.0000   0.0000   0.0000   0.0000
     0.0000   0.0000   0.0000   0.0000   0.0000   0.0000   0.0000   0.0000
     0.0000   0.0000   0.0000   0.0000   0.0000   0.0000   0.0000   0.0000
     0.0000   0.0000   0.0000   0.0000   0.0000   0.0000   0.0000   0.0000
     0.0000   0.0000   0.0000   0.0000   0.0000   0.0000   0.0000   0.0000
     0.0000   0.0000   0.0000   0.0000   0.0000   0.0000   0.0000   0.0000
     0.0000   0.0000   0.0000   0.0000   0.0000   0.0000   0.0000   0.0000
     0.0000   0.0000   0.0000   0.0000   0.0000   0.0000   0.0000   0.0000
     0.0000   0.0000   0.0000   0.0000   0.0000   0.0000   0.0000   0.0000
     0.0000   0.0000   0.0000   0.0000   0.0000   0.0000   0.0000   0.0000
     0.0000   0.0000   0.0000   0.0000   0.0000   0.0000   0.0000   0.0000
     0.0000   0.0000   0.0000   0.0000   0.0000   0.0000   0.0000   0.0000
     0.0000   0.0000   0.0000   0.0000   0.0000   0.0000   0.0000   0.0000
     0.0000   0.0000   0.0000   0.0000   0.0000   0.0000   0.0000   0.0000
     0.0000   0.0000   0.0000   0.0000   0.0000   0.0000   0.0000   0.0000
     0.0000   0.0000   0.0000   0.0000   0.0000   0.0000   0.0000   0.0000
     0.0000   0.0000   0.0000   0.0000   0.0000   0.0000   0.0000   0.0000
     0.0000   0.0000   0.0000   0.0000   0.0000   0.0000   0.0000   0.0000

 ------ SPIN DOWN ----------


          k = 0.0000 0.0000 0.0000 ( 52700 PWs)   bands (ev):

   -71.8516 -71.8489 -71.8489 -71.8489 -71.8476 -71.8476 -71.8160 -71.8149
   -71.8149 -71.8141 -71.8125 -71.8125 -71.8125 -71.8115 -71.8113 -71.8113
   -71.8111 -71.8111 -71.8111 -71.8105 -71.8105 -71.8105 -71.8105 -71.8098
   -71.8098 -71.8098 -71.8098 -71.8096 -71.8096 -71.8096 -71.8088 -71.8088
   -71.8088 -71.8081 -71.8081 -71.8075 -71.8069 -71.8069 -71.8069 -71.8069
   -71.8066 -71.8066 -71.8066 -71.8066 -71.8065 -71.8065 -71.8065 -71.8065
   -71.8065 -71.8061 -71.8061 -71.8061 -71.8061 -71.8061 -71.8061 -71.8057
   -71.8057 -71.8057 -71.8052 -71.8052 -71.8052 -71.8052 -71.8052 -71.8051
   -71.8051 -71.8051 -71.8051 -71.8051 -71.8050 -71.8050 -71.8050 -71.8048
   -71.8047 -71.8047 -71.8047 -71.8044 -71.8040 -71.8040 -71.8039 -71.8039
   -71.8039 -71.8038 -71.8038 -71.8038 -71.8038 -71.8034 -71.8034 -71.8034
   -71.8034 -71.8034 -71.8033 -71.8030 -71.8030 -71.8030 -71.8030 -71.8030
   -71.8029 -71.8029 -71.8029 -71.8024 -71.8024 -71.8024 -71.8017 -71.8017
   -71.8016 -71.8016 -71.8016 -71.8010 -34.8206 -34.8155 -34.8155 -34.8155
   -34.8126 -34.8126 -34.8126 -34.8049 -34.8049 -34.8049 -34.8030 -34.8030
   -34.8030 -34.8014 -34.8014 -34.8011 -34.8008 -34.8008 -34.8008 -34.8005
   -34.8005 -34.8005 -34.7998 -34.7998 -34.7988 -34.7988 -34.7988 -34.7936
   -34.7936 -34.7926 -34.7926 -34.7926 -34.7917 -34.7914 -34.7914 -34.7914
   -34.7907 -34.7907 -34.7907 -34.7895 -34.7895 -34.7895 -34.7870 -34.7857
   -34.7857 -34.7857 -34.7843 -34.7843 -34.7843 -34.7834 -34.7834 -34.7834
   -34.7834 -34.7824 -34.7824 -34.7824 -34.7820 -34.7818 -34.7818 -34.7818
   -34.7818 -34.7818 -34.7818 -34.7818 -34.7818 -34.7818 -34.7817 -34.7817
   -34.7816 -34.7816 -34.7816 -34.7789 -34.7789 -34.7787 -34.7787 -34.7787
   -34.7778 -34.7778 -34.7778 -34.7775 -34.7766 -34.7766 -34.7766 -34.7764
   -34.7764 -34.7764 -34.7759 -34.7755 -34.7755 -34.7741 -34.7741 -34.7741
   -34.7741 -34.7741 -34.7741 -34.7700 -34.7700 -34.7700 -34.7694 -34.7694
   -34.7694 -34.7672 -34.7672 -34.7672 -34.7631 -34.7631 -34.7622 -34.7622
   -34.7622 -34.7606 -34.7602 -34.7602 -34.7602 -34.7590 -34.7590 -34.7590
   -34.7585 -34.7585 -34.7585 -34.7584 -34.7584 -34.7584 -34.7548 -34.7548
   -34.7548 -34.7535 -34.7535 -34.7521 -34.7521 -34.7521 -34.7511 -34.7511
   -34.7511 -34.7505 -34.7505 -34.7505 -34.7463 -34.7463 -34.7463 -34.7458
   -34.7455 -34.7455 -34.7449 -34.7449 -34.7449 -34.7448 -34.7448 -34.7448
   -34.7447 -34.7447 -34.7447 -34.7446 -34.7443 -34.7443 -34.7443 -34.7435
   -34.7433 -34.7433 -34.7426 -34.7425 -34.7425 -34.7418 -34.7418 -34.7418
   -34.7411 -34.7411 -34.7411 -34.7409 -34.7409 -34.7396 -34.7396 -34.7396
   -34.7387 -34.7387 -34.7387 -34.7349 -34.7349 -34.7349 -34.7345 -34.7345
   -34.7345 -34.7343 -34.7343 -34.7343 -34.7320 -34.7320 -34.7320 -34.7318
   -34.7318 -34.7318 -34.7317 -34.7315 -34.7315 -34.7315 -34.7314 -34.7314
   -34.7314 -34.7313 -34.7311 -34.7311 -34.7311 -34.7308 -34.7305 -34.7305
   -34.7302 -34.7302 -34.7302 -34.7297 -34.7297 -34.7289 -34.7289 -34.7289
   -34.7282 -34.7282 -34.7282 -34.7282 -34.7282 -34.7278 -34.7278 -34.7278
   -34.7276 -34.7276 -34.7276 -34.7269 -34.7266 -34.7266 -34.7266 -34.7265
   -34.7265 -34.7265 -34.7263 -34.7263 -34.7263 -34.7262 -34.7262 -34.7261
   -34.7261 -34.7261 -34.7260 -34.7258 -34.7258 -34.7258 -34.7254 -34.7254
   -34.7254 -34.7250 -34.7250 -34.7250 -34.7250 -34.7250 -34.7247 -34.7247
   -34.7247 -34.7245 -34.7239 -34.7239 -34.7239 -34.7233 -34.7233 -34.7231
   -34.7231 -34.7231 -34.7231 -34.7231 -34.7231 -34.7225 -34.7225 -34.7225
   -34.7224 -34.7224 -34.7224 -34.7221 -34.7221 -34.7218 -34.7218 -34.7218
   -34.7218 -34.7218 -34.7218 -34.7211 -34.7202 -34.7191 -34.7191 -34.7191
   -34.7156 -34.7156 -34.7156 -34.7155 -34.7155 -34.7155 -34.7152 -34.7152
   -34.7152 -34.7150 -34.7150 -34.7142 -34.7142 -34.7142 -34.7138 -34.7138
   -34.7138 -34.7137 -34.7137 -34.7137 -34.7133 -34.7133 -34.7133 -34.7130
   -34.7130 -34.7109 -34.7109 -34.7109 -34.7102 -34.7102 -34.7093 -34.7093
   -34.7093 -34.7093 -34.7093 -34.7093 -34.7087 -34.7069 -34.7069 -34.7069
   -13.1763 -12.7722 -12.7722 -12.7682 -12.7682 -12.7682 -12.7269 -12.4213
   -12.4213 -12.4182 -12.4182 -12.4182 -12.4173 -12.4173 -12.4173 -12.4148
   -12.4148 -12.4148 -12.3411 -12.1420 -12.1420 -12.1420 -12.1408 -12.1408
   -12.1408 -12.1349 -12.0978 -11.9285 -11.9285 -11.9219 -11.9219 -11.9219
   -11.9029 -11.7581 -11.7581 -11.7570 -11.7568 -11.7568 -11.7562 -11.7562
   -11.7562 -11.7560 -11.7560 -11.7560 -11.7539 -11.7539 -11.7539 -11.7511
   -11.7511 -11.7511 -11.7495 -11.7495 -11.7495 -11.7482 -11.7482 -11.7482
   -11.7207 -11.6894 -11.6894 -11.6894 -11.6881 -11.6881 -11.6881 -11.6871
   -11.6871 -11.6836 -11.6836 -11.6836 -11.6829 -11.6829 -11.6829 -11.6822
   -11.6822 -11.6822 -11.6811 -11.6803 -11.6803 -11.6803 -11.6773 -11.6773
   -11.5693 -11.5151 -11.5151 -11.5114 -11.5104 -11.5104 -11.5104 -11.5098
   -11.5098 -11.5098 -11.5092 -11.5092 -11.5057 -11.5057 -11.5057 -11.4729
   -11.4563 -11.4563 -11.4531 -11.4518 -11.4518 -11.4513 -11.4513 -11.4513
   -11.4510 -11.4510 -11.4510   1.8515   1.8885   1.8885   1.8906   1.8906
     1.8906   1.8928   1.8928   1.8928   1.8932   1.8932   1.8932   1.8936
     1.8936   1.8936   1.8945   1.8945   1.8960   1.8960   1.8960   1.9017
     1.9653   1.9653   1.9653   2.0399   2.0399   2.0399   2.2868   2.4674
     2.4674   2.4674   2.4699   2.4805   2.4805   2.4805   2.5239   2.5830
     2.5830   2.5830   2.5850   2.5850   2.5850   2.5890   2.5890   2.5890
     2.5913   2.5913   2.5913   2.6037   2.6047   2.6047   2.6047   2.6048
     2.6048   2.6048   2.6052   2.6052   2.6059   2.6059   2.6081   2.6081
     2.6081   2.6082   2.6082   2.6082   2.6111   2.6111   2.6111   2.6980
     2.6980   2.6980   2.7063   2.7290   2.7290   2.8168   2.8168   2.8168
     2.9504   2.9551   2.9551   2.9551   2.9611   2.9611   2.9611   2.9618
     2.9618   3.0360   3.0360   3.0360   3.1383   3.1383   3.1383   3.1401
     3.1401   3.1424   3.1424   3.1424   3.1454   3.3067   3.3067   3.3067
     3.5027   3.6606   3.6606   3.6632   3.6632   3.6632   3.6642   3.6642
     3.6642   3.7456   3.7456   3.7456   4.0572   4.0572   4.0572   4.0583
     4.0583   4.0583   4.0688   4.0688   4.0688   4.1302   4.1302   4.1302
     4.4943   4.4943   4.4943   4.4955   4.4955   4.4955   4.4956   4.4956
     4.4962   4.4962   4.4962   4.4963   4.4963   4.4963   4.5005   4.5039
     4.5039   4.5098   4.5099   4.5099   4.5099   4.5747   4.5747   4.5747
     4.6784   4.6841   4.6841   4.6848   4.6853   4.6853   4.6853   4.6992
     4.6992   4.7418   4.7443   4.7443   4.7443   4.8541   4.8541   4.8673
     4.8673   4.8673   4.9282   4.9504   4.9504   4.9512   4.9512   4.9512
     4.9513   4.9513   4.9513   4.9516   4.9516   4.9516   4.9545   4.9547
     4.9547   4.9547   4.9555   4.9555   4.9600   4.9600   4.9600   5.0188
     5.0188   5.0188   5.0449   5.0449   5.0449   5.1326   5.1326   5.1326
     5.3824   5.3824   5.3824   5.3829   5.3829   5.3829   5.3861   5.3861
     5.3861   5.3876   5.3876   5.3876   5.4013   5.4049   5.4049   5.4049
     5.4061   5.4070   5.4070   5.4076   5.4076   5.4076   5.4124   5.4124
     5.4124   5.4129   5.4129   5.4129   5.4172   5.4172   5.4172   5.4216
     5.4216   5.4237   5.4237   5.4237   5.4246   5.4292   5.4292   5.4292
     5.4317   5.4317   5.4324   5.4324   5.4324   5.4867   5.4867   5.4867
     5.5165   5.5165   5.5165   5.5215   5.5215   5.5271   5.5271   5.5271
     5.5311   5.5631   5.5631   5.5631   5.6008   5.6042   5.6042   5.6046
     5.6046   5.6046   5.6061   5.6061   5.6075   5.6075   5.6075   5.6092
     5.6092   5.6092   5.6101   5.6101   5.6101   5.6111   5.6115   5.6115
     5.6115   5.9106   5.9106   5.9106   5.9976   5.9976   5.9987   5.9987
     5.9987   6.0049   6.0049   6.0060   6.0060   6.0060   6.0063   6.0063
     6.0063   6.0914   6.0914   6.0914   6.1431   6.1431   6.1431   6.1435
     6.1435   6.1435   6.1502   6.1502   6.1502   6.1852   6.1852   6.1852
     6.2069   6.2074   6.2074   6.2074   6.2090   6.2090   6.2090   6.2096
     6.2096   6.5858   6.5858   6.5858  10.1761  15.0714  16.5555  16.5555
    16.5555  17.0283  17.0283  17.2566  17.3937  17.3937  17.3937  18.0889
    18.0904  18.0904  18.0904  18.1071  18.1071  18.1071  18.1321  18.2079
    18.2079  18.2107  18.2107  18.2107  18.2117  18.2117  18.2117  18.6600
    18.6600  18.6600  18.8126  19.3035  19.3035  19.3035  19.4566  19.4566
    19.4566  19.4592  19.4592  19.4604  19.4604  19.4604  19.4614  19.4614
    19.4614  19.4631  19.4643  19.4643  19.4643  19.4666  19.4666  19.4786
    19.4786  19.4786  19.6530  19.6530  19.6530  19.8579  20.0049  20.0049
    20.1020  20.1020  20.1020  20.2712  20.2712  20.2781  20.2915  20.2915
    20.2915  20.3049  20.6392  20.6392  20.6417  20.7660  20.7660  20.7768
    20.7768  20.7768  20.7775  20.7775  20.7775  20.7777  20.7779  20.7779
    20.7779  20.7804  20.7804  20.7804  20.7851  20.7851  20.7855  20.7855
    20.7855  20.8337  20.8364  20.8364  20.8364  20.8374  20.8374  20.8374
    20.8564  20.8564  20.8564  20.8607  20.8607  20.9494  20.9494  20.9494
    20.9954  20.9954  20.9954  20.9982  20.9982  20.9982  21.0140  21.0140
    21.0140  21.2940  21.2940  21.2940  21.5495  21.5578  21.5578  21.5617
    21.5617  21.5617  21.5633  21.5687  21.5687  21.5687  21.5698  21.5698
    21.5698  21.5704  21.5704  21.5704  21.5736  21.5736  21.6193  21.6193
    21.6193  21.9380  21.9380  21.9380  22.1480  22.2466  22.2466  22.2491
    22.2491  22.2491  22.2561  22.2684  22.2684  22.3372  22.3372  22.3372
    22.7557  22.7565  22.7565  22.7565  22.7571  22.7571  22.7823  22.7823
    22.7823  22.7980  22.7980  22.7980  23.0780  23.0781  23.0781  23.0781
    23.0922  23.0922  23.0972  23.0972  23.0972  23.1092  23.1092  23.1092
    23.1327  23.1327  23.1417  23.1507  23.1507  23.1507  23.1708  23.1778
    23.2045  23.2045  23.2045  23.2056  23.2056  23.2056  23.2073  23.2073
    23.2081  23.2096  23.2096  23.2096  23.2110  23.2111  23.2111  23.2126

     occupation numbers 
     1.0000   1.0000   1.0000   1.0000   1.0000   1.0000   1.0000   1.0000
     1.0000   1.0000   1.0000   1.0000   1.0000   1.0000   1.0000   1.0000
     1.0000   1.0000   1.0000   1.0000   1.0000   1.0000   1.0000   1.0000
     1.0000   1.0000   1.0000   1.0000   1.0000   1.0000   1.0000   1.0000
     1.0000   1.0000   1.0000   1.0000   1.0000   1.0000   1.0000   1.0000
     1.0000   1.0000   1.0000   1.0000   1.0000   1.0000   1.0000   1.0000
     1.0000   1.0000   1.0000   1.0000   1.0000   1.0000   1.0000   1.0000
     1.0000   1.0000   1.0000   1.0000   1.0000   1.0000   1.0000   1.0000
     1.0000   1.0000   1.0000   1.0000   1.0000   1.0000   1.0000   1.0000
     1.0000   1.0000   1.0000   1.0000   1.0000   1.0000   1.0000   1.0000
     1.0000   1.0000   1.0000   1.0000   1.0000   1.0000   1.0000   1.0000
     1.0000   1.0000   1.0000   1.0000   1.0000   1.0000   1.0000   1.0000
     1.0000   1.0000   1.0000   1.0000   1.0000   1.0000   1.0000   1.0000
     1.0000   1.0000   1.0000   1.0000   1.0000   1.0000   1.0000   1.0000
     1.0000   1.0000   1.0000   1.0000   1.0000   1.0000   1.0000   1.0000
     1.0000   1.0000   1.0000   1.0000   1.0000   1.0000   1.0000   1.0000
     1.0000   1.0000   1.0000   1.0000   1.0000   1.0000   1.0000   1.0000
     1.0000   1.0000   1.0000   1.0000   1.0000   1.0000   1.0000   1.0000
     1.0000   1.0000   1.0000   1.0000   1.0000   1.0000   1.0000   1.0000
     1.0000   1.0000   1.0000   1.0000   1.0000   1.0000   1.0000   1.0000
     1.0000   1.0000   1.0000   1.0000   1.0000   1.0000   1.0000   1.0000
     1.0000   1.0000   1.0000   1.0000   1.0000   1.0000   1.0000   1.0000
     1.0000   1.0000   1.0000   1.0000   1.0000   1.0000   1.0000   1.0000
     1.0000   1.0000   1.0000   1.0000   1.0000   1.0000   1.0000   1.0000
     1.0000   1.0000   1.0000   1.0000   1.0000   1.0000   1.0000   1.0000
     1.0000   1.0000   1.0000   1.0000   1.0000   1.0000   1.0000   1.0000
     1.0000   1.0000   1.0000   1.0000   1.0000   1.0000   1.0000   1.0000
     1.0000   1.0000   1.0000   1.0000   1.0000   1.0000   1.0000   1.0000
     1.0000   1.0000   1.0000   1.0000   1.0000   1.0000   1.0000   1.0000
     1.0000   1.0000   1.0000   1.0000   1.0000   1.0000   1.0000   1.0000
     1.0000   1.0000   1.0000   1.0000   1.0000   1.0000   1.0000   1.0000
     1.0000   1.0000   1.0000   1.0000   1.0000   1.0000   1.0000   1.0000
     1.0000   1.0000   1.0000   1.0000   1.0000   1.0000   1.0000   1.0000
     1.0000   1.0000   1.0000   1.0000   1.0000   1.0000   1.0000   1.0000
     1.0000   1.0000   1.0000   1.0000   1.0000   1.0000   1.0000   1.0000
     1.0000   1.0000   1.0000   1.0000   1.0000   1.0000   1.0000   1.0000
     1.0000   1.0000   1.0000   1.0000   1.0000   1.0000   1.0000   1.0000
     1.0000   1.0000   1.0000   1.0000   1.0000   1.0000   1.0000   1.0000
     1.0000   1.0000   1.0000   1.0000   1.0000   1.0000   1.0000   1.0000
     1.0000   1.0000   1.0000   1.0000   1.0000   1.0000   1.0000   1.0000
     1.0000   1.0000   1.0000   1.0000   1.0000   1.0000   1.0000   1.0000
     1.0000   1.0000   1.0000   1.0000   1.0000   1.0000   1.0000   1.0000
     1.0000   1.0000   1.0000   1.0000   1.0000   1.0000   1.0000   1.0000
     1.0000   1.0000   1.0000   1.0000   1.0000   1.0000   1.0000   1.0000
     1.0000   1.0000   1.0000   1.0000   1.0000   1.0000   1.0000   1.0000
     1.0000   1.0000   1.0000   1.0000   1.0000   1.0000   1.0000   1.0000
     1.0000   1.0000   1.0000   1.0000   1.0000   1.0000   1.0000   1.0000
     1.0000   1.0000   1.0000   1.0000   1.0000   1.0000   1.0000   1.0000
     1.0000   1.0000   1.0000   1.0000   1.0000   1.0000   1.0000   1.0000
     1.0000   1.0000   1.0000   1.0000   1.0000   1.0000   1.0000   1.0000
     1.0000   1.0000   1.0000   1.0000   1.0000   1.0000   1.0000   1.0000
     1.0000   1.0000   1.0000   1.0000   1.0000   1.0000   1.0000   1.0000
     1.0000   1.0000   1.0000   1.0000   1.0000   1.0000   1.0000   1.0000
     1.0000   1.0000   1.0000   1.0000   1.0000   1.0000   1.0000   1.0000
     1.0000   1.0000   1.0000   1.0000   1.0000   1.0000   1.0000   1.0000
     1.0000   1.0000   1.0000   1.0000   1.0000   1.0000   1.0000   1.0000
     1.0000   1.0000   1.0000   1.0000   1.0000   1.0000   1.0000   1.0000
     1.0000   1.0000   1.0000   1.0000   1.0000   1.0000   1.0000   1.0000
     1.0000   1.0000   1.0000   1.0000   1.0000   1.0000   1.0000   1.0000
     1.0000   1.0000   1.0000   1.0000   1.0000   1.0000   1.0000   1.0000
     1.0000   1.0000   1.0000   1.0000   1.0000   1.0000   1.0000   1.0000
     1.0000   1.0000   1.0000   1.0000   1.0000   1.0000   1.0000   1.0000
     1.0000   1.0000   1.0000   1.0000   1.0000   1.0000   1.0000   1.0000
     1.0000   1.0000   1.0000   1.0000   1.0000   1.0000   1.0000   1.0000
     1.0000   1.0000   1.0000   1.0000   1.0000   1.0000   1.0000   1.0000
     1.0000   1.0000   1.0000   1.0000   1.0000   1.0000   1.0000   1.0000
     1.0000   1.0000   1.0000   1.0000   1.0000   1.0000   1.0000   1.0000
     1.0000   1.0000   1.0000   1.0000   1.0000   1.0000   1.0000   1.0000
     1.0000   1.0000   1.0000   1.0000   1.0000   1.0000   1.0000   1.0000
     1.0000   1.0000   1.0000   1.0000   1.0000   1.0000   1.0000   1.0000
     1.0000   1.0000   1.0000   1.0000   1.0000   1.0000   1.0000   1.0000
     1.0000   1.0000   1.0000   1.0000   1.0000   1.0000   1.0000   1.0000
     1.0000   1.0000   1.0000   1.0000   1.0000   1.0000   1.0000   1.0000
     1.0000   1.0000   1.0000   1.0000   1.0000   1.0000   1.0000   1.0000
     1.0000   1.0000   1.0000   1.0000   1.0000   1.0000   1.0000   1.0000
     1.0000   1.0000   1.0000   1.0000   1.0000   1.0000   1.0000   1.0000
     1.0000   1.0000   1.0000   1.0000   1.0000   1.0000   1.0000   1.0000
     1.0000   1.0000   1.0000   1.0000   1.0000   1.0000   1.0000   1.0000
     1.0000   1.0000   1.0000   1.0000   1.0000   1.0000   1.0000   1.0000
     1.0000   1.0000   1.0000   1.0000   1.0000   1.0000   1.0000   1.0000
     1.0000   1.0000   1.0000   1.0000   1.0000   1.0000   1.0000   1.0000
     1.0000   1.0000   1.0000   1.0000   1.0000   1.0000   1.0000   1.0000
     1.0000   1.0000   1.0000   1.0000   1.0000   1.0000   1.0000   1.0000
     1.0000   1.0000   1.0000   1.0000   1.0000   1.0000   1.0000   1.0000
     1.0000   1.0000   1.0000   1.0000   1.0000   1.0000   1.0000   1.0000
     1.0000   1.0000   1.0000   1.0000   1.0000   1.0000   1.0000   1.0000
     1.0000   1.0000   1.0000   1.0000   1.0000   1.0000   1.0000   1.0000
     1.0000   1.0000   1.0000   1.0000   1.0000   1.0000   1.0000   1.0000
     1.0000   1.0000   1.0000   1.0000   1.0000   1.0000   1.0000   1.0000
     1.0000   1.0000   1.0000   1.0000   1.0000   1.0000   1.0000   1.0000
     1.0000   1.0000   1.0000   1.0000   1.0000   1.0000   1.0000   1.0000
     1.0000   1.0000   1.0000   1.0000   1.0000   1.0000   1.0000   1.0000
     1.0000   1.0000   1.0000   1.0000   1.0000   1.0000   1.0000   1.0000
     1.0000   1.0000   1.0000   1.0000   1.0000   1.0000   1.0000   1.0000
     1.0000   1.0000   1.0000   1.0000   1.0000   1.0000   1.0000   1.0000
     1.0000   1.0000   1.0000   1.0000   1.0000   1.0000   1.0000   1.0000
     1.0000   1.0000   1.0000   1.0000   1.0000   1.0000   1.0000   1.0000
     1.0000   1.0000   1.0000   1.0000   1.0000   1.0000   1.0000   1.0000
     1.0000   1.0000   1.0000   1.0000   1.0000   1.0000   1.0000   1.0000
     1.0000   1.0000   1.0000   1.0000   1.0000   1.0000   1.0000   1.0000
     1.0000   1.0000   1.0000   1.0000   1.0000   1.0000   1.0000   1.0000
     1.0000   1.0000   1.0000   1.0000   1.0000   1.0000   1.0000   1.0000
     1.0000   1.0000   1.0000   1.0000   1.0000   1.0000   1.0000   1.0000
     1.0000   1.0000   1.0000   1.0000   1.0000   1.0000   1.0000   1.0000
     1.0000   1.0000   1.0000   1.0000   1.0000   1.0000   1.0000   1.0000
     1.0000   1.0000   1.0000   1.0000   1.0000   1.0000   1.0000   1.0000
     1.0000   1.0000   1.0000   1.0000   1.0000   1.0000   1.0000   1.0000
     1.0000   1.0000   1.0000   1.0000   1.0000   0.0000   0.0000   0.0000
     0.0000   0.0000   0.0000   0.0000   0.0000   0.0000   0.0000   0.0000
     0.0000   0.0000   0.0000   0.0000   0.0000   0.0000   0.0000   0.0000
     0.0000   0.0000   0.0000   0.0000   0.0000   0.0000   0.0000   0.0000
     0.0000   0.0000   0.0000   0.0000   0.0000   0.0000   0.0000   0.0000
     0.0000   0.0000   0.0000   0.0000   0.0000   0.0000   0.0000   0.0000
     0.0000   0.0000   0.0000   0.0000   0.0000   0.0000   0.0000   0.0000
     0.0000   0.0000   0.0000   0.0000   0.0000   0.0000   0.0000   0.0000
     0.0000   0.0000   0.0000   0.0000   0.0000   0.0000   0.0000   0.0000
     0.0000   0.0000   0.0000   0.0000   0.0000   0.0000   0.0000   0.0000
     0.0000   0.0000   0.0000   0.0000   0.0000   0.0000   0.0000   0.0000
     0.0000   0.0000   0.0000   0.0000   0.0000   0.0000   0.0000   0.0000
     0.0000   0.0000   0.0000   0.0000   0.0000   0.0000   0.0000   0.0000
     0.0000   0.0000   0.0000   0.0000   0.0000   0.0000   0.0000   0.0000
     0.0000   0.0000   0.0000   0.0000   0.0000   0.0000   0.0000   0.0000
     0.0000   0.0000   0.0000   0.0000   0.0000   0.0000   0.0000   0.0000
     0.0000   0.0000   0.0000   0.0000   0.0000   0.0000   0.0000   0.0000
     0.0000   0.0000   0.0000   0.0000   0.0000   0.0000   0.0000   0.0000
     0.0000   0.0000   0.0000   0.0000   0.0000   0.0000   0.0000   0.0000
     0.0000   0.0000   0.0000   0.0000   0.0000   0.0000   0.0000   0.0000
     0.0000   0.0000   0.0000   0.0000   0.0000   0.0000   0.0000   0.0000
     0.0000   0.0000   0.0000   0.0000   0.0000   0.0000   0.0000   0.0000
     0.0000   0.0000   0.0000   0.0000   0.0000   0.0000   0.0000   0.0000
     0.0000   0.0000   0.0000   0.0000   0.0000   0.0000   0.0000   0.0000
     0.0000   0.0000   0.0000   0.0000   0.0000   0.0000   0.0000   0.0000
     0.0000   0.0000   0.0000   0.0000   0.0000   0.0000   0.0000   0.0000

     highest occupied, lowest unoccupied level (ev):    10.1761   15.0714

!    total energy              =  -15183.26722253 Ry
     Harris-Foulkes estimate   =  -15183.26722254 Ry
     estimated scf accuracy    <       0.00000001 Ry

     total magnetization       =    -0.00 Bohr mag/cell
     absolute magnetization    =     0.00 Bohr mag/cell

     convergence has been achieved in   8 iterations

     total energy              =  -15183.32667984 Ry
     Harris-Foulkes estimate   =  -15183.32667985 Ry
     est. exchange err (dexx)  =       0.05945731 Ry
     - averaged Fock potential =    1551.53283339 Ry
     + Fock energy             =    -776.62286999 Ry

     EXX: now go back to refine exchange calculation

     total cpu time spent up to now is    15136.6 secs

     per-process dynamical memory:   281.0 Mb

     Self-consistent Calculation

     iteration #  1     ecut=    60.00 Ry     beta=0.30
     Davidson diagonalization with overlap
     WARNING:    10 eigenvalues not converged
     WARNING:     8 eigenvalues not converged
     ethr =  9.27E-12,  avg # of iterations = 32.0

     total cpu time spent up to now is    18967.0 secs

     total energy              =  -15183.33470913 Ry
     Harris-Foulkes estimate   =  -15183.33573177 Ry
     estimated scf accuracy    <       0.00283952 Ry

     total magnetization       =     0.00 Bohr mag/cell
     absolute magnetization    =     0.00 Bohr mag/cell

     iteration #  2     ecut=    60.00 Ry     beta=0.30
     Davidson diagonalization with overlap
     ethr =  1.65E-07,  avg # of iterations =  6.0

     total cpu time spent up to now is    20064.9 secs

     total energy              =  -15183.33476908 Ry
     Harris-Foulkes estimate   =  -15183.33493927 Ry
     estimated scf accuracy    <       0.00053069 Ry

     total magnetization       =    -0.00 Bohr mag/cell
     absolute magnetization    =     0.00 Bohr mag/cell

     iteration #  3     ecut=    60.00 Ry     beta=0.30
     Davidson diagonalization with overlap
     ethr =  3.08E-08,  avg # of iterations =  7.0

     total cpu time spent up to now is    21181.7 secs

     total energy              =  -15183.33477096 Ry
     Harris-Foulkes estimate   =  -15183.33480638 Ry
     estimated scf accuracy    <       0.00011134 Ry

     total magnetization       =    -0.00 Bohr mag/cell
     absolute magnetization    =     0.00 Bohr mag/cell

     iteration #  4     ecut=    60.00 Ry     beta=0.30
     Davidson diagonalization with overlap
     ethr =  6.47E-09,  avg # of iterations =  2.0

     total cpu time spent up to now is    22183.8 secs

     total energy              =  -15183.33477480 Ry
     Harris-Foulkes estimate   =  -15183.33477474 Ry
     estimated scf accuracy    <       0.00000021 Ry

     total magnetization       =    -0.00 Bohr mag/cell
     absolute magnetization    =     0.00 Bohr mag/cell

     iteration #  5     ecut=    60.00 Ry     beta=0.30
     Davidson diagonalization with overlap
     WARNING:     1 eigenvalues not converged
     c_bands:  1 eigenvalues not converged
     ethr =  1.22E-11,  avg # of iterations = 17.5
 
     Magnetic moment per site:
     atom:    1    charge:    8.1501    magn:   -0.0000    constr:    0.0000
     atom:    2    charge:    8.1500    magn:   -0.0000    constr:    0.0000
     atom:    3    charge:    8.1500    magn:   -0.0000    constr:    0.0000
     atom:    4    charge:    8.1500    magn:   -0.0000    constr:    0.0000
     atom:    5    charge:    8.1501    magn:   -0.0000    constr:    0.0000
     atom:    6    charge:    8.1501    magn:   -0.0000    constr:    0.0000
     atom:    7    charge:    8.1500    magn:   -0.0000    constr:    0.0000
     atom:    8    charge:    8.1501    magn:   -0.0000    constr:    0.0000
     atom:    9    charge:    8.1501    magn:   -0.0000    constr:    0.0000
     atom:   10    charge:    8.1500    magn:   -0.0000    constr:    0.0000
     atom:   11    charge:    8.1501    magn:   -0.0000    constr:    0.0000
     atom:   12    charge:    8.1501    magn:   -0.0000    constr:    0.0000
     atom:   13    charge:    8.1501    magn:   -0.0000    constr:    0.0000
     atom:   14    charge:    8.1491    magn:   -0.0000    constr:    0.0000
     atom:   15    charge:    8.1491    magn:   -0.0000    constr:    0.0000
     atom:   16    charge:    8.1501    magn:   -0.0000    constr:    0.0000
     atom:   17    charge:    8.1491    magn:   -0.0000    constr:    0.0000
     atom:   18    charge:    8.1491    magn:   -0.0000    constr:    0.0000
     atom:   19    charge:    8.1500    magn:   -0.0000    constr:    0.0000
     atom:   20    charge:    8.1501    magn:   -0.0000    constr:    0.0000
     atom:   21    charge:    8.1501    magn:   -0.0000    constr:    0.0000
     atom:   22    charge:    8.1501    magn:   -0.0000    constr:    0.0000
     atom:   23    charge:    8.1491    magn:   -0.0000    constr:    0.0000
     atom:   24    charge:    8.1491    magn:   -0.0000    constr:    0.0000
     atom:   25    charge:    8.1501    magn:   -0.0000    constr:    0.0000
     atom:   26    charge:    8.1491    magn:   -0.0000    constr:    0.0000
     atom:   27    charge:    8.1491    magn:   -0.0000    constr:    0.0000
     atom:   28    charge:    8.1500    magn:   -0.0000    constr:    0.0000
     atom:   29    charge:    8.1503    magn:   -0.0000    constr:    0.0000
     atom:   30    charge:    8.1500    magn:   -0.0000    constr:    0.0000
     atom:   31    charge:    8.1503    magn:   -0.0000    constr:    0.0000
     atom:   32    charge:    8.1499    magn:   -0.0000    constr:    0.0000
     atom:   33    charge:    8.1503    magn:   -0.0000    constr:    0.0000
     atom:   34    charge:    8.1500    magn:   -0.0000    constr:    0.0000
     atom:   35    charge:    8.1503    magn:   -0.0000    constr:    0.0000
     atom:   36    charge:    8.1500    magn:   -0.0000    constr:    0.0000
     atom:   37    charge:    8.1500    magn:   -0.0000    constr:    0.0000
     atom:   38    charge:    8.1504    magn:   -0.0000    constr:    0.0000
     atom:   39    charge:    8.1500    magn:   -0.0000    constr:    0.0000
     atom:   40    charge:    8.1504    magn:   -0.0000    constr:    0.0000
     atom:   41    charge:    8.1438    magn:   -0.0000    constr:    0.0000
     atom:   42    charge:    8.1504    magn:   -0.0000    constr:    0.0000
     atom:   43    charge:    8.1500    magn:   -0.0000    constr:    0.0000
     atom:   44    charge:    8.1504    magn:   -0.0000    constr:    0.0000
     atom:   45    charge:    8.1500    magn:   -0.0000    constr:    0.0000
     atom:   46    charge:    8.1500    magn:   -0.0000    constr:    0.0000
     atom:   47    charge:    8.1504    magn:   -0.0000    constr:    0.0000
     atom:   48    charge:    8.1500    magn:   -0.0000    constr:    0.0000
     atom:   49    charge:    8.1504    magn:   -0.0000    constr:    0.0000
     atom:   50    charge:    8.1438    magn:   -0.0000    constr:    0.0000
     atom:   51    charge:    8.1504    magn:   -0.0000    constr:    0.0000
     atom:   52    charge:    8.1500    magn:   -0.0000    constr:    0.0000
     atom:   53    charge:    8.1504    magn:   -0.0000    constr:    0.0000
     atom:   54    charge:    8.1500    magn:   -0.0000    constr:    0.0000
     atom:   55    charge:    8.1500    magn:   -0.0000    constr:    0.0000
     atom:   56    charge:    8.1503    magn:   -0.0000    constr:    0.0000
     atom:   57    charge:    8.1500    magn:   -0.0000    constr:    0.0000
     atom:   58    charge:    8.1500    magn:   -0.0000    constr:    0.0000
     atom:   59    charge:    8.1504    magn:   -0.0000    constr:    0.0000
     atom:   60    charge:    8.1500    magn:   -0.0000    constr:    0.0000
     atom:   61    charge:    8.1500    magn:   -0.0000    constr:    0.0000
     atom:   62    charge:    8.1504    magn:   -0.0000    constr:    0.0000
     atom:   63    charge:    8.1500    magn:   -0.0000    constr:    0.0000
     atom:   64    charge:    8.1503    magn:   -0.0000    constr:    0.0000
     atom:   65    charge:    8.1499    magn:   -0.0000    constr:    0.0000
     atom:   66    charge:    8.1503    magn:   -0.0000    constr:    0.0000
     atom:   67    charge:    8.1504    magn:   -0.0000    constr:    0.0000
     atom:   68    charge:    8.1438    magn:   -0.0000    constr:    0.0000
     atom:   69    charge:    8.1504    magn:   -0.0000    constr:    0.0000
     atom:   70    charge:    8.1504    magn:   -0.0000    constr:    0.0000
     atom:   71    charge:    8.1438    magn:   -0.0000    constr:    0.0000
     atom:   72    charge:    8.1504    magn:   -0.0000    constr:    0.0000
     atom:   73    charge:    8.1500    magn:   -0.0000    constr:    0.0000
     atom:   74    charge:    8.1503    magn:   -0.0000    constr:    0.0000
     atom:   75    charge:    8.1500    magn:   -0.0000    constr:    0.0000
     atom:   76    charge:    8.1500    magn:   -0.0000    constr:    0.0000
     atom:   77    charge:    8.1504    magn:   -0.0000    constr:    0.0000
     atom:   78    charge:    8.1500    magn:   -0.0000    constr:    0.0000
     atom:   79    charge:    8.1500    magn:   -0.0000    constr:    0.0000
     atom:   80    charge:    8.1504    magn:   -0.0000    constr:    0.0000
     atom:   81    charge:    8.1500    magn:   -0.0000    constr:    0.0000
     atom:   82    charge:    8.1500    magn:   -0.0000    constr:    0.0000
     atom:   83    charge:    8.1500    magn:   -0.0000    constr:    0.0000
     atom:   84    charge:    8.1500    magn:   -0.0000    constr:    0.0000
     atom:   85    charge:    8.1503    magn:   -0.0000    constr:    0.0000
     atom:   86    charge:    8.1504    magn:   -0.0000    constr:    0.0000
     atom:   87    charge:    8.1504    magn:   -0.0000    constr:    0.0000
     atom:   88    charge:    8.1500    magn:   -0.0000    constr:    0.0000
     atom:   89    charge:    8.1500    magn:   -0.0000    constr:    0.0000
     atom:   90    charge:    8.1500    magn:   -0.0000    constr:    0.0000
     atom:   91    charge:    8.1503    magn:   -0.0000    constr:    0.0000
     atom:   92    charge:    8.1504    magn:   -0.0000    constr:    0.0000
     atom:   93    charge:    8.1504    magn:   -0.0000    constr:    0.0000
     atom:   94    charge:    8.1499    magn:   -0.0000    constr:    0.0000
     atom:   95    charge:    8.1438    magn:   -0.0000    constr:    0.0000
     atom:   96    charge:    8.1438    magn:   -0.0000    constr:    0.0000
     atom:   97    charge:    8.1503    magn:   -0.0000    constr:    0.0000
     atom:   98    charge:    8.1504    magn:   -0.0000    constr:    0.0000
     atom:   99    charge:    8.1504    magn:   -0.0000    constr:    0.0000
     atom:  100    charge:    8.1500    magn:   -0.0000    constr:    0.0000
     atom:  101    charge:    8.1500    magn:   -0.0000    constr:    0.0000
     atom:  102    charge:    8.1500    magn:   -0.0000    constr:    0.0000
     atom:  103    charge:    8.1503    magn:   -0.0000    constr:    0.0000
     atom:  104    charge:    8.1504    magn:   -0.0000    constr:    0.0000
     atom:  105    charge:    8.1504    magn:   -0.0000    constr:    0.0000
     atom:  106    charge:    8.1500    magn:   -0.0000    constr:    0.0000
     atom:  107    charge:    8.1500    magn:   -0.0000    constr:    0.0000
     atom:  108    charge:    8.1500    magn:   -0.0000    constr:    0.0000
     atom:  109    charge:    5.8303    magn:    0.0000    constr:    0.0000
     atom:  110    charge:    5.8302    magn:    0.0000    constr:    0.0000
     atom:  111    charge:    5.8302    magn:    0.0000    constr:    0.0000
     atom:  112    charge:    5.8308    magn:   -0.0000    constr:    0.0000
     atom:  113    charge:    5.8305    magn:    0.0000    constr:    0.0000
     atom:  114    charge:    5.8305    magn:    0.0000    constr:    0.0000
     atom:  115    charge:    5.8303    magn:    0.0000    constr:    0.0000
     atom:  116    charge:    5.8302    magn:    0.0000    constr:    0.0000
     atom:  117    charge:    5.8302    magn:    0.0000    constr:    0.0000
     atom:  118    charge:    5.8302    magn:    0.0000    constr:    0.0000
     atom:  119    charge:    5.8298    magn:    0.0000    constr:    0.0000
     atom:  120    charge:    5.8298    magn:    0.0000    constr:    0.0000
     atom:  121    charge:    5.8305    magn:   -0.0000    constr:    0.0000
     atom:  122    charge:    5.8253    magn:    0.0000    constr:    0.0000
     atom:  123    charge:    5.8253    magn:    0.0000    constr:    0.0000
     atom:  124    charge:    5.8302    magn:    0.0000    constr:    0.0000
     atom:  125    charge:    5.8298    magn:    0.0000    constr:    0.0000
     atom:  126    charge:    5.8298    magn:    0.0000    constr:    0.0000
     atom:  127    charge:    5.8302    magn:    0.0000    constr:    0.0000
     atom:  128    charge:    5.8298    magn:    0.0000    constr:    0.0000
     atom:  129    charge:    5.8298    magn:    0.0000    constr:    0.0000
     atom:  130    charge:    5.8305    magn:   -0.0000    constr:    0.0000
     atom:  131    charge:    5.8253    magn:    0.0000    constr:    0.0000
     atom:  132    charge:    5.8253    magn:    0.0000    constr:    0.0000
     atom:  133    charge:    5.8302    magn:    0.0000    constr:    0.0000
     atom:  134    charge:    5.8298    magn:    0.0000    constr:    0.0000
     atom:  135    charge:    5.8298    magn:   -0.0000    constr:    0.0000
     atom:  136    charge:    5.8303    magn:    0.0000    constr:    0.0000
     atom:  137    charge:    5.8308    magn:    0.0000    constr:    0.0000
     atom:  138    charge:    5.8303    magn:    0.0000    constr:    0.0000
     atom:  139    charge:    5.8302    magn:    0.0000    constr:    0.0000
     atom:  140    charge:    5.8305    magn:    0.0000    constr:    0.0000
     atom:  141    charge:    5.8302    magn:    0.0000    constr:    0.0000
     atom:  142    charge:    5.8302    magn:    0.0000    constr:    0.0000
     atom:  143    charge:    5.8305    magn:   -0.0000    constr:    0.0000
     atom:  144    charge:    5.8302    magn:    0.0000    constr:    0.0000
     atom:  145    charge:    5.8302    magn:    0.0000    constr:    0.0000
     atom:  146    charge:    5.8305    magn:    0.0000    constr:    0.0000
     atom:  147    charge:    5.8302    magn:    0.0000    constr:    0.0000
     atom:  148    charge:    5.8298    magn:    0.0000    constr:    0.0000
     atom:  149    charge:    5.8253    magn:    0.0000    constr:    0.0000
     atom:  150    charge:    5.8298    magn:    0.0000    constr:    0.0000
     atom:  151    charge:    5.8298    magn:    0.0000    constr:    0.0000
     atom:  152    charge:    5.8253    magn:    0.0000    constr:    0.0000
     atom:  153    charge:    5.8298    magn:    0.0000    constr:    0.0000
     atom:  154    charge:    5.8302    magn:    0.0000    constr:    0.0000
     atom:  155    charge:    5.8305    magn:    0.0000    constr:    0.0000
     atom:  156    charge:    5.8302    magn:    0.0000    constr:    0.0000
     atom:  157    charge:    5.8298    magn:    0.0000    constr:    0.0000
     atom:  158    charge:    5.8253    magn:    0.0000    constr:    0.0000
     atom:  159    charge:    5.8298    magn:    0.0000    constr:    0.0000
     atom:  160    charge:    5.8298    magn:    0.0000    constr:    0.0000
     atom:  161    charge:    5.8253    magn:    0.0000    constr:    0.0000
     atom:  162    charge:    5.8298    magn:    0.0000    constr:    0.0000
     atom:  163    charge:    5.8302    magn:    0.0000    constr:    0.0000
     atom:  164    charge:    5.8307    magn:    0.0000    constr:    0.0000
     atom:  165    charge:    5.8302    magn:    0.0000    constr:    0.0000
     atom:  166    charge:    5.8307    magn:    0.0000    constr:    0.0000
     atom:  167    charge:    5.8304    magn:    0.0000    constr:    0.0000
     atom:  168    charge:    5.8307    magn:    0.0000    constr:    0.0000
     atom:  169    charge:    5.8302    magn:    0.0000    constr:    0.0000
     atom:  170    charge:    5.8307    magn:    0.0000    constr:    0.0000
     atom:  171    charge:    5.8302    magn:    0.0000    constr:    0.0000
     atom:  172    charge:    5.8307    magn:   -0.0000    constr:    0.0000
     atom:  173    charge:    5.8304    magn:    0.0000    constr:    0.0000
     atom:  174    charge:    5.8307    magn:   -0.0000    constr:    0.0000
     atom:  175    charge:    5.8304    magn:    0.0000    constr:    0.0000
     atom:  176    charge:    5.8304    magn:    0.0000    constr:    0.0000
     atom:  177    charge:    5.8307    magn:    0.0000    constr:    0.0000
     atom:  178    charge:    5.8304    magn:    0.0000    constr:    0.0000
     atom:  179    charge:    5.8307    magn:   -0.0000    constr:    0.0000
     atom:  180    charge:    5.8302    magn:    0.0000    constr:    0.0000
     atom:  181    charge:    5.8307    magn:   -0.0000    constr:    0.0000
     atom:  182    charge:    5.8302    magn:    0.0000    constr:    0.0000
     atom:  183    charge:    5.8307    magn:    0.0000    constr:    0.0000
     atom:  184    charge:    5.8304    magn:    0.0000    constr:    0.0000
     atom:  185    charge:    5.8307    magn:    0.0000    constr:    0.0000
     atom:  186    charge:    5.8302    magn:    0.0000    constr:    0.0000
     atom:  187    charge:    5.8307    magn:    0.0000    constr:    0.0000
     atom:  188    charge:    5.8302    magn:    0.0000    constr:    0.0000
     atom:  189    charge:    5.8303    magn:    0.0000    constr:    0.0000
     atom:  190    charge:    5.8302    magn:    0.0000    constr:    0.0000
     atom:  191    charge:    5.8302    magn:    0.0000    constr:    0.0000
     atom:  192    charge:    5.8302    magn:    0.0000    constr:    0.0000
     atom:  193    charge:    5.8298    magn:    0.0000    constr:    0.0000
     atom:  194    charge:    5.8298    magn:    0.0000    constr:    0.0000
     atom:  195    charge:    5.8302    magn:    0.0000    constr:    0.0000
     atom:  196    charge:    5.8298    magn:    0.0000    constr:    0.0000
     atom:  197    charge:    5.8298    magn:    0.0000    constr:    0.0000
     atom:  198    charge:    5.8308    magn:    0.0000    constr:    0.0000
     atom:  199    charge:    5.8305    magn:   -0.0000    constr:    0.0000
     atom:  200    charge:    5.8305    magn:    0.0000    constr:    0.0000
     atom:  201    charge:    5.8305    magn:    0.0000    constr:    0.0000
     atom:  202    charge:    5.8253    magn:   -0.0000    constr:    0.0000
     atom:  203    charge:    5.8253    magn:    0.0000    constr:    0.0000
     atom:  204    charge:    5.8305    magn:    0.0000    constr:    0.0000
     atom:  205    charge:    5.8253    magn:    0.0000    constr:    0.0000
     atom:  206    charge:    5.8253    magn:    0.0000    constr:    0.0000
     atom:  207    charge:    5.8303    magn:    0.0000    constr:    0.0000
     atom:  208    charge:    5.8302    magn:    0.0000    constr:    0.0000
     atom:  209    charge:    5.8302    magn:    0.0000    constr:    0.0000
     atom:  210    charge:    5.8302    magn:    0.0000    constr:    0.0000
     atom:  211    charge:    5.8298    magn:    0.0000    constr:    0.0000
     atom:  212    charge:    5.8298    magn:    0.0000    constr:    0.0000
     atom:  213    charge:    5.8302    magn:    0.0000    constr:    0.0000
     atom:  214    charge:    5.8298    magn:    0.0000    constr:    0.0000
     atom:  215    charge:    5.8298    magn:    0.0000    constr:    0.0000

     total cpu time spent up to now is    23935.8 secs

     End of self-consistent calculation

 ------ SPIN UP ------------


          k = 0.0000 0.0000 0.0000 ( 52700 PWs)   bands (ev):

   -71.8511 -71.8484 -71.8484 -71.8484 -71.8471 -71.8471 -71.8176 -71.8164
   -71.8164 -71.8159 -71.8142 -71.8142 -71.8142 -71.8132 -71.8132 -71.8131
   -71.8123 -71.8123 -71.8123 -71.8119 -71.8119 -71.8119 -71.8116 -71.8116
   -71.8116 -71.8114 -71.8110 -71.8110 -71.8110 -71.8110 -71.8102 -71.8102
   -71.8102 -71.8098 -71.8098 -71.8092 -71.8087 -71.8087 -71.8087 -71.8086
   -71.8085 -71.8085 -71.8085 -71.8084 -71.8084 -71.8084 -71.8080 -71.8080
   -71.8080 -71.8080 -71.8080 -71.8080 -71.8079 -71.8079 -71.8079 -71.8075
   -71.8075 -71.8075 -71.8071 -71.8071 -71.8070 -71.8070 -71.8070 -71.8069
   -71.8069 -71.8068 -71.8068 -71.8068 -71.8068 -71.8068 -71.8068 -71.8065
   -71.8063 -71.8062 -71.8062 -71.8062 -71.8057 -71.8057 -71.8057 -71.8057
   -71.8056 -71.8056 -71.8054 -71.8054 -71.8054 -71.8053 -71.8053 -71.8047
   -71.8047 -71.8047 -71.8046 -71.8045 -71.8045 -71.8043 -71.8043 -71.8043
   -71.8041 -71.8041 -71.8041 -71.8037 -71.8037 -71.8037 -71.8030 -71.8030
   -71.8029 -71.8029 -71.8029 -71.8023 -34.8354 -34.8304 -34.8304 -34.8304
   -34.8275 -34.8275 -34.8275 -34.8207 -34.8207 -34.8207 -34.8193 -34.8193
   -34.8193 -34.8179 -34.8179 -34.8177 -34.8174 -34.8174 -34.8174 -34.8171
   -34.8171 -34.8171 -34.8161 -34.8161 -34.8149 -34.8149 -34.8149 -34.8090
   -34.8090 -34.8086 -34.8086 -34.8086 -34.8082 -34.8079 -34.8079 -34.8079
   -34.8072 -34.8072 -34.8072 -34.8054 -34.8054 -34.8054 -34.8033 -34.8014
   -34.8014 -34.8014 -34.8007 -34.8007 -34.8007 -34.7999 -34.7996 -34.7996
   -34.7996 -34.7990 -34.7990 -34.7990 -34.7987 -34.7985 -34.7985 -34.7985
   -34.7984 -34.7984 -34.7984 -34.7983 -34.7983 -34.7983 -34.7982 -34.7982
   -34.7982 -34.7982 -34.7982 -34.7955 -34.7955 -34.7953 -34.7953 -34.7953
   -34.7945 -34.7945 -34.7945 -34.7941 -34.7930 -34.7930 -34.7930 -34.7929
   -34.7929 -34.7929 -34.7922 -34.7918 -34.7918 -34.7907 -34.7907 -34.7907
   -34.7904 -34.7904 -34.7904 -34.7865 -34.7865 -34.7865 -34.7859 -34.7859
   -34.7859 -34.7837 -34.7837 -34.7837 -34.7795 -34.7795 -34.7786 -34.7786
   -34.7786 -34.7772 -34.7769 -34.7769 -34.7769 -34.7756 -34.7756 -34.7756
   -34.7750 -34.7750 -34.7750 -34.7747 -34.7747 -34.7747 -34.7716 -34.7716
   -34.7716 -34.7698 -34.7698 -34.7687 -34.7687 -34.7687 -34.7680 -34.7680
   -34.7680 -34.7673 -34.7673 -34.7673 -34.7630 -34.7630 -34.7630 -34.7625
   -34.7622 -34.7622 -34.7617 -34.7617 -34.7617 -34.7617 -34.7617 -34.7617
   -34.7615 -34.7615 -34.7615 -34.7613 -34.7613 -34.7613 -34.7612 -34.7605
   -34.7602 -34.7602 -34.7597 -34.7596 -34.7596 -34.7588 -34.7588 -34.7588
   -34.7582 -34.7582 -34.7582 -34.7577 -34.7577 -34.7563 -34.7563 -34.7563
   -34.7554 -34.7554 -34.7554 -34.7519 -34.7519 -34.7519 -34.7513 -34.7513
   -34.7513 -34.7511 -34.7511 -34.7511 -34.7490 -34.7490 -34.7490 -34.7488
   -34.7488 -34.7488 -34.7487 -34.7484 -34.7483 -34.7483 -34.7483 -34.7483
   -34.7483 -34.7483 -34.7481 -34.7481 -34.7481 -34.7476 -34.7474 -34.7474
   -34.7474 -34.7474 -34.7474 -34.7468 -34.7468 -34.7457 -34.7457 -34.7457
   -34.7453 -34.7453 -34.7450 -34.7450 -34.7450 -34.7447 -34.7447 -34.7447
   -34.7447 -34.7447 -34.7447 -34.7439 -34.7436 -34.7436 -34.7436 -34.7436
   -34.7436 -34.7436 -34.7434 -34.7434 -34.7434 -34.7434 -34.7434 -34.7434
   -34.7434 -34.7434 -34.7429 -34.7429 -34.7429 -34.7429 -34.7425 -34.7425
   -34.7425 -34.7420 -34.7420 -34.7420 -34.7419 -34.7419 -34.7418 -34.7417
   -34.7417 -34.7416 -34.7409 -34.7409 -34.7409 -34.7404 -34.7404 -34.7402
   -34.7402 -34.7402 -34.7401 -34.7401 -34.7401 -34.7396 -34.7396 -34.7396
   -34.7395 -34.7395 -34.7395 -34.7391 -34.7391 -34.7390 -34.7390 -34.7390
   -34.7387 -34.7387 -34.7387 -34.7381 -34.7371 -34.7363 -34.7363 -34.7363
   -34.7327 -34.7327 -34.7327 -34.7325 -34.7325 -34.7325 -34.7324 -34.7324
   -34.7324 -34.7320 -34.7320 -34.7313 -34.7313 -34.7313 -34.7309 -34.7309
   -34.7309 -34.7309 -34.7309 -34.7309 -34.7303 -34.7303 -34.7303 -34.7300
   -34.7300 -34.7282 -34.7282 -34.7282 -34.7274 -34.7274 -34.7265 -34.7265
   -34.7265 -34.7264 -34.7264 -34.7264 -34.7258 -34.7241 -34.7241 -34.7241
   -13.1711 -12.7684 -12.7684 -12.7643 -12.7643 -12.7643 -12.7230 -12.4193
   -12.4193 -12.4162 -12.4162 -12.4162 -12.4148 -12.4148 -12.4148 -12.4125
   -12.4125 -12.4125 -12.3392 -12.1419 -12.1419 -12.1419 -12.1407 -12.1407
   -12.1407 -12.1350 -12.0977 -11.9291 -11.9291 -11.9227 -11.9227 -11.9227
   -11.9039 -11.7592 -11.7592 -11.7584 -11.7577 -11.7577 -11.7571 -11.7571
   -11.7571 -11.7570 -11.7570 -11.7570 -11.7551 -11.7551 -11.7551 -11.7520
   -11.7520 -11.7520 -11.7502 -11.7502 -11.7502 -11.7494 -11.7494 -11.7494
   -11.7222 -11.6909 -11.6909 -11.6909 -11.6894 -11.6894 -11.6894 -11.6889
   -11.6889 -11.6854 -11.6854 -11.6854 -11.6839 -11.6839 -11.6839 -11.6837
   -11.6837 -11.6837 -11.6830 -11.6821 -11.6821 -11.6821 -11.6788 -11.6788
   -11.5715 -11.5181 -11.5181 -11.5139 -11.5133 -11.5133 -11.5133 -11.5130
   -11.5130 -11.5130 -11.5112 -11.5112 -11.5089 -11.5089 -11.5089 -11.4757
   -11.4587 -11.4587 -11.4560 -11.4544 -11.4544 -11.4540 -11.4540 -11.4540
   -11.4532 -11.4532 -11.4532   1.8683   1.9054   1.9054   1.9075   1.9075
     1.9075   1.9092   1.9092   1.9092   1.9097   1.9097   1.9097   1.9103
     1.9103   1.9103   1.9110   1.9110   1.9127   1.9127   1.9127   1.9192
     1.9805   1.9805   1.9805   2.0540   2.0540   2.0540   2.3030   2.4835
     2.4835   2.4835   2.4861   2.4963   2.4963   2.4963   2.5386   2.5927
     2.5927   2.5927   2.5950   2.5950   2.5950   2.5987   2.5987   2.5987
     2.6022   2.6022   2.6022   2.6171   2.6182   2.6182   2.6182   2.6182
     2.6182   2.6182   2.6189   2.6189   2.6195   2.6195   2.6217   2.6217
     2.6217   2.6219   2.6219   2.6219   2.6245   2.6245   2.6245   2.7106
     2.7106   2.7106   2.7193   2.7421   2.7421   2.8287   2.8287   2.8287
     2.9603   2.9651   2.9651   2.9651   2.9710   2.9710   2.9710   2.9714
     2.9714   3.0449   3.0449   3.0449   3.1450   3.1450   3.1450   3.1468
     3.1468   3.1487   3.1487   3.1487   3.1520   3.3146   3.3146   3.3146
     3.5158   3.6724   3.6724   3.6749   3.6749   3.6749   3.6761   3.6761
     3.6761   3.7561   3.7561   3.7561   4.0581   4.0581   4.0581   4.0595
     4.0595   4.0595   4.0696   4.0696   4.0696   4.1310   4.1310   4.1310
     4.4924   4.4924   4.4924   4.4934   4.4934   4.4934   4.4939   4.4939
     4.4942   4.4942   4.4942   4.4947   4.4947   4.4947   4.4984   4.5019
     4.5019   4.5072   4.5072   4.5072   4.5080   4.5725   4.5725   4.5725
     4.6752   4.6801   4.6801   4.6811   4.6813   4.6813   4.6813   4.6951
     4.6951   4.7416   4.7416   4.7416   4.7479   4.8599   4.8599   4.8713
     4.8713   4.8713   4.9253   4.9469   4.9469   4.9471   4.9471   4.9471
     4.9475   4.9475   4.9475   4.9477   4.9477   4.9477   4.9504   4.9506
     4.9506   4.9506   4.9510   4.9510   4.9558   4.9558   4.9558   5.0113
     5.0113   5.0113   5.0355   5.0355   5.0355   5.1256   5.1256   5.1256
     5.3717   5.3717   5.3717   5.3718   5.3718   5.3718   5.3750   5.3750
     5.3750   5.3770   5.3770   5.3770   5.3935   5.3966   5.3966   5.3966
     5.3976   5.3986   5.3986   5.3994   5.3994   5.3994   5.4037   5.4037
     5.4037   5.4041   5.4041   5.4041   5.4089   5.4089   5.4089   5.4116
     5.4116   5.4128   5.4128   5.4128   5.4131   5.4177   5.4177   5.4177
     5.4201   5.4201   5.4205   5.4205   5.4205   5.4782   5.4782   5.4782
     5.5089   5.5089   5.5089   5.5138   5.5138   5.5187   5.5187   5.5187
     5.5234   5.5522   5.5522   5.5522   5.5891   5.5919   5.5919   5.5927
     5.5927   5.5927   5.5945   5.5945   5.5953   5.5953   5.5953   5.5972
     5.5972   5.5972   5.5979   5.5979   5.5979   5.5988   5.5991   5.5991
     5.5991   5.8970   5.8970   5.8970   5.9826   5.9826   5.9837   5.9837
     5.9837   5.9899   5.9899   5.9908   5.9908   5.9908   5.9912   5.9912
     5.9912   6.0775   6.0775   6.0775   6.1292   6.1292   6.1292   6.1294
     6.1294   6.1294   6.1360   6.1360   6.1360   6.1702   6.1702   6.1702
     6.1917   6.1924   6.1924   6.1924   6.1938   6.1938   6.1938   6.1944
     6.1944   6.5673   6.5673   6.5673  10.1494  15.1571  16.6119  16.6119
    16.6119  17.0874  17.0874  17.3124  17.4430  17.4430  17.4430  18.1418
    18.1436  18.1436  18.1436  18.1592  18.1592  18.1592  18.1837  18.2573
    18.2573  18.2602  18.2602  18.2602  18.2615  18.2615  18.2615  18.7027
    18.7027  18.7027  18.8581  19.3417  19.3417  19.3417  19.4995  19.4995
    19.4995  19.5020  19.5020  19.5031  19.5031  19.5031  19.5038  19.5038
    19.5038  19.5054  19.5067  19.5067  19.5067  19.5091  19.5091  19.5214
    19.5214  19.5214  19.6933  19.6933  19.6933  19.8992  20.0466  20.0466
    20.1425  20.1425  20.1425  20.3067  20.3067  20.3135  20.3268  20.3268
    20.3268  20.3437  20.6826  20.6826  20.6845  20.8031  20.8031  20.8136
    20.8136  20.8136  20.8143  20.8143  20.8143  20.8143  20.8149  20.8149
    20.8149  20.8172  20.8172  20.8172  20.8219  20.8219  20.8224  20.8224
    20.8224  20.8694  20.8721  20.8721  20.8721  20.8731  20.8731  20.8731
    20.8917  20.8917  20.8917  20.8963  20.8963  20.9827  20.9827  20.9827
    21.0274  21.0274  21.0274  21.0303  21.0303  21.0303  21.0462  21.0462
    21.0462  21.3266  21.3266  21.3266  21.5809  21.5891  21.5891  21.5929
    21.5929  21.5929  21.5942  21.5998  21.5998  21.5998  21.6009  21.6009
    21.6009  21.6016  21.6016  21.6016  21.6047  21.6047  21.6502  21.6502
    21.6502  21.9700  21.9700  21.9700  22.1842  22.2828  22.2828  22.2855
    22.2855  22.2855  22.2926  22.3051  22.3051  22.3719  22.3719  22.3719
    22.7851  22.7858  22.7858  22.7858  22.7864  22.7864  22.8115  22.8115
    22.8115  22.8273  22.8273  22.8273  23.1080  23.1081  23.1081  23.1081
    23.1221  23.1221  23.1269  23.1269  23.1269  23.1395  23.1395  23.1395
    23.1596  23.1596  23.1695  23.1779  23.1779  23.1779  23.2011  23.2085
    23.2346  23.2346  23.2346  23.2366  23.2366  23.2366  23.2381  23.2384
    23.2384  23.2396  23.2396  23.2396  23.2412  23.2417  23.2417  23.2433

     occupation numbers 
     1.0000   1.0000   1.0000   1.0000   1.0000   1.0000   1.0000   1.0000
     1.0000   1.0000   1.0000   1.0000   1.0000   1.0000   1.0000   1.0000
     1.0000   1.0000   1.0000   1.0000   1.0000   1.0000   1.0000   1.0000
     1.0000   1.0000   1.0000   1.0000   1.0000   1.0000   1.0000   1.0000
     1.0000   1.0000   1.0000   1.0000   1.0000   1.0000   1.0000   1.0000
     1.0000   1.0000   1.0000   1.0000   1.0000   1.0000   1.0000   1.0000
     1.0000   1.0000   1.0000   1.0000   1.0000   1.0000   1.0000   1.0000
     1.0000   1.0000   1.0000   1.0000   1.0000   1.0000   1.0000   1.0000
     1.0000   1.0000   1.0000   1.0000   1.0000   1.0000   1.0000   1.0000
     1.0000   1.0000   1.0000   1.0000   1.0000   1.0000   1.0000   1.0000
     1.0000   1.0000   1.0000   1.0000   1.0000   1.0000   1.0000   1.0000
     1.0000   1.0000   1.0000   1.0000   1.0000   1.0000   1.0000   1.0000
     1.0000   1.0000   1.0000   1.0000   1.0000   1.0000   1.0000   1.0000
     1.0000   1.0000   1.0000   1.0000   1.0000   1.0000   1.0000   1.0000
     1.0000   1.0000   1.0000   1.0000   1.0000   1.0000   1.0000   1.0000
     1.0000   1.0000   1.0000   1.0000   1.0000   1.0000   1.0000   1.0000
     1.0000   1.0000   1.0000   1.0000   1.0000   1.0000   1.0000   1.0000
     1.0000   1.0000   1.0000   1.0000   1.0000   1.0000   1.0000   1.0000
     1.0000   1.0000   1.0000   1.0000   1.0000   1.0000   1.0000   1.0000
     1.0000   1.0000   1.0000   1.0000   1.0000   1.0000   1.0000   1.0000
     1.0000   1.0000   1.0000   1.0000   1.0000   1.0000   1.0000   1.0000
     1.0000   1.0000   1.0000   1.0000   1.0000   1.0000   1.0000   1.0000
     1.0000   1.0000   1.0000   1.0000   1.0000   1.0000   1.0000   1.0000
     1.0000   1.0000   1.0000   1.0000   1.0000   1.0000   1.0000   1.0000
     1.0000   1.0000   1.0000   1.0000   1.0000   1.0000   1.0000   1.0000
     1.0000   1.0000   1.0000   1.0000   1.0000   1.0000   1.0000   1.0000
     1.0000   1.0000   1.0000   1.0000   1.0000   1.0000   1.0000   1.0000
     1.0000   1.0000   1.0000   1.0000   1.0000   1.0000   1.0000   1.0000
     1.0000   1.0000   1.0000   1.0000   1.0000   1.0000   1.0000   1.0000
     1.0000   1.0000   1.0000   1.0000   1.0000   1.0000   1.0000   1.0000
     1.0000   1.0000   1.0000   1.0000   1.0000   1.0000   1.0000   1.0000
     1.0000   1.0000   1.0000   1.0000   1.0000   1.0000   1.0000   1.0000
     1.0000   1.0000   1.0000   1.0000   1.0000   1.0000   1.0000   1.0000
     1.0000   1.0000   1.0000   1.0000   1.0000   1.0000   1.0000   1.0000
     1.0000   1.0000   1.0000   1.0000   1.0000   1.0000   1.0000   1.0000
     1.0000   1.0000   1.0000   1.0000   1.0000   1.0000   1.0000   1.0000
     1.0000   1.0000   1.0000   1.0000   1.0000   1.0000   1.0000   1.0000
     1.0000   1.0000   1.0000   1.0000   1.0000   1.0000   1.0000   1.0000
     1.0000   1.0000   1.0000   1.0000   1.0000   1.0000   1.0000   1.0000
     1.0000   1.0000   1.0000   1.0000   1.0000   1.0000   1.0000   1.0000
     1.0000   1.0000   1.0000   1.0000   1.0000   1.0000   1.0000   1.0000
     1.0000   1.0000   1.0000   1.0000   1.0000   1.0000   1.0000   1.0000
     1.0000   1.0000   1.0000   1.0000   1.0000   1.0000   1.0000   1.0000
     1.0000   1.0000   1.0000   1.0000   1.0000   1.0000   1.0000   1.0000
     1.0000   1.0000   1.0000   1.0000   1.0000   1.0000   1.0000   1.0000
     1.0000   1.0000   1.0000   1.0000   1.0000   1.0000   1.0000   1.0000
     1.0000   1.0000   1.0000   1.0000   1.0000   1.0000   1.0000   1.0000
     1.0000   1.0000   1.0000   1.0000   1.0000   1.0000   1.0000   1.0000
     1.0000   1.0000   1.0000   1.0000   1.0000   1.0000   1.0000   1.0000
     1.0000   1.0000   1.0000   1.0000   1.0000   1.0000   1.0000   1.0000
     1.0000   1.0000   1.0000   1.0000   1.0000   1.0000   1.0000   1.0000
     1.0000   1.0000   1.0000   1.0000   1.0000   1.0000   1.0000   1.0000
     1.0000   1.0000   1.0000   1.0000   1.0000   1.0000   1.0000   1.0000
     1.0000   1.0000   1.0000   1.0000   1.0000   1.0000   1.0000   1.0000
     1.0000   1.0000   1.0000   1.0000   1.0000   1.0000   1.0000   1.0000
     1.0000   1.0000   1.0000   1.0000   1.0000   1.0000   1.0000   1.0000
     1.0000   1.0000   1.0000   1.0000   1.0000   1.0000   1.0000   1.0000
     1.0000   1.0000   1.0000   1.0000   1.0000   1.0000   1.0000   1.0000
     1.0000   1.0000   1.0000   1.0000   1.0000   1.0000   1.0000   1.0000
     1.0000   1.0000   1.0000   1.0000   1.0000   1.0000   1.0000   1.0000
     1.0000   1.0000   1.0000   1.0000   1.0000   1.0000   1.0000   1.0000
     1.0000   1.0000   1.0000   1.0000   1.0000   1.0000   1.0000   1.0000
     1.0000   1.0000   1.0000   1.0000   1.0000   1.0000   1.0000   1.0000
     1.0000   1.0000   1.0000   1.0000   1.0000   1.0000   1.0000   1.0000
     1.0000   1.0000   1.0000   1.0000   1.0000   1.0000   1.0000   1.0000
     1.0000   1.0000   1.0000   1.0000   1.0000   1.0000   1.0000   1.0000
     1.0000   1.0000   1.0000   1.0000   1.0000   1.0000   1.0000   1.0000
     1.0000   1.0000   1.0000   1.0000   1.0000   1.0000   1.0000   1.0000
     1.0000   1.0000   1.0000   1.0000   1.0000   1.0000   1.0000   1.0000
     1.0000   1.0000   1.0000   1.0000   1.0000   1.0000   1.0000   1.0000
     1.0000   1.0000   1.0000   1.0000   1.0000   1.0000   1.0000   1.0000
     1.0000   1.0000   1.0000   1.0000   1.0000   1.0000   1.0000   1.0000
     1.0000   1.0000   1.0000   1.0000   1.0000   1.0000   1.0000   1.0000
     1.0000   1.0000   1.0000   1.0000   1.0000   1.0000   1.0000   1.0000
     1.0000   1.0000   1.0000   1.0000   1.0000   1.0000   1.0000   1.0000
     1.0000   1.0000   1.0000   1.0000   1.0000   1.0000   1.0000   1.0000
     1.0000   1.0000   1.0000   1.0000   1.0000   1.0000   1.0000   1.0000
     1.0000   1.0000   1.0000   1.0000   1.0000   1.0000   1.0000   1.0000
     1.0000   1.0000   1.0000   1.0000   1.0000   1.0000   1.0000   1.0000
     1.0000   1.0000   1.0000   1.0000   1.0000   1.0000   1.0000   1.0000
     1.0000   1.0000   1.0000   1.0000   1.0000   1.0000   1.0000   1.0000
     1.0000   1.0000   1.0000   1.0000   1.0000   1.0000   1.0000   1.0000
     1.0000   1.0000   1.0000   1.0000   1.0000   1.0000   1.0000   1.0000
     1.0000   1.0000   1.0000   1.0000   1.0000   1.0000   1.0000   1.0000
     1.0000   1.0000   1.0000   1.0000   1.0000   1.0000   1.0000   1.0000
     1.0000   1.0000   1.0000   1.0000   1.0000   1.0000   1.0000   1.0000
     1.0000   1.0000   1.0000   1.0000   1.0000   1.0000   1.0000   1.0000
     1.0000   1.0000   1.0000   1.0000   1.0000   1.0000   1.0000   1.0000
     1.0000   1.0000   1.0000   1.0000   1.0000   1.0000   1.0000   1.0000
     1.0000   1.0000   1.0000   1.0000   1.0000   1.0000   1.0000   1.0000
     1.0000   1.0000   1.0000   1.0000   1.0000   1.0000   1.0000   1.0000
     1.0000   1.0000   1.0000   1.0000   1.0000   1.0000   1.0000   1.0000
     1.0000   1.0000   1.0000   1.0000   1.0000   1.0000   1.0000   1.0000
     1.0000   1.0000   1.0000   1.0000   1.0000   1.0000   1.0000   1.0000
     1.0000   1.0000   1.0000   1.0000   1.0000   1.0000   1.0000   1.0000
     1.0000   1.0000   1.0000   1.0000   1.0000   1.0000   1.0000   1.0000
     1.0000   1.0000   1.0000   1.0000   1.0000   1.0000   1.0000   1.0000
     1.0000   1.0000   1.0000   1.0000   1.0000   1.0000   1.0000   1.0000
     1.0000   1.0000   1.0000   1.0000   1.0000   1.0000   1.0000   1.0000
     1.0000   1.0000   1.0000   1.0000   1.0000   1.0000   1.0000   1.0000
     1.0000   1.0000   1.0000   1.0000   1.0000   1.0000   1.0000   1.0000
     1.0000   1.0000   1.0000   1.0000   1.0000   1.0000   1.0000   1.0000
     1.0000   1.0000   1.0000   1.0000   1.0000   1.0000   1.0000   1.0000
     1.0000   1.0000   1.0000   1.0000   1.0000   1.0000   1.0000   1.0000
     1.0000   1.0000   1.0000   1.0000   1.0000   1.0000   1.0000   1.0000
     1.0000   1.0000   1.0000   1.0000   1.0000   1.0000   1.0000   1.0000
     1.0000   1.0000   1.0000   1.0000   1.0000   1.0000   1.0000   1.0000
     1.0000   1.0000   1.0000   1.0000   1.0000   0.0000   0.0000   0.0000
     0.0000   0.0000   0.0000   0.0000   0.0000   0.0000   0.0000   0.0000
     0.0000   0.0000   0.0000   0.0000   0.0000   0.0000   0.0000   0.0000
     0.0000   0.0000   0.0000   0.0000   0.0000   0.0000   0.0000   0.0000
     0.0000   0.0000   0.0000   0.0000   0.0000   0.0000   0.0000   0.0000
     0.0000   0.0000   0.0000   0.0000   0.0000   0.0000   0.0000   0.0000
     0.0000   0.0000   0.0000   0.0000   0.0000   0.0000   0.0000   0.0000
     0.0000   0.0000   0.0000   0.0000   0.0000   0.0000   0.0000   0.0000
     0.0000   0.0000   0.0000   0.0000   0.0000   0.0000   0.0000   0.0000
     0.0000   0.0000   0.0000   0.0000   0.0000   0.0000   0.0000   0.0000
     0.0000   0.0000   0.0000   0.0000   0.0000   0.0000   0.0000   0.0000
     0.0000   0.0000   0.0000   0.0000   0.0000   0.0000   0.0000   0.0000
     0.0000   0.0000   0.0000   0.0000   0.0000   0.0000   0.0000   0.0000
     0.0000   0.0000   0.0000   0.0000   0.0000   0.0000   0.0000   0.0000
     0.0000   0.0000   0.0000   0.0000   0.0000   0.0000   0.0000   0.0000
     0.0000   0.0000   0.0000   0.0000   0.0000   0.0000   0.0000   0.0000
     0.0000   0.0000   0.0000   0.0000   0.0000   0.0000   0.0000   0.0000
     0.0000   0.0000   0.0000   0.0000   0.0000   0.0000   0.0000   0.0000
     0.0000   0.0000   0.0000   0.0000   0.0000   0.0000   0.0000   0.0000
     0.0000   0.0000   0.0000   0.0000   0.0000   0.0000   0.0000   0.0000
     0.0000   0.0000   0.0000   0.0000   0.0000   0.0000   0.0000   0.0000
     0.0000   0.0000   0.0000   0.0000   0.0000   0.0000   0.0000   0.0000
     0.0000   0.0000   0.0000   0.0000   0.0000   0.0000   0.0000   0.0000
     0.0000   0.0000   0.0000   0.0000   0.0000   0.0000   0.0000   0.0000
     0.0000   0.0000   0.0000   0.0000   0.0000   0.0000   0.0000   0.0000
     0.0000   0.0000   0.0000   0.0000   0.0000   0.0000   0.0000   0.0000

 ------ SPIN DOWN ----------


          k = 0.0000 0.0000 0.0000 ( 52700 PWs)   bands (ev):

   -71.8511 -71.8484 -71.8484 -71.8484 -71.8471 -71.8471 -71.8176 -71.8164
   -71.8164 -71.8159 -71.8142 -71.8142 -71.8142 -71.8132 -71.8132 -71.8131
   -71.8123 -71.8123 -71.8123 -71.8119 -71.8119 -71.8119 -71.8116 -71.8116
   -71.8116 -71.8114 -71.8110 -71.8110 -71.8110 -71.8110 -71.8102 -71.8102
   -71.8102 -71.8098 -71.8098 -71.8092 -71.8087 -71.8087 -71.8087 -71.8086
   -71.8085 -71.8085 -71.8085 -71.8084 -71.8084 -71.8084 -71.8080 -71.8080
   -71.8080 -71.8080 -71.8080 -71.8080 -71.8079 -71.8079 -71.8079 -71.8075
   -71.8075 -71.8075 -71.8071 -71.8071 -71.8070 -71.8070 -71.8070 -71.8069
   -71.8069 -71.8068 -71.8068 -71.8068 -71.8068 -71.8068 -71.8068 -71.8065
   -71.8063 -71.8062 -71.8062 -71.8062 -71.8057 -71.8057 -71.8057 -71.8057
   -71.8056 -71.8056 -71.8054 -71.8054 -71.8054 -71.8053 -71.8053 -71.8047
   -71.8047 -71.8047 -71.8046 -71.8045 -71.8045 -71.8043 -71.8043 -71.8043
   -71.8041 -71.8041 -71.8041 -71.8037 -71.8037 -71.8037 -71.8030 -71.8030
   -71.8029 -71.8029 -71.8029 -71.8023 -34.8354 -34.8304 -34.8304 -34.8304
   -34.8275 -34.8275 -34.8275 -34.8207 -34.8207 -34.8207 -34.8193 -34.8193
   -34.8193 -34.8179 -34.8179 -34.8177 -34.8174 -34.8174 -34.8174 -34.8171
   -34.8171 -34.8171 -34.8161 -34.8161 -34.8149 -34.8149 -34.8149 -34.8090
   -34.8090 -34.8086 -34.8086 -34.8086 -34.8082 -34.8079 -34.8079 -34.8079
   -34.8072 -34.8072 -34.8072 -34.8054 -34.8054 -34.8054 -34.8033 -34.8014
   -34.8014 -34.8014 -34.8007 -34.8007 -34.8007 -34.7999 -34.7996 -34.7996
   -34.7996 -34.7990 -34.7990 -34.7990 -34.7987 -34.7985 -34.7985 -34.7985
   -34.7984 -34.7984 -34.7984 -34.7983 -34.7983 -34.7983 -34.7982 -34.7982
   -34.7982 -34.7982 -34.7982 -34.7955 -34.7955 -34.7953 -34.7953 -34.7953
   -34.7945 -34.7945 -34.7945 -34.7941 -34.7930 -34.7930 -34.7930 -34.7929
   -34.7929 -34.7929 -34.7922 -34.7918 -34.7918 -34.7907 -34.7907 -34.7907
   -34.7904 -34.7904 -34.7904 -34.7865 -34.7865 -34.7865 -34.7859 -34.7859
   -34.7859 -34.7837 -34.7837 -34.7837 -34.7795 -34.7795 -34.7786 -34.7786
   -34.7786 -34.7772 -34.7769 -34.7769 -34.7769 -34.7756 -34.7756 -34.7756
   -34.7750 -34.7750 -34.7750 -34.7747 -34.7747 -34.7747 -34.7716 -34.7716
   -34.7716 -34.7698 -34.7698 -34.7687 -34.7687 -34.7687 -34.7680 -34.7680
   -34.7680 -34.7673 -34.7673 -34.7673 -34.7630 -34.7630 -34.7630 -34.7625
   -34.7622 -34.7622 -34.7617 -34.7617 -34.7617 -34.7617 -34.7617 -34.7617
   -34.7615 -34.7615 -34.7615 -34.7613 -34.7613 -34.7613 -34.7612 -34.7605
   -34.7602 -34.7602 -34.7597 -34.7596 -34.7596 -34.7588 -34.7588 -34.7588
   -34.7582 -34.7582 -34.7582 -34.7577 -34.7577 -34.7563 -34.7563 -34.7563
   -34.7554 -34.7554 -34.7554 -34.7519 -34.7519 -34.7519 -34.7513 -34.7513
   -34.7513 -34.7511 -34.7511 -34.7511 -34.7490 -34.7490 -34.7490 -34.7488
   -34.7488 -34.7488 -34.7487 -34.7484 -34.7483 -34.7483 -34.7483 -34.7483
   -34.7483 -34.7483 -34.7481 -34.7481 -34.7481 -34.7476 -34.7474 -34.7474
   -34.7474 -34.7474 -34.7474 -34.7468 -34.7468 -34.7457 -34.7457 -34.7457
   -34.7453 -34.7453 -34.7450 -34.7450 -34.7450 -34.7447 -34.7447 -34.7447
   -34.7447 -34.7447 -34.7447 -34.7439 -34.7436 -34.7436 -34.7436 -34.7436
   -34.7436 -34.7436 -34.7434 -34.7434 -34.7434 -34.7434 -34.7434 -34.7434
   -34.7434 -34.7434 -34.7429 -34.7429 -34.7429 -34.7429 -34.7425 -34.7425
   -34.7425 -34.7420 -34.7420 -34.7420 -34.7419 -34.7419 -34.7418 -34.7417
   -34.7417 -34.7416 -34.7409 -34.7409 -34.7409 -34.7404 -34.7404 -34.7402
   -34.7402 -34.7402 -34.7401 -34.7401 -34.7401 -34.7396 -34.7396 -34.7396
   -34.7395 -34.7395 -34.7395 -34.7391 -34.7391 -34.7390 -34.7390 -34.7390
   -34.7387 -34.7387 -34.7387 -34.7381 -34.7371 -34.7363 -34.7363 -34.7363
   -34.7327 -34.7327 -34.7327 -34.7325 -34.7325 -34.7325 -34.7324 -34.7324
   -34.7324 -34.7320 -34.7320 -34.7313 -34.7313 -34.7313 -34.7309 -34.7309
   -34.7309 -34.7309 -34.7309 -34.7309 -34.7303 -34.7303 -34.7303 -34.7300
   -34.7300 -34.7282 -34.7282 -34.7282 -34.7274 -34.7274 -34.7265 -34.7265
   -34.7265 -34.7264 -34.7264 -34.7264 -34.7258 -34.7241 -34.7241 -34.7241
   -13.1711 -12.7684 -12.7684 -12.7643 -12.7643 -12.7643 -12.7230 -12.4193
   -12.4193 -12.4162 -12.4162 -12.4162 -12.4148 -12.4148 -12.4148 -12.4125
   -12.4125 -12.4125 -12.3392 -12.1419 -12.1419 -12.1419 -12.1407 -12.1407
   -12.1407 -12.1350 -12.0977 -11.9291 -11.9291 -11.9227 -11.9227 -11.9227
   -11.9039 -11.7592 -11.7592 -11.7584 -11.7577 -11.7577 -11.7571 -11.7571
   -11.7571 -11.7570 -11.7570 -11.7570 -11.7551 -11.7551 -11.7551 -11.7520
   -11.7520 -11.7520 -11.7502 -11.7502 -11.7502 -11.7494 -11.7494 -11.7494
   -11.7222 -11.6909 -11.6909 -11.6909 -11.6894 -11.6894 -11.6894 -11.6889
   -11.6889 -11.6854 -11.6854 -11.6854 -11.6839 -11.6839 -11.6839 -11.6837
   -11.6837 -11.6837 -11.6830 -11.6821 -11.6821 -11.6821 -11.6788 -11.6788
   -11.5715 -11.5181 -11.5181 -11.5139 -11.5133 -11.5133 -11.5133 -11.5130
   -11.5130 -11.5130 -11.5112 -11.5112 -11.5089 -11.5089 -11.5089 -11.4757
   -11.4587 -11.4587 -11.4560 -11.4544 -11.4544 -11.4540 -11.4540 -11.4540
   -11.4532 -11.4532 -11.4532   1.8683   1.9054   1.9054   1.9075   1.9075
     1.9075   1.9092   1.9092   1.9092   1.9097   1.9097   1.9097   1.9103
     1.9103   1.9103   1.9110   1.9110   1.9127   1.9127   1.9127   1.9192
     1.9805   1.9805   1.9805   2.0540   2.0540   2.0540   2.3030   2.4835
     2.4835   2.4835   2.4861   2.4963   2.4963   2.4963   2.5386   2.5927
     2.5927   2.5927   2.5950   2.5950   2.5950   2.5987   2.5987   2.5987
     2.6022   2.6022   2.6022   2.6171   2.6182   2.6182   2.6182   2.6182
     2.6182   2.6182   2.6189   2.6189   2.6195   2.6195   2.6217   2.6217
     2.6217   2.6219   2.6219   2.6219   2.6245   2.6245   2.6245   2.7106
     2.7106   2.7106   2.7193   2.7421   2.7421   2.8287   2.8287   2.8287
     2.9603   2.9651   2.9651   2.9651   2.9710   2.9710   2.9710   2.9714
     2.9714   3.0449   3.0449   3.0449   3.1450   3.1450   3.1450   3.1468
     3.1468   3.1487   3.1487   3.1487   3.1520   3.3146   3.3146   3.3146
     3.5158   3.6724   3.6724   3.6749   3.6749   3.6749   3.6761   3.6761
     3.6761   3.7561   3.7561   3.7561   4.0581   4.0581   4.0581   4.0595
     4.0595   4.0595   4.0696   4.0696   4.0696   4.1310   4.1310   4.1310
     4.4924   4.4924   4.4924   4.4934   4.4934   4.4934   4.4939   4.4939
     4.4942   4.4942   4.4942   4.4947   4.4947   4.4947   4.4984   4.5019
     4.5019   4.5072   4.5072   4.5072   4.5080   4.5725   4.5725   4.5725
     4.6752   4.6801   4.6801   4.6811   4.6813   4.6813   4.6813   4.6951
     4.6951   4.7416   4.7416   4.7416   4.7479   4.8599   4.8599   4.8713
     4.8713   4.8713   4.9253   4.9469   4.9469   4.9471   4.9471   4.9471
     4.9475   4.9475   4.9475   4.9477   4.9477   4.9477   4.9504   4.9506
     4.9506   4.9506   4.9510   4.9510   4.9558   4.9558   4.9558   5.0113
     5.0113   5.0113   5.0355   5.0355   5.0355   5.1256   5.1256   5.1256
     5.3717   5.3717   5.3717   5.3718   5.3718   5.3718   5.3750   5.3750
     5.3750   5.3770   5.3770   5.3770   5.3935   5.3966   5.3966   5.3966
     5.3976   5.3986   5.3986   5.3994   5.3994   5.3994   5.4037   5.4037
     5.4037   5.4041   5.4041   5.4041   5.4089   5.4089   5.4089   5.4116
     5.4116   5.4128   5.4128   5.4128   5.4131   5.4177   5.4177   5.4177
     5.4201   5.4201   5.4205   5.4205   5.4205   5.4782   5.4782   5.4782
     5.5089   5.5089   5.5089   5.5138   5.5138   5.5187   5.5187   5.5187
     5.5234   5.5522   5.5522   5.5522   5.5891   5.5919   5.5919   5.5927
     5.5927   5.5927   5.5945   5.5945   5.5953   5.5953   5.5953   5.5972
     5.5972   5.5972   5.5979   5.5979   5.5979   5.5988   5.5991   5.5991
     5.5991   5.8970   5.8970   5.8970   5.9826   5.9826   5.9837   5.9837
     5.9837   5.9899   5.9899   5.9908   5.9908   5.9908   5.9912   5.9912
     5.9912   6.0775   6.0775   6.0775   6.1292   6.1292   6.1292   6.1294
     6.1294   6.1294   6.1360   6.1360   6.1360   6.1702   6.1702   6.1702
     6.1917   6.1924   6.1924   6.1924   6.1938   6.1938   6.1938   6.1944
     6.1944   6.5673   6.5673   6.5673  10.1494  15.1571  16.6119  16.6119
    16.6119  17.0874  17.0874  17.3124  17.4430  17.4430  17.4430  18.1418
    18.1436  18.1436  18.1436  18.1592  18.1592  18.1592  18.1837  18.2573
    18.2573  18.2602  18.2602  18.2602  18.2615  18.2615  18.2615  18.7027
    18.7027  18.7027  18.8581  19.3417  19.3417  19.3417  19.4995  19.4995
    19.4995  19.5020  19.5020  19.5031  19.5031  19.5031  19.5038  19.5038
    19.5038  19.5054  19.5067  19.5067  19.5067  19.5091  19.5091  19.5214
    19.5214  19.5214  19.6933  19.6933  19.6933  19.8992  20.0466  20.0466
    20.1425  20.1425  20.1425  20.3067  20.3067  20.3135  20.3268  20.3268
    20.3268  20.3437  20.6826  20.6826  20.6845  20.8031  20.8031  20.8136
    20.8136  20.8136  20.8143  20.8143  20.8143  20.8143  20.8149  20.8149
    20.8149  20.8172  20.8172  20.8172  20.8219  20.8219  20.8224  20.8224
    20.8224  20.8694  20.8721  20.8721  20.8721  20.8731  20.8731  20.8731
    20.8917  20.8917  20.8917  20.8963  20.8963  20.9827  20.9827  20.9827
    21.0274  21.0274  21.0274  21.0303  21.0303  21.0303  21.0462  21.0462
    21.0462  21.3266  21.3266  21.3266  21.5809  21.5891  21.5891  21.5929
    21.5929  21.5929  21.5942  21.5998  21.5998  21.5998  21.6009  21.6009
    21.6009  21.6016  21.6016  21.6016  21.6047  21.6047  21.6502  21.6502
    21.6502  21.9700  21.9700  21.9700  22.1842  22.2828  22.2828  22.2855
    22.2855  22.2855  22.2926  22.3051  22.3051  22.3719  22.3719  22.3719
    22.7851  22.7858  22.7858  22.7858  22.7864  22.7864  22.8115  22.8115
    22.8115  22.8273  22.8273  22.8273  23.1080  23.1081  23.1081  23.1081
    23.1221  23.1221  23.1269  23.1269  23.1269  23.1395  23.1395  23.1395
    23.1596  23.1596  23.1695  23.1779  23.1779  23.1779  23.2011  23.2085
    23.2346  23.2346  23.2346  23.2366  23.2366  23.2366  23.2381  23.2384
    23.2384  23.2396  23.2396  23.2396  23.2412  23.2417  23.2417  23.2433

     occupation numbers 
     1.0000   1.0000   1.0000   1.0000   1.0000   1.0000   1.0000   1.0000
     1.0000   1.0000   1.0000   1.0000   1.0000   1.0000   1.0000   1.0000
     1.0000   1.0000   1.0000   1.0000   1.0000   1.0000   1.0000   1.0000
     1.0000   1.0000   1.0000   1.0000   1.0000   1.0000   1.0000   1.0000
     1.0000   1.0000   1.0000   1.0000   1.0000   1.0000   1.0000   1.0000
     1.0000   1.0000   1.0000   1.0000   1.0000   1.0000   1.0000   1.0000
     1.0000   1.0000   1.0000   1.0000   1.0000   1.0000   1.0000   1.0000
     1.0000   1.0000   1.0000   1.0000   1.0000   1.0000   1.0000   1.0000
     1.0000   1.0000   1.0000   1.0000   1.0000   1.0000   1.0000   1.0000
     1.0000   1.0000   1.0000   1.0000   1.0000   1.0000   1.0000   1.0000
     1.0000   1.0000   1.0000   1.0000   1.0000   1.0000   1.0000   1.0000
     1.0000   1.0000   1.0000   1.0000   1.0000   1.0000   1.0000   1.0000
     1.0000   1.0000   1.0000   1.0000   1.0000   1.0000   1.0000   1.0000
     1.0000   1.0000   1.0000   1.0000   1.0000   1.0000   1.0000   1.0000
     1.0000   1.0000   1.0000   1.0000   1.0000   1.0000   1.0000   1.0000
     1.0000   1.0000   1.0000   1.0000   1.0000   1.0000   1.0000   1.0000
     1.0000   1.0000   1.0000   1.0000   1.0000   1.0000   1.0000   1.0000
     1.0000   1.0000   1.0000   1.0000   1.0000   1.0000   1.0000   1.0000
     1.0000   1.0000   1.0000   1.0000   1.0000   1.0000   1.0000   1.0000
     1.0000   1.0000   1.0000   1.0000   1.0000   1.0000   1.0000   1.0000
     1.0000   1.0000   1.0000   1.0000   1.0000   1.0000   1.0000   1.0000
     1.0000   1.0000   1.0000   1.0000   1.0000   1.0000   1.0000   1.0000
     1.0000   1.0000   1.0000   1.0000   1.0000   1.0000   1.0000   1.0000
     1.0000   1.0000   1.0000   1.0000   1.0000   1.0000   1.0000   1.0000
     1.0000   1.0000   1.0000   1.0000   1.0000   1.0000   1.0000   1.0000
     1.0000   1.0000   1.0000   1.0000   1.0000   1.0000   1.0000   1.0000
     1.0000   1.0000   1.0000   1.0000   1.0000   1.0000   1.0000   1.0000
     1.0000   1.0000   1.0000   1.0000   1.0000   1.0000   1.0000   1.0000
     1.0000   1.0000   1.0000   1.0000   1.0000   1.0000   1.0000   1.0000
     1.0000   1.0000   1.0000   1.0000   1.0000   1.0000   1.0000   1.0000
     1.0000   1.0000   1.0000   1.0000   1.0000   1.0000   1.0000   1.0000
     1.0000   1.0000   1.0000   1.0000   1.0000   1.0000   1.0000   1.0000
     1.0000   1.0000   1.0000   1.0000   1.0000   1.0000   1.0000   1.0000
     1.0000   1.0000   1.0000   1.0000   1.0000   1.0000   1.0000   1.0000
     1.0000   1.0000   1.0000   1.0000   1.0000   1.0000   1.0000   1.0000
     1.0000   1.0000   1.0000   1.0000   1.0000   1.0000   1.0000   1.0000
     1.0000   1.0000   1.0000   1.0000   1.0000   1.0000   1.0000   1.0000
     1.0000   1.0000   1.0000   1.0000   1.0000   1.0000   1.0000   1.0000
     1.0000   1.0000   1.0000   1.0000   1.0000   1.0000   1.0000   1.0000
     1.0000   1.0000   1.0000   1.0000   1.0000   1.0000   1.0000   1.0000
     1.0000   1.0000   1.0000   1.0000   1.0000   1.0000   1.0000   1.0000
     1.0000   1.0000   1.0000   1.0000   1.0000   1.0000   1.0000   1.0000
     1.0000   1.0000   1.0000   1.0000   1.0000   1.0000   1.0000   1.0000
     1.0000   1.0000   1.0000   1.0000   1.0000   1.0000   1.0000   1.0000
     1.0000   1.0000   1.0000   1.0000   1.0000   1.0000   1.0000   1.0000
     1.0000   1.0000   1.0000   1.0000   1.0000   1.0000   1.0000   1.0000
     1.0000   1.0000   1.0000   1.0000   1.0000   1.0000   1.0000   1.0000
     1.0000   1.0000   1.0000   1.0000   1.0000   1.0000   1.0000   1.0000
     1.0000   1.0000   1.0000   1.0000   1.0000   1.0000   1.0000   1.0000
     1.0000   1.0000   1.0000   1.0000   1.0000   1.0000   1.0000   1.0000
     1.0000   1.0000   1.0000   1.0000   1.0000   1.0000   1.0000   1.0000
     1.0000   1.0000   1.0000   1.0000   1.0000   1.0000   1.0000   1.0000
     1.0000   1.0000   1.0000   1.0000   1.0000   1.0000   1.0000   1.0000
     1.0000   1.0000   1.0000   1.0000   1.0000   1.0000   1.0000   1.0000
     1.0000   1.0000   1.0000   1.0000   1.0000   1.0000   1.0000   1.0000
     1.0000   1.0000   1.0000   1.0000   1.0000   1.0000   1.0000   1.0000
     1.0000   1.0000   1.0000   1.0000   1.0000   1.0000   1.0000   1.0000
     1.0000   1.0000   1.0000   1.0000   1.0000   1.0000   1.0000   1.0000
     1.0000   1.0000   1.0000   1.0000   1.0000   1.0000   1.0000   1.0000
     1.0000   1.0000   1.0000   1.0000   1.0000   1.0000   1.0000   1.0000
     1.0000   1.0000   1.0000   1.0000   1.0000   1.0000   1.0000   1.0000
     1.0000   1.0000   1.0000   1.0000   1.0000   1.0000   1.0000   1.0000
     1.0000   1.0000   1.0000   1.0000   1.0000   1.0000   1.0000   1.0000
     1.0000   1.0000   1.0000   1.0000   1.0000   1.0000   1.0000   1.0000
     1.0000   1.0000   1.0000   1.0000   1.0000   1.0000   1.0000   1.0000
     1.0000   1.0000   1.0000   1.0000   1.0000   1.0000   1.0000   1.0000
     1.0000   1.0000   1.0000   1.0000   1.0000   1.0000   1.0000   1.0000
     1.0000   1.0000   1.0000   1.0000   1.0000   1.0000   1.0000   1.0000
     1.0000   1.0000   1.0000   1.0000   1.0000   1.0000   1.0000   1.0000
     1.0000   1.0000   1.0000   1.0000   1.0000   1.0000   1.0000   1.0000
     1.0000   1.0000   1.0000   1.0000   1.0000   1.0000   1.0000   1.0000
     1.0000   1.0000   1.0000   1.0000   1.0000   1.0000   1.0000   1.0000
     1.0000   1.0000   1.0000   1.0000   1.0000   1.0000   1.0000   1.0000
     1.0000   1.0000   1.0000   1.0000   1.0000   1.0000   1.0000   1.0000
     1.0000   1.0000   1.0000   1.0000   1.0000   1.0000   1.0000   1.0000
     1.0000   1.0000   1.0000   1.0000   1.0000   1.0000   1.0000   1.0000
     1.0000   1.0000   1.0000   1.0000   1.0000   1.0000   1.0000   1.0000
     1.0000   1.0000   1.0000   1.0000   1.0000   1.0000   1.0000   1.0000
     1.0000   1.0000   1.0000   1.0000   1.0000   1.0000   1.0000   1.0000
     1.0000   1.0000   1.0000   1.0000   1.0000   1.0000   1.0000   1.0000
     1.0000   1.0000   1.0000   1.0000   1.0000   1.0000   1.0000   1.0000
     1.0000   1.0000   1.0000   1.0000   1.0000   1.0000   1.0000   1.0000
     1.0000   1.0000   1.0000   1.0000   1.0000   1.0000   1.0000   1.0000
     1.0000   1.0000   1.0000   1.0000   1.0000   1.0000   1.0000   1.0000
     1.0000   1.0000   1.0000   1.0000   1.0000   1.0000   1.0000   1.0000
     1.0000   1.0000   1.0000   1.0000   1.0000   1.0000   1.0000   1.0000
     1.0000   1.0000   1.0000   1.0000   1.0000   1.0000   1.0000   1.0000
     1.0000   1.0000   1.0000   1.0000   1.0000   1.0000   1.0000   1.0000
     1.0000   1.0000   1.0000   1.0000   1.0000   1.0000   1.0000   1.0000
     1.0000   1.0000   1.0000   1.0000   1.0000   1.0000   1.0000   1.0000
     1.0000   1.0000   1.0000   1.0000   1.0000   1.0000   1.0000   1.0000
     1.0000   1.0000   1.0000   1.0000   1.0000   1.0000   1.0000   1.0000
     1.0000   1.0000   1.0000   1.0000   1.0000   1.0000   1.0000   1.0000
     1.0000   1.0000   1.0000   1.0000   1.0000   1.0000   1.0000   1.0000
     1.0000   1.0000   1.0000   1.0000   1.0000   1.0000   1.0000   1.0000
     1.0000   1.0000   1.0000   1.0000   1.0000   1.0000   1.0000   1.0000
     1.0000   1.0000   1.0000   1.0000   1.0000   1.0000   1.0000   1.0000
     1.0000   1.0000   1.0000   1.0000   1.0000   1.0000   1.0000   1.0000
     1.0000   1.0000   1.0000   1.0000   1.0000   1.0000   1.0000   1.0000
     1.0000   1.0000   1.0000   1.0000   1.0000   1.0000   1.0000   1.0000
     1.0000   1.0000   1.0000   1.0000   1.0000   1.0000   1.0000   1.0000
     1.0000   1.0000   1.0000   1.0000   1.0000   1.0000   1.0000   1.0000
     1.0000   1.0000   1.0000   1.0000   1.0000   1.0000   1.0000   1.0000
     1.0000   1.0000   1.0000   1.0000   1.0000   1.0000   1.0000   1.0000
     1.0000   1.0000   1.0000   1.0000   1.0000   1.0000   1.0000   1.0000
     1.0000   1.0000   1.0000   1.0000   1.0000   1.0000   1.0000   1.0000
     1.0000   1.0000   1.0000   1.0000   1.0000   1.0000   1.0000   1.0000
     1.0000   1.0000   1.0000   1.0000   1.0000   0.0000   0.0000   0.0000
     0.0000   0.0000   0.0000   0.0000   0.0000   0.0000   0.0000   0.0000
     0.0000   0.0000   0.0000   0.0000   0.0000   0.0000   0.0000   0.0000
     0.0000   0.0000   0.0000   0.0000   0.0000   0.0000   0.0000   0.0000
     0.0000   0.0000   0.0000   0.0000   0.0000   0.0000   0.0000   0.0000
     0.0000   0.0000   0.0000   0.0000   0.0000   0.0000   0.0000   0.0000
     0.0000   0.0000   0.0000   0.0000   0.0000   0.0000   0.0000   0.0000
     0.0000   0.0000   0.0000   0.0000   0.0000   0.0000   0.0000   0.0000
     0.0000   0.0000   0.0000   0.0000   0.0000   0.0000   0.0000   0.0000
     0.0000   0.0000   0.0000   0.0000   0.0000   0.0000   0.0000   0.0000
     0.0000   0.0000   0.0000   0.0000   0.0000   0.0000   0.0000   0.0000
     0.0000   0.0000   0.0000   0.0000   0.0000   0.0000   0.0000   0.0000
     0.0000   0.0000   0.0000   0.0000   0.0000   0.0000   0.0000   0.0000
     0.0000   0.0000   0.0000   0.0000   0.0000   0.0000   0.0000   0.0000
     0.0000   0.0000   0.0000   0.0000   0.0000   0.0000   0.0000   0.0000
     0.0000   0.0000   0.0000   0.0000   0.0000   0.0000   0.0000   0.0000
     0.0000   0.0000   0.0000   0.0000   0.0000   0.0000   0.0000   0.0000
     0.0000   0.0000   0.0000   0.0000   0.0000   0.0000   0.0000   0.0000
     0.0000   0.0000   0.0000   0.0000   0.0000   0.0000   0.0000   0.0000
     0.0000   0.0000   0.0000   0.0000   0.0000   0.0000   0.0000   0.0000
     0.0000   0.0000   0.0000   0.0000   0.0000   0.0000   0.0000   0.0000
     0.0000   0.0000   0.0000   0.0000   0.0000   0.0000   0.0000   0.0000
     0.0000   0.0000   0.0000   0.0000   0.0000   0.0000   0.0000   0.0000
     0.0000   0.0000   0.0000   0.0000   0.0000   0.0000   0.0000   0.0000
     0.0000   0.0000   0.0000   0.0000   0.0000   0.0000   0.0000   0.0000
     0.0000   0.0000   0.0000   0.0000   0.0000   0.0000   0.0000   0.0000

     highest occupied, lowest unoccupied level (ev):    10.1494   15.1571

!    total energy              =  -15183.33477495 Ry
     Harris-Foulkes estimate   =  -15183.33477498 Ry
     estimated scf accuracy    <       0.00000008 Ry

     total magnetization       =    -0.00 Bohr mag/cell
     absolute magnetization    =     0.00 Bohr mag/cell

     convergence has been achieved in   5 iterations

     total energy              =  -15183.33600630 Ry
     Harris-Foulkes estimate   =  -15183.33600632 Ry
     est. exchange err (dexx)  =       0.00123134 Ry
     - averaged Fock potential =    1553.51831258 Ry
     + Fock energy             =    -776.89667393 Ry

     EXX: now go back to refine exchange calculation

     total cpu time spent up to now is    24435.0 secs

     per-process dynamical memory:   281.0 Mb

     Self-consistent Calculation

     iteration #  1     ecut=    60.00 Ry     beta=0.30
     Davidson diagonalization with overlap
     WARNING:     9 eigenvalues not converged
     WARNING:     9 eigenvalues not converged
     ethr =  1.22E-11,  avg # of iterations = 33.0

     total cpu time spent up to now is    27753.7 secs

     total energy              =  -15183.33620018 Ry
     Harris-Foulkes estimate   =  -15183.33624050 Ry
     estimated scf accuracy    <       0.00010461 Ry

     total magnetization       =     0.00 Bohr mag/cell
     absolute magnetization    =     0.00 Bohr mag/cell

     iteration #  2     ecut=    60.00 Ry     beta=0.30
     Davidson diagonalization with overlap
     ethr =  6.08E-09,  avg # of iterations =  6.0

     total cpu time spent up to now is    28887.2 secs

     total energy              =  -15183.33620517 Ry
     Harris-Foulkes estimate   =  -15183.33621006 Ry
     estimated scf accuracy    <       0.00001467 Ry

     total magnetization       =    -0.00 Bohr mag/cell
     absolute magnetization    =     0.00 Bohr mag/cell

     iteration #  3     ecut=    60.00 Ry     beta=0.30
     Davidson diagonalization with overlap
     ethr =  8.52E-10,  avg # of iterations =  6.0

     total cpu time spent up to now is    30078.2 secs

     total energy              =  -15183.33620584 Ry
     Harris-Foulkes estimate   =  -15183.33620655 Ry
     estimated scf accuracy    <       0.00000271 Ry

     total magnetization       =    -0.00 Bohr mag/cell
     absolute magnetization    =     0.00 Bohr mag/cell

     iteration #  4     ecut=    60.00 Ry     beta=0.30
     Davidson diagonalization with overlap
     ethr =  1.58E-10,  avg # of iterations =  3.0
 
     Magnetic moment per site:
     atom:    1    charge:    8.1499    magn:   -0.0000    constr:    0.0000
     atom:    2    charge:    8.1499    magn:   -0.0000    constr:    0.0000
     atom:    3    charge:    8.1499    magn:   -0.0000    constr:    0.0000
     atom:    4    charge:    8.1499    magn:   -0.0000    constr:    0.0000
     atom:    5    charge:    8.1499    magn:   -0.0000    constr:    0.0000
     atom:    6    charge:    8.1499    magn:   -0.0000    constr:    0.0000
     atom:    7    charge:    8.1499    magn:   -0.0000    constr:    0.0000
     atom:    8    charge:    8.1499    magn:   -0.0000    constr:    0.0000
     atom:    9    charge:    8.1499    magn:   -0.0000    constr:    0.0000
     atom:   10    charge:    8.1499    magn:   -0.0000    constr:    0.0000
     atom:   11    charge:    8.1499    magn:   -0.0000    constr:    0.0000
     atom:   12    charge:    8.1499    magn:   -0.0000    constr:    0.0000
     atom:   13    charge:    8.1499    magn:   -0.0000    constr:    0.0000
     atom:   14    charge:    8.1490    magn:   -0.0000    constr:    0.0000
     atom:   15    charge:    8.1490    magn:   -0.0000    constr:    0.0000
     atom:   16    charge:    8.1499    magn:   -0.0000    constr:    0.0000
     atom:   17    charge:    8.1490    magn:   -0.0000    constr:    0.0000
     atom:   18    charge:    8.1490    magn:   -0.0000    constr:    0.0000
     atom:   19    charge:    8.1499    magn:   -0.0000    constr:    0.0000
     atom:   20    charge:    8.1499    magn:   -0.0000    constr:    0.0000
     atom:   21    charge:    8.1499    magn:   -0.0000    constr:    0.0000
     atom:   22    charge:    8.1499    magn:   -0.0000    constr:    0.0000
     atom:   23    charge:    8.1490    magn:   -0.0000    constr:    0.0000
     atom:   24    charge:    8.1490    magn:   -0.0000    constr:    0.0000
     atom:   25    charge:    8.1499    magn:   -0.0000    constr:    0.0000
     atom:   26    charge:    8.1490    magn:   -0.0000    constr:    0.0000
     atom:   27    charge:    8.1490    magn:   -0.0000    constr:    0.0000
     atom:   28    charge:    8.1499    magn:   -0.0000    constr:    0.0000
     atom:   29    charge:    8.1501    magn:   -0.0000    constr:    0.0000
     atom:   30    charge:    8.1499    magn:   -0.0000    constr:    0.0000
     atom:   31    charge:    8.1501    magn:   -0.0000    constr:    0.0000
     atom:   32    charge:    8.1498    magn:   -0.0000    constr:    0.0000
     atom:   33    charge:    8.1501    magn:   -0.0000    constr:    0.0000
     atom:   34    charge:    8.1499    magn:   -0.0000    constr:    0.0000
     atom:   35    charge:    8.1501    magn:   -0.0000    constr:    0.0000
     atom:   36    charge:    8.1499    magn:   -0.0000    constr:    0.0000
     atom:   37    charge:    8.1498    magn:   -0.0000    constr:    0.0000
     atom:   38    charge:    8.1502    magn:   -0.0000    constr:    0.0000
     atom:   39    charge:    8.1498    magn:   -0.0000    constr:    0.0000
     atom:   40    charge:    8.1502    magn:   -0.0000    constr:    0.0000
     atom:   41    charge:    8.1436    magn:   -0.0000    constr:    0.0000
     atom:   42    charge:    8.1502    magn:   -0.0000    constr:    0.0000
     atom:   43    charge:    8.1498    magn:   -0.0000    constr:    0.0000
     atom:   44    charge:    8.1502    magn:   -0.0000    constr:    0.0000
     atom:   45    charge:    8.1498    magn:   -0.0000    constr:    0.0000
     atom:   46    charge:    8.1498    magn:   -0.0000    constr:    0.0000
     atom:   47    charge:    8.1502    magn:   -0.0000    constr:    0.0000
     atom:   48    charge:    8.1498    magn:   -0.0000    constr:    0.0000
     atom:   49    charge:    8.1502    magn:   -0.0000    constr:    0.0000
     atom:   50    charge:    8.1436    magn:    0.0000    constr:    0.0000
     atom:   51    charge:    8.1502    magn:   -0.0000    constr:    0.0000
     atom:   52    charge:    8.1498    magn:   -0.0000    constr:    0.0000
     atom:   53    charge:    8.1502    magn:   -0.0000    constr:    0.0000
     atom:   54    charge:    8.1498    magn:   -0.0000    constr:    0.0000
     atom:   55    charge:    8.1499    magn:   -0.0000    constr:    0.0000
     atom:   56    charge:    8.1501    magn:   -0.0000    constr:    0.0000
     atom:   57    charge:    8.1499    magn:   -0.0000    constr:    0.0000
     atom:   58    charge:    8.1498    magn:   -0.0000    constr:    0.0000
     atom:   59    charge:    8.1502    magn:   -0.0000    constr:    0.0000
     atom:   60    charge:    8.1498    magn:   -0.0000    constr:    0.0000
     atom:   61    charge:    8.1498    magn:   -0.0000    constr:    0.0000
     atom:   62    charge:    8.1502    magn:   -0.0000    constr:    0.0000
     atom:   63    charge:    8.1498    magn:   -0.0000    constr:    0.0000
     atom:   64    charge:    8.1501    magn:   -0.0000    constr:    0.0000
     atom:   65    charge:    8.1498    magn:   -0.0000    constr:    0.0000
     atom:   66    charge:    8.1501    magn:   -0.0000    constr:    0.0000
     atom:   67    charge:    8.1502    magn:   -0.0000    constr:    0.0000
     atom:   68    charge:    8.1436    magn:   -0.0000    constr:    0.0000
     atom:   69    charge:    8.1502    magn:   -0.0000    constr:    0.0000
     atom:   70    charge:    8.1502    magn:   -0.0000    constr:    0.0000
     atom:   71    charge:    8.1436    magn:   -0.0000    constr:    0.0000
     atom:   72    charge:    8.1502    magn:   -0.0000    constr:    0.0000
     atom:   73    charge:    8.1499    magn:   -0.0000    constr:    0.0000
     atom:   74    charge:    8.1501    magn:   -0.0000    constr:    0.0000
     atom:   75    charge:    8.1499    magn:   -0.0000    constr:    0.0000
     atom:   76    charge:    8.1498    magn:   -0.0000    constr:    0.0000
     atom:   77    charge:    8.1502    magn:   -0.0000    constr:    0.0000
     atom:   78    charge:    8.1498    magn:   -0.0000    constr:    0.0000
     atom:   79    charge:    8.1498    magn:   -0.0000    constr:    0.0000
     atom:   80    charge:    8.1502    magn:   -0.0000    constr:    0.0000
     atom:   81    charge:    8.1498    magn:   -0.0000    constr:    0.0000
     atom:   82    charge:    8.1499    magn:   -0.0000    constr:    0.0000
     atom:   83    charge:    8.1498    magn:   -0.0000    constr:    0.0000
     atom:   84    charge:    8.1498    magn:   -0.0000    constr:    0.0000
     atom:   85    charge:    8.1501    magn:   -0.0000    constr:    0.0000
     atom:   86    charge:    8.1502    magn:   -0.0000    constr:    0.0000
     atom:   87    charge:    8.1502    magn:   -0.0000    constr:    0.0000
     atom:   88    charge:    8.1499    magn:   -0.0000    constr:    0.0000
     atom:   89    charge:    8.1498    magn:   -0.0000    constr:    0.0000
     atom:   90    charge:    8.1498    magn:   -0.0000    constr:    0.0000
     atom:   91    charge:    8.1501    magn:   -0.0000    constr:    0.0000
     atom:   92    charge:    8.1502    magn:   -0.0000    constr:    0.0000
     atom:   93    charge:    8.1502    magn:   -0.0000    constr:    0.0000
     atom:   94    charge:    8.1498    magn:   -0.0000    constr:    0.0000
     atom:   95    charge:    8.1436    magn:   -0.0000    constr:    0.0000
     atom:   96    charge:    8.1436    magn:    0.0000    constr:    0.0000
     atom:   97    charge:    8.1501    magn:   -0.0000    constr:    0.0000
     atom:   98    charge:    8.1502    magn:   -0.0000    constr:    0.0000
     atom:   99    charge:    8.1502    magn:   -0.0000    constr:    0.0000
     atom:  100    charge:    8.1499    magn:   -0.0000    constr:    0.0000
     atom:  101    charge:    8.1498    magn:   -0.0000    constr:    0.0000
     atom:  102    charge:    8.1498    magn:   -0.0000    constr:    0.0000
     atom:  103    charge:    8.1501    magn:   -0.0000    constr:    0.0000
     atom:  104    charge:    8.1502    magn:   -0.0000    constr:    0.0000
     atom:  105    charge:    8.1502    magn:   -0.0000    constr:    0.0000
     atom:  106    charge:    8.1499    magn:   -0.0000    constr:    0.0000
     atom:  107    charge:    8.1498    magn:   -0.0000    constr:    0.0000
     atom:  108    charge:    8.1498    magn:   -0.0000    constr:    0.0000
     atom:  109    charge:    5.8311    magn:    0.0000    constr:    0.0000
     atom:  110    charge:    5.8310    magn:    0.0000    constr:    0.0000
     atom:  111    charge:    5.8310    magn:    0.0000    constr:    0.0000
     atom:  112    charge:    5.8317    magn:   -0.0000    constr:    0.0000
     atom:  113    charge:    5.8313    magn:    0.0000    constr:    0.0000
     atom:  114    charge:    5.8313    magn:    0.0000    constr:    0.0000
     atom:  115    charge:    5.8311    magn:    0.0000    constr:    0.0000
     atom:  116    charge:    5.8310    magn:    0.0000    constr:    0.0000
     atom:  117    charge:    5.8310    magn:    0.0000    constr:    0.0000
     atom:  118    charge:    5.8310    magn:    0.0000    constr:    0.0000
     atom:  119    charge:    5.8307    magn:    0.0000    constr:    0.0000
     atom:  120    charge:    5.8307    magn:    0.0000    constr:    0.0000
     atom:  121    charge:    5.8313    magn:   -0.0000    constr:    0.0000
     atom:  122    charge:    5.8262    magn:    0.0000    constr:    0.0000
     atom:  123    charge:    5.8262    magn:    0.0000    constr:    0.0000
     atom:  124    charge:    5.8310    magn:    0.0000    constr:    0.0000
     atom:  125    charge:    5.8307    magn:    0.0000    constr:    0.0000
     atom:  126    charge:    5.8307    magn:    0.0000    constr:    0.0000
     atom:  127    charge:    5.8310    magn:    0.0000    constr:    0.0000
     atom:  128    charge:    5.8307    magn:    0.0000    constr:    0.0000
     atom:  129    charge:    5.8307    magn:    0.0000    constr:    0.0000
     atom:  130    charge:    5.8313    magn:   -0.0000    constr:    0.0000
     atom:  131    charge:    5.8262    magn:    0.0000    constr:    0.0000
     atom:  132    charge:    5.8262    magn:    0.0000    constr:    0.0000
     atom:  133    charge:    5.8310    magn:    0.0000    constr:    0.0000
     atom:  134    charge:    5.8307    magn:    0.0000    constr:    0.0000
     atom:  135    charge:    5.8307    magn:   -0.0000    constr:    0.0000
     atom:  136    charge:    5.8311    magn:    0.0000    constr:    0.0000
     atom:  137    charge:    5.8317    magn:    0.0000    constr:    0.0000
     atom:  138    charge:    5.8311    magn:    0.0000    constr:    0.0000
     atom:  139    charge:    5.8310    magn:    0.0000    constr:    0.0000
     atom:  140    charge:    5.8313    magn:    0.0000    constr:    0.0000
     atom:  141    charge:    5.8310    magn:    0.0000    constr:    0.0000
     atom:  142    charge:    5.8310    magn:    0.0000    constr:    0.0000
     atom:  143    charge:    5.8313    magn:   -0.0000    constr:    0.0000
     atom:  144    charge:    5.8310    magn:    0.0000    constr:    0.0000
     atom:  145    charge:    5.8310    magn:    0.0000    constr:    0.0000
     atom:  146    charge:    5.8313    magn:    0.0000    constr:    0.0000
     atom:  147    charge:    5.8310    magn:    0.0000    constr:    0.0000
     atom:  148    charge:    5.8307    magn:    0.0000    constr:    0.0000
     atom:  149    charge:    5.8262    magn:    0.0000    constr:    0.0000
     atom:  150    charge:    5.8307    magn:    0.0000    constr:    0.0000
     atom:  151    charge:    5.8307    magn:    0.0000    constr:    0.0000
     atom:  152    charge:    5.8262    magn:    0.0000    constr:    0.0000
     atom:  153    charge:    5.8307    magn:    0.0000    constr:    0.0000
     atom:  154    charge:    5.8310    magn:    0.0000    constr:    0.0000
     atom:  155    charge:    5.8313    magn:    0.0000    constr:    0.0000
     atom:  156    charge:    5.8310    magn:    0.0000    constr:    0.0000
     atom:  157    charge:    5.8307    magn:    0.0000    constr:    0.0000
     atom:  158    charge:    5.8262    magn:    0.0000    constr:    0.0000
     atom:  159    charge:    5.8307    magn:    0.0000    constr:    0.0000
     atom:  160    charge:    5.8307    magn:    0.0000    constr:    0.0000
     atom:  161    charge:    5.8262    magn:    0.0000    constr:    0.0000
     atom:  162    charge:    5.8307    magn:   -0.0000    constr:    0.0000
     atom:  163    charge:    5.8311    magn:    0.0000    constr:    0.0000
     atom:  164    charge:    5.8315    magn:    0.0000    constr:    0.0000
     atom:  165    charge:    5.8311    magn:    0.0000    constr:    0.0000
     atom:  166    charge:    5.8315    magn:    0.0000    constr:    0.0000
     atom:  167    charge:    5.8313    magn:    0.0000    constr:    0.0000
     atom:  168    charge:    5.8315    magn:    0.0000    constr:    0.0000
     atom:  169    charge:    5.8311    magn:    0.0000    constr:    0.0000
     atom:  170    charge:    5.8315    magn:    0.0000    constr:    0.0000
     atom:  171    charge:    5.8311    magn:    0.0000    constr:    0.0000
     atom:  172    charge:    5.8315    magn:   -0.0000    constr:    0.0000
     atom:  173    charge:    5.8313    magn:    0.0000    constr:    0.0000
     atom:  174    charge:    5.8315    magn:   -0.0000    constr:    0.0000
     atom:  175    charge:    5.8313    magn:    0.0000    constr:    0.0000
     atom:  176    charge:    5.8313    magn:    0.0000    constr:    0.0000
     atom:  177    charge:    5.8315    magn:    0.0000    constr:    0.0000
     atom:  178    charge:    5.8313    magn:    0.0000    constr:    0.0000
     atom:  179    charge:    5.8315    magn:   -0.0000    constr:    0.0000
     atom:  180    charge:    5.8311    magn:    0.0000    constr:    0.0000
     atom:  181    charge:    5.8315    magn:   -0.0000    constr:    0.0000
     atom:  182    charge:    5.8311    magn:    0.0000    constr:    0.0000
     atom:  183    charge:    5.8315    magn:    0.0000    constr:    0.0000
     atom:  184    charge:    5.8313    magn:    0.0000    constr:    0.0000
     atom:  185    charge:    5.8315    magn:    0.0000    constr:    0.0000
     atom:  186    charge:    5.8311    magn:    0.0000    constr:    0.0000
     atom:  187    charge:    5.8315    magn:    0.0000    constr:    0.0000
     atom:  188    charge:    5.8311    magn:    0.0000    constr:    0.0000
     atom:  189    charge:    5.8311    magn:    0.0000    constr:    0.0000
     atom:  190    charge:    5.8310    magn:    0.0000    constr:    0.0000
     atom:  191    charge:    5.8310    magn:    0.0000    constr:    0.0000
     atom:  192    charge:    5.8310    magn:    0.0000    constr:    0.0000
     atom:  193    charge:    5.8307    magn:    0.0000    constr:    0.0000
     atom:  194    charge:    5.8307    magn:    0.0000    constr:    0.0000
     atom:  195    charge:    5.8310    magn:    0.0000    constr:    0.0000
     atom:  196    charge:    5.8307    magn:    0.0000    constr:    0.0000
     atom:  197    charge:    5.8307    magn:    0.0000    constr:    0.0000
     atom:  198    charge:    5.8317    magn:    0.0000    constr:    0.0000
     atom:  199    charge:    5.8313    magn:   -0.0000    constr:    0.0000
     atom:  200    charge:    5.8313    magn:    0.0000    constr:    0.0000
     atom:  201    charge:    5.8313    magn:    0.0000    constr:    0.0000
     atom:  202    charge:    5.8262    magn:   -0.0000    constr:    0.0000
     atom:  203    charge:    5.8262    magn:    0.0000    constr:    0.0000
     atom:  204    charge:    5.8313    magn:    0.0000    constr:    0.0000
     atom:  205    charge:    5.8262    magn:    0.0000    constr:    0.0000
     atom:  206    charge:    5.8262    magn:    0.0000    constr:    0.0000
     atom:  207    charge:    5.8311    magn:    0.0000    constr:    0.0000
     atom:  208    charge:    5.8310    magn:    0.0000    constr:    0.0000
     atom:  209    charge:    5.8310    magn:    0.0000    constr:    0.0000
     atom:  210    charge:    5.8310    magn:    0.0000    constr:    0.0000
     atom:  211    charge:    5.8307    magn:    0.0000    constr:    0.0000
     atom:  212    charge:    5.8307    magn:    0.0000    constr:    0.0000
     atom:  213    charge:    5.8310    magn:    0.0000    constr:    0.0000
     atom:  214    charge:    5.8307    magn:    0.0000    constr:    0.0000
     atom:  215    charge:    5.8307    magn:    0.0000    constr:    0.0000

     total cpu time spent up to now is    31101.6 secs

     End of self-consistent calculation

 ------ SPIN UP ------------


          k = 0.0000 0.0000 0.0000 ( 52700 PWs)   bands (ev):

   -71.8511 -71.8484 -71.8484 -71.8484 -71.8471 -71.8471 -71.8186 -71.8174
   -71.8174 -71.8169 -71.8152 -71.8152 -71.8152 -71.8143 -71.8143 -71.8141
   -71.8133 -71.8133 -71.8133 -71.8128 -71.8128 -71.8128 -71.8126 -71.8126
   -71.8126 -71.8122 -71.8119 -71.8118 -71.8118 -71.8118 -71.8111 -71.8111
   -71.8111 -71.8109 -71.8109 -71.8102 -71.8098 -71.8098 -71.8098 -71.8097
   -71.8095 -71.8095 -71.8095 -71.8095 -71.8095 -71.8093 -71.8091 -71.8091
   -71.8091 -71.8090 -71.8090 -71.8090 -71.8089 -71.8089 -71.8089 -71.8086
   -71.8086 -71.8086 -71.8081 -71.8081 -71.8081 -71.8081 -71.8081 -71.8080
   -71.8080 -71.8079 -71.8079 -71.8079 -71.8079 -71.8079 -71.8079 -71.8075
   -71.8073 -71.8072 -71.8072 -71.8072 -71.8068 -71.8067 -71.8067 -71.8067
   -71.8067 -71.8067 -71.8064 -71.8064 -71.8064 -71.8063 -71.8063 -71.8056
   -71.8056 -71.8056 -71.8055 -71.8055 -71.8055 -71.8053 -71.8053 -71.8053
   -71.8051 -71.8051 -71.8051 -71.8046 -71.8046 -71.8046 -71.8039 -71.8039
   -71.8038 -71.8038 -71.8038 -71.8032 -34.8368 -34.8320 -34.8320 -34.8320
   -34.8291 -34.8291 -34.8291 -34.8227 -34.8227 -34.8227 -34.8216 -34.8216
   -34.8216 -34.8202 -34.8202 -34.8200 -34.8197 -34.8197 -34.8197 -34.8194
   -34.8194 -34.8194 -34.8183 -34.8183 -34.8171 -34.8171 -34.8171 -34.8107
   -34.8107 -34.8107 -34.8107 -34.8107 -34.8105 -34.8100 -34.8100 -34.8100
   -34.8094 -34.8094 -34.8094 -34.8074 -34.8074 -34.8074 -34.8056 -34.8034
   -34.8034 -34.8034 -34.8029 -34.8029 -34.8029 -34.8022 -34.8019 -34.8019
   -34.8019 -34.8013 -34.8013 -34.8013 -34.8010 -34.8008 -34.8008 -34.8008
   -34.8007 -34.8007 -34.8007 -34.8006 -34.8006 -34.8006 -34.8005 -34.8005
   -34.8005 -34.8005 -34.8005 -34.7978 -34.7978 -34.7976 -34.7976 -34.7976
   -34.7968 -34.7968 -34.7968 -34.7964 -34.7953 -34.7953 -34.7953 -34.7951
   -34.7951 -34.7951 -34.7944 -34.7941 -34.7941 -34.7929 -34.7929 -34.7929
   -34.7926 -34.7926 -34.7926 -34.7888 -34.7888 -34.7888 -34.7882 -34.7882
   -34.7881 -34.7858 -34.7858 -34.7858 -34.7817 -34.7817 -34.7807 -34.7807
   -34.7807 -34.7795 -34.7791 -34.7791 -34.7791 -34.7778 -34.7778 -34.7778
   -34.7773 -34.7773 -34.7773 -34.7768 -34.7768 -34.7768 -34.7739 -34.7739
   -34.7739 -34.7719 -34.7719 -34.7709 -34.7709 -34.7709 -34.7703 -34.7703
   -34.7703 -34.7696 -34.7696 -34.7696 -34.7653 -34.7653 -34.7653 -34.7648
   -34.7645 -34.7645 -34.7641 -34.7641 -34.7641 -34.7640 -34.7640 -34.7640
   -34.7638 -34.7638 -34.7638 -34.7636 -34.7636 -34.7636 -34.7635 -34.7628
   -34.7626 -34.7626 -34.7621 -34.7619 -34.7619 -34.7611 -34.7611 -34.7611
   -34.7606 -34.7606 -34.7606 -34.7599 -34.7599 -34.7585 -34.7585 -34.7585
   -34.7577 -34.7577 -34.7577 -34.7542 -34.7542 -34.7542 -34.7535 -34.7535
   -34.7535 -34.7534 -34.7534 -34.7534 -34.7513 -34.7513 -34.7513 -34.7511
   -34.7511 -34.7511 -34.7510 -34.7508 -34.7506 -34.7506 -34.7506 -34.7505
   -34.7505 -34.7505 -34.7505 -34.7505 -34.7505 -34.7498 -34.7497 -34.7497
   -34.7497 -34.7497 -34.7497 -34.7491 -34.7491 -34.7480 -34.7480 -34.7480
   -34.7476 -34.7476 -34.7473 -34.7473 -34.7473 -34.7471 -34.7471 -34.7471
   -34.7470 -34.7470 -34.7470 -34.7463 -34.7459 -34.7459 -34.7459 -34.7459
   -34.7459 -34.7459 -34.7458 -34.7458 -34.7458 -34.7458 -34.7458 -34.7457
   -34.7457 -34.7457 -34.7453 -34.7453 -34.7453 -34.7452 -34.7449 -34.7449
   -34.7449 -34.7444 -34.7444 -34.7444 -34.7443 -34.7443 -34.7441 -34.7440
   -34.7440 -34.7439 -34.7432 -34.7432 -34.7432 -34.7428 -34.7428 -34.7425
   -34.7425 -34.7425 -34.7424 -34.7424 -34.7424 -34.7420 -34.7420 -34.7420
   -34.7419 -34.7419 -34.7419 -34.7414 -34.7414 -34.7414 -34.7414 -34.7414
   -34.7410 -34.7410 -34.7410 -34.7404 -34.7394 -34.7386 -34.7386 -34.7386
   -34.7351 -34.7351 -34.7351 -34.7348 -34.7348 -34.7348 -34.7348 -34.7348
   -34.7348 -34.7344 -34.7344 -34.7337 -34.7337 -34.7337 -34.7333 -34.7333
   -34.7333 -34.7332 -34.7332 -34.7332 -34.7326 -34.7326 -34.7326 -34.7323
   -34.7323 -34.7305 -34.7305 -34.7305 -34.7297 -34.7297 -34.7288 -34.7288
   -34.7288 -34.7288 -34.7288 -34.7288 -34.7282 -34.7264 -34.7264 -34.7264
   -13.1684 -12.7659 -12.7659 -12.7617 -12.7617 -12.7617 -12.7204 -12.4171
   -12.4171 -12.4139 -12.4139 -12.4139 -12.4124 -12.4124 -12.4124 -12.4102
   -12.4102 -12.4102 -12.3368 -12.1398 -12.1398 -12.1398 -12.1385 -12.1385
   -12.1385 -12.1329 -12.0955 -11.9270 -11.9270 -11.9206 -11.9206 -11.9206
   -11.9019 -11.7572 -11.7572 -11.7565 -11.7557 -11.7557 -11.7551 -11.7551
   -11.7551 -11.7549 -11.7549 -11.7549 -11.7532 -11.7532 -11.7532 -11.7500
   -11.7500 -11.7500 -11.7482 -11.7482 -11.7482 -11.7475 -11.7475 -11.7475
   -11.7203 -11.6890 -11.6890 -11.6890 -11.6874 -11.6874 -11.6874 -11.6870
   -11.6870 -11.6835 -11.6835 -11.6835 -11.6820 -11.6820 -11.6820 -11.6815
   -11.6815 -11.6815 -11.6812 -11.6803 -11.6803 -11.6803 -11.6769 -11.6769
   -11.5696 -11.5163 -11.5163 -11.5121 -11.5114 -11.5114 -11.5114 -11.5112
   -11.5112 -11.5112 -11.5093 -11.5093 -11.5071 -11.5071 -11.5071 -11.4740
   -11.4568 -11.4568 -11.4543 -11.4525 -11.4525 -11.4523 -11.4523 -11.4523
   -11.4512 -11.4512 -11.4512   1.8713   1.9084   1.9084   1.9106   1.9106
     1.9106   1.9121   1.9121   1.9121   1.9127   1.9127   1.9127   1.9132
     1.9132   1.9132   1.9139   1.9139   1.9157   1.9157   1.9157   1.9225
     1.9833   1.9833   1.9833   2.0567   2.0567   2.0567   2.3062   2.4866
     2.4866   2.4866   2.4892   2.4993   2.4993   2.4993   2.5414   2.5946
     2.5946   2.5946   2.5970   2.5970   2.5970   2.6007   2.6007   2.6007
     2.6043   2.6043   2.6043   2.6197   2.6208   2.6208   2.6208   2.6209
     2.6209   2.6209   2.6216   2.6216   2.6222   2.6222   2.6244   2.6244
     2.6244   2.6246   2.6246   2.6246   2.6271   2.6271   2.6271   2.7132
     2.7132   2.7132   2.7219   2.7448   2.7448   2.8311   2.8311   2.8311
     2.9622   2.9671   2.9671   2.9671   2.9729   2.9729   2.9729   2.9733
     2.9733   3.0467   3.0467   3.0467   3.1465   3.1465   3.1465   3.1483
     3.1483   3.1501   3.1501   3.1501   3.1535   3.3163   3.3163   3.3163
     3.5186   3.6749   3.6749   3.6774   3.6774   3.6774   3.6787   3.6787
     3.6787   3.7585   3.7585   3.7585   4.0585   4.0585   4.0585   4.0600
     4.0600   4.0600   4.0700   4.0700   4.0700   4.1314   4.1314   4.1314
     4.4924   4.4924   4.4924   4.4934   4.4934   4.4934   4.4939   4.4939
     4.4942   4.4942   4.4942   4.4947   4.4947   4.4947   4.4983   4.5019
     4.5019   4.5071   4.5071   4.5071   4.5081   4.5724   4.5724   4.5724
     4.6750   4.6797   4.6797   4.6807   4.6809   4.6809   4.6809   4.6946
     4.6946   4.7415   4.7415   4.7415   4.7497   4.8616   4.8616   4.8727
     4.8727   4.8727   4.9253   4.9468   4.9468   4.9468   4.9468   4.9468
     4.9473   4.9473   4.9473   4.9474   4.9474   4.9474   4.9500   4.9503
     4.9503   4.9503   4.9506   4.9506   4.9555   4.9555   4.9555   5.0105
     5.0105   5.0105   5.0343   5.0343   5.0343   5.1248   5.1248   5.1248
     5.3704   5.3704   5.3704   5.3704   5.3704   5.3704   5.3735   5.3735
     5.3735   5.3756   5.3756   5.3756   5.3926   5.3956   5.3956   5.3956
     5.3965   5.3975   5.3975   5.3984   5.3984   5.3984   5.4025   5.4025
     5.4025   5.4029   5.4029   5.4029   5.4078   5.4078   5.4078   5.4102
     5.4102   5.4113   5.4113   5.4113   5.4117   5.4162   5.4162   5.4162
     5.4186   5.4186   5.4189   5.4189   5.4189   5.4772   5.4772   5.4772
     5.5080   5.5080   5.5080   5.5128   5.5128   5.5176   5.5176   5.5176
     5.5225   5.5507   5.5507   5.5507   5.5877   5.5903   5.5903   5.5911
     5.5911   5.5911   5.5930   5.5930   5.5936   5.5936   5.5936   5.5956
     5.5956   5.5956   5.5962   5.5962   5.5962   5.5972   5.5974   5.5974
     5.5974   5.8952   5.8952   5.8952   5.9806   5.9806   5.9818   5.9818
     5.9818   5.9880   5.9880   5.9888   5.9888   5.9888   5.9891   5.9891
     5.9891   6.0756   6.0756   6.0756   6.1273   6.1273   6.1273   6.1274
     6.1274   6.1274   6.1340   6.1340   6.1340   6.1682   6.1682   6.1682
     6.1895   6.1903   6.1903   6.1903   6.1916   6.1916   6.1916   6.1923
     6.1923   6.5647   6.5647   6.5647  10.1429  15.1715  16.6228  16.6228
    16.6228  17.0973  17.0973  17.3216  17.4515  17.4515  17.4515  18.1508
    18.1527  18.1527  18.1527  18.1679  18.1679  18.1679  18.1923  18.2655
    18.2655  18.2684  18.2684  18.2684  18.2698  18.2698  18.2698  18.7097
    18.7097  18.7097  18.8657  19.3482  19.3482  19.3482  19.5068  19.5068
    19.5068  19.5092  19.5092  19.5103  19.5103  19.5103  19.5109  19.5109
    19.5109  19.5126  19.5138  19.5138  19.5138  19.5163  19.5163  19.5289
    19.5289  19.5289  19.7001  19.7001  19.7001  19.9058  20.0532  20.0532
    20.1489  20.1489  20.1489  20.3127  20.3127  20.3195  20.3328  20.3328
    20.3328  20.3499  20.6891  20.6891  20.6908  20.8092  20.8092  20.8196
    20.8196  20.8196  20.8201  20.8203  20.8203  20.8203  20.8209  20.8209
    20.8209  20.8231  20.8231  20.8231  20.8278  20.8278  20.8284  20.8284
    20.8284  20.8752  20.8780  20.8780  20.8780  20.8790  20.8790  20.8790
    20.8977  20.8977  20.8977  20.9022  20.9022  20.9882  20.9882  20.9882
    21.0327  21.0327  21.0327  21.0356  21.0356  21.0356  21.0516  21.0516
    21.0516  21.3320  21.3320  21.3320  21.5863  21.5943  21.5943  21.5981
    21.5981  21.5981  21.5993  21.6050  21.6050  21.6050  21.6060  21.6060
    21.6060  21.6067  21.6067  21.6067  21.6099  21.6099  21.6556  21.6556
    21.6556  21.9751  21.9751  21.9751  22.1895  22.2880  22.2880  22.2907
    22.2907  22.2907  22.2979  22.3106  22.3106  22.3770  22.3770  22.3770
    22.7903  22.7907  22.7907  22.7907  22.7912  22.7912  22.8165  22.8165
    22.8165  22.8322  22.8322  22.8322  23.1128  23.1129  23.1129  23.1129
    23.1268  23.1268  23.1316  23.1316  23.1316  23.1443  23.1443  23.1443
    23.1642  23.1642  23.1744  23.1825  23.1825  23.1825  23.2057  23.2134
    23.2392  23.2392  23.2392  23.2413  23.2413  23.2413  23.2427  23.2432
    23.2432  23.2441  23.2441  23.2441  23.2458  23.2463  23.2463  23.2479

     occupation numbers 
     1.0000   1.0000   1.0000   1.0000   1.0000   1.0000   1.0000   1.0000
     1.0000   1.0000   1.0000   1.0000   1.0000   1.0000   1.0000   1.0000
     1.0000   1.0000   1.0000   1.0000   1.0000   1.0000   1.0000   1.0000
     1.0000   1.0000   1.0000   1.0000   1.0000   1.0000   1.0000   1.0000
     1.0000   1.0000   1.0000   1.0000   1.0000   1.0000   1.0000   1.0000
     1.0000   1.0000   1.0000   1.0000   1.0000   1.0000   1.0000   1.0000
     1.0000   1.0000   1.0000   1.0000   1.0000   1.0000   1.0000   1.0000
     1.0000   1.0000   1.0000   1.0000   1.0000   1.0000   1.0000   1.0000
     1.0000   1.0000   1.0000   1.0000   1.0000   1.0000   1.0000   1.0000
     1.0000   1.0000   1.0000   1.0000   1.0000   1.0000   1.0000   1.0000
     1.0000   1.0000   1.0000   1.0000   1.0000   1.0000   1.0000   1.0000
     1.0000   1.0000   1.0000   1.0000   1.0000   1.0000   1.0000   1.0000
     1.0000   1.0000   1.0000   1.0000   1.0000   1.0000   1.0000   1.0000
     1.0000   1.0000   1.0000   1.0000   1.0000   1.0000   1.0000   1.0000
     1.0000   1.0000   1.0000   1.0000   1.0000   1.0000   1.0000   1.0000
     1.0000   1.0000   1.0000   1.0000   1.0000   1.0000   1.0000   1.0000
     1.0000   1.0000   1.0000   1.0000   1.0000   1.0000   1.0000   1.0000
     1.0000   1.0000   1.0000   1.0000   1.0000   1.0000   1.0000   1.0000
     1.0000   1.0000   1.0000   1.0000   1.0000   1.0000   1.0000   1.0000
     1.0000   1.0000   1.0000   1.0000   1.0000   1.0000   1.0000   1.0000
     1.0000   1.0000   1.0000   1.0000   1.0000   1.0000   1.0000   1.0000
     1.0000   1.0000   1.0000   1.0000   1.0000   1.0000   1.0000   1.0000
     1.0000   1.0000   1.0000   1.0000   1.0000   1.0000   1.0000   1.0000
     1.0000   1.0000   1.0000   1.0000   1.0000   1.0000   1.0000   1.0000
     1.0000   1.0000   1.0000   1.0000   1.0000   1.0000   1.0000   1.0000
     1.0000   1.0000   1.0000   1.0000   1.0000   1.0000   1.0000   1.0000
     1.0000   1.0000   1.0000   1.0000   1.0000   1.0000   1.0000   1.0000
     1.0000   1.0000   1.0000   1.0000   1.0000   1.0000   1.0000   1.0000
     1.0000   1.0000   1.0000   1.0000   1.0000   1.0000   1.0000   1.0000
     1.0000   1.0000   1.0000   1.0000   1.0000   1.0000   1.0000   1.0000
     1.0000   1.0000   1.0000   1.0000   1.0000   1.0000   1.0000   1.0000
     1.0000   1.0000   1.0000   1.0000   1.0000   1.0000   1.0000   1.0000
     1.0000   1.0000   1.0000   1.0000   1.0000   1.0000   1.0000   1.0000
     1.0000   1.0000   1.0000   1.0000   1.0000   1.0000   1.0000   1.0000
     1.0000   1.0000   1.0000   1.0000   1.0000   1.0000   1.0000   1.0000
     1.0000   1.0000   1.0000   1.0000   1.0000   1.0000   1.0000   1.0000
     1.0000   1.0000   1.0000   1.0000   1.0000   1.0000   1.0000   1.0000
     1.0000   1.0000   1.0000   1.0000   1.0000   1.0000   1.0000   1.0000
     1.0000   1.0000   1.0000   1.0000   1.0000   1.0000   1.0000   1.0000
     1.0000   1.0000   1.0000   1.0000   1.0000   1.0000   1.0000   1.0000
     1.0000   1.0000   1.0000   1.0000   1.0000   1.0000   1.0000   1.0000
     1.0000   1.0000   1.0000   1.0000   1.0000   1.0000   1.0000   1.0000
     1.0000   1.0000   1.0000   1.0000   1.0000   1.0000   1.0000   1.0000
     1.0000   1.0000   1.0000   1.0000   1.0000   1.0000   1.0000   1.0000
     1.0000   1.0000   1.0000   1.0000   1.0000   1.0000   1.0000   1.0000
     1.0000   1.0000   1.0000   1.0000   1.0000   1.0000   1.0000   1.0000
     1.0000   1.0000   1.0000   1.0000   1.0000   1.0000   1.0000   1.0000
     1.0000   1.0000   1.0000   1.0000   1.0000   1.0000   1.0000   1.0000
     1.0000   1.0000   1.0000   1.0000   1.0000   1.0000   1.0000   1.0000
     1.0000   1.0000   1.0000   1.0000   1.0000   1.0000   1.0000   1.0000
     1.0000   1.0000   1.0000   1.0000   1.0000   1.0000   1.0000   1.0000
     1.0000   1.0000   1.0000   1.0000   1.0000   1.0000   1.0000   1.0000
     1.0000   1.0000   1.0000   1.0000   1.0000   1.0000   1.0000   1.0000
     1.0000   1.0000   1.0000   1.0000   1.0000   1.0000   1.0000   1.0000
     1.0000   1.0000   1.0000   1.0000   1.0000   1.0000   1.0000   1.0000
     1.0000   1.0000   1.0000   1.0000   1.0000   1.0000   1.0000   1.0000
     1.0000   1.0000   1.0000   1.0000   1.0000   1.0000   1.0000   1.0000
     1.0000   1.0000   1.0000   1.0000   1.0000   1.0000   1.0000   1.0000
     1.0000   1.0000   1.0000   1.0000   1.0000   1.0000   1.0000   1.0000
     1.0000   1.0000   1.0000   1.0000   1.0000   1.0000   1.0000   1.0000
     1.0000   1.0000   1.0000   1.0000   1.0000   1.0000   1.0000   1.0000
     1.0000   1.0000   1.0000   1.0000   1.0000   1.0000   1.0000   1.0000
     1.0000   1.0000   1.0000   1.0000   1.0000   1.0000   1.0000   1.0000
     1.0000   1.0000   1.0000   1.0000   1.0000   1.0000   1.0000   1.0000
     1.0000   1.0000   1.0000   1.0000   1.0000   1.0000   1.0000   1.0000
     1.0000   1.0000   1.0000   1.0000   1.0000   1.0000   1.0000   1.0000
     1.0000   1.0000   1.0000   1.0000   1.0000   1.0000   1.0000   1.0000
     1.0000   1.0000   1.0000   1.0000   1.0000   1.0000   1.0000   1.0000
     1.0000   1.0000   1.0000   1.0000   1.0000   1.0000   1.0000   1.0000
     1.0000   1.0000   1.0000   1.0000   1.0000   1.0000   1.0000   1.0000
     1.0000   1.0000   1.0000   1.0000   1.0000   1.0000   1.0000   1.0000
     1.0000   1.0000   1.0000   1.0000   1.0000   1.0000   1.0000   1.0000
     1.0000   1.0000   1.0000   1.0000   1.0000   1.0000   1.0000   1.0000
     1.0000   1.0000   1.0000   1.0000   1.0000   1.0000   1.0000   1.0000
     1.0000   1.0000   1.0000   1.0000   1.0000   1.0000   1.0000   1.0000
     1.0000   1.0000   1.0000   1.0000   1.0000   1.0000   1.0000   1.0000
     1.0000   1.0000   1.0000   1.0000   1.0000   1.0000   1.0000   1.0000
     1.0000   1.0000   1.0000   1.0000   1.0000   1.0000   1.0000   1.0000
     1.0000   1.0000   1.0000   1.0000   1.0000   1.0000   1.0000   1.0000
     1.0000   1.0000   1.0000   1.0000   1.0000   1.0000   1.0000   1.0000
     1.0000   1.0000   1.0000   1.0000   1.0000   1.0000   1.0000   1.0000
     1.0000   1.0000   1.0000   1.0000   1.0000   1.0000   1.0000   1.0000
     1.0000   1.0000   1.0000   1.0000   1.0000   1.0000   1.0000   1.0000
     1.0000   1.0000   1.0000   1.0000   1.0000   1.0000   1.0000   1.0000
     1.0000   1.0000   1.0000   1.0000   1.0000   1.0000   1.0000   1.0000
     1.0000   1.0000   1.0000   1.0000   1.0000   1.0000   1.0000   1.0000
     1.0000   1.0000   1.0000   1.0000   1.0000   1.0000   1.0000   1.0000
     1.0000   1.0000   1.0000   1.0000   1.0000   1.0000   1.0000   1.0000
     1.0000   1.0000   1.0000   1.0000   1.0000   1.0000   1.0000   1.0000
     1.0000   1.0000   1.0000   1.0000   1.0000   1.0000   1.0000   1.0000
     1.0000   1.0000   1.0000   1.0000   1.0000   1.0000   1.0000   1.0000
     1.0000   1.0000   1.0000   1.0000   1.0000   1.0000   1.0000   1.0000
     1.0000   1.0000   1.0000   1.0000   1.0000   1.0000   1.0000   1.0000
     1.0000   1.0000   1.0000   1.0000   1.0000   1.0000   1.0000   1.0000
     1.0000   1.0000   1.0000   1.0000   1.0000   1.0000   1.0000   1.0000
     1.0000   1.0000   1.0000   1.0000   1.0000   1.0000   1.0000   1.0000
     1.0000   1.0000   1.0000   1.0000   1.0000   1.0000   1.0000   1.0000
     1.0000   1.0000   1.0000   1.0000   1.0000   1.0000   1.0000   1.0000
     1.0000   1.0000   1.0000   1.0000   1.0000   1.0000   1.0000   1.0000
     1.0000   1.0000   1.0000   1.0000   1.0000   1.0000   1.0000   1.0000
     1.0000   1.0000   1.0000   1.0000   1.0000   1.0000   1.0000   1.0000
     1.0000   1.0000   1.0000   1.0000   1.0000   1.0000   1.0000   1.0000
     1.0000   1.0000   1.0000   1.0000   1.0000   1.0000   1.0000   1.0000
     1.0000   1.0000   1.0000   1.0000   1.0000   1.0000   1.0000   1.0000
     1.0000   1.0000   1.0000   1.0000   1.0000   1.0000   1.0000   1.0000
     1.0000   1.0000   1.0000   1.0000   1.0000   1.0000   1.0000   1.0000
     1.0000   1.0000   1.0000   1.0000   1.0000   1.0000   1.0000   1.0000
     1.0000   1.0000   1.0000   1.0000   1.0000   0.0000   0.0000   0.0000
     0.0000   0.0000   0.0000   0.0000   0.0000   0.0000   0.0000   0.0000
     0.0000   0.0000   0.0000   0.0000   0.0000   0.0000   0.0000   0.0000
     0.0000   0.0000   0.0000   0.0000   0.0000   0.0000   0.0000   0.0000
     0.0000   0.0000   0.0000   0.0000   0.0000   0.0000   0.0000   0.0000
     0.0000   0.0000   0.0000   0.0000   0.0000   0.0000   0.0000   0.0000
     0.0000   0.0000   0.0000   0.0000   0.0000   0.0000   0.0000   0.0000
     0.0000   0.0000   0.0000   0.0000   0.0000   0.0000   0.0000   0.0000
     0.0000   0.0000   0.0000   0.0000   0.0000   0.0000   0.0000   0.0000
     0.0000   0.0000   0.0000   0.0000   0.0000   0.0000   0.0000   0.0000
     0.0000   0.0000   0.0000   0.0000   0.0000   0.0000   0.0000   0.0000
     0.0000   0.0000   0.0000   0.0000   0.0000   0.0000   0.0000   0.0000
     0.0000   0.0000   0.0000   0.0000   0.0000   0.0000   0.0000   0.0000
     0.0000   0.0000   0.0000   0.0000   0.0000   0.0000   0.0000   0.0000
     0.0000   0.0000   0.0000   0.0000   0.0000   0.0000   0.0000   0.0000
     0.0000   0.0000   0.0000   0.0000   0.0000   0.0000   0.0000   0.0000
     0.0000   0.0000   0.0000   0.0000   0.0000   0.0000   0.0000   0.0000
     0.0000   0.0000   0.0000   0.0000   0.0000   0.0000   0.0000   0.0000
     0.0000   0.0000   0.0000   0.0000   0.0000   0.0000   0.0000   0.0000
     0.0000   0.0000   0.0000   0.0000   0.0000   0.0000   0.0000   0.0000
     0.0000   0.0000   0.0000   0.0000   0.0000   0.0000   0.0000   0.0000
     0.0000   0.0000   0.0000   0.0000   0.0000   0.0000   0.0000   0.0000
     0.0000   0.0000   0.0000   0.0000   0.0000   0.0000   0.0000   0.0000
     0.0000   0.0000   0.0000   0.0000   0.0000   0.0000   0.0000   0.0000
     0.0000   0.0000   0.0000   0.0000   0.0000   0.0000   0.0000   0.0000
     0.0000   0.0000   0.0000   0.0000   0.0000   0.0000   0.0000   0.0000

 ------ SPIN DOWN ----------


          k = 0.0000 0.0000 0.0000 ( 52700 PWs)   bands (ev):

   -71.8511 -71.8484 -71.8484 -71.8484 -71.8471 -71.8471 -71.8186 -71.8174
   -71.8174 -71.8169 -71.8152 -71.8152 -71.8152 -71.8143 -71.8143 -71.8141
   -71.8133 -71.8133 -71.8133 -71.8128 -71.8128 -71.8128 -71.8126 -71.8126
   -71.8126 -71.8122 -71.8119 -71.8118 -71.8118 -71.8118 -71.8111 -71.8111
   -71.8111 -71.8109 -71.8109 -71.8102 -71.8098 -71.8098 -71.8098 -71.8097
   -71.8095 -71.8095 -71.8095 -71.8095 -71.8095 -71.8093 -71.8091 -71.8091
   -71.8091 -71.8090 -71.8090 -71.8090 -71.8089 -71.8089 -71.8089 -71.8086
   -71.8086 -71.8086 -71.8081 -71.8081 -71.8081 -71.8081 -71.8081 -71.8080
   -71.8080 -71.8079 -71.8079 -71.8079 -71.8079 -71.8079 -71.8079 -71.8075
   -71.8073 -71.8072 -71.8072 -71.8072 -71.8068 -71.8067 -71.8067 -71.8067
   -71.8067 -71.8067 -71.8064 -71.8064 -71.8064 -71.8063 -71.8063 -71.8056
   -71.8056 -71.8056 -71.8055 -71.8055 -71.8055 -71.8053 -71.8053 -71.8053
   -71.8051 -71.8051 -71.8051 -71.8046 -71.8046 -71.8046 -71.8039 -71.8039
   -71.8038 -71.8038 -71.8038 -71.8032 -34.8368 -34.8320 -34.8320 -34.8320
   -34.8291 -34.8291 -34.8291 -34.8227 -34.8227 -34.8227 -34.8216 -34.8216
   -34.8216 -34.8202 -34.8202 -34.8200 -34.8197 -34.8197 -34.8197 -34.8194
   -34.8194 -34.8194 -34.8183 -34.8183 -34.8171 -34.8171 -34.8171 -34.8107
   -34.8107 -34.8107 -34.8107 -34.8107 -34.8105 -34.8100 -34.8100 -34.8100
   -34.8094 -34.8094 -34.8094 -34.8074 -34.8074 -34.8074 -34.8056 -34.8034
   -34.8034 -34.8034 -34.8029 -34.8029 -34.8029 -34.8022 -34.8019 -34.8019
   -34.8019 -34.8013 -34.8013 -34.8013 -34.8010 -34.8008 -34.8008 -34.8008
   -34.8007 -34.8007 -34.8007 -34.8006 -34.8006 -34.8006 -34.8005 -34.8005
   -34.8005 -34.8005 -34.8005 -34.7978 -34.7978 -34.7976 -34.7976 -34.7976
   -34.7968 -34.7968 -34.7968 -34.7964 -34.7953 -34.7953 -34.7953 -34.7951
   -34.7951 -34.7951 -34.7944 -34.7941 -34.7941 -34.7929 -34.7929 -34.7929
   -34.7926 -34.7926 -34.7926 -34.7888 -34.7888 -34.7888 -34.7882 -34.7882
   -34.7881 -34.7858 -34.7858 -34.7858 -34.7817 -34.7817 -34.7807 -34.7807
   -34.7807 -34.7795 -34.7791 -34.7791 -34.7791 -34.7778 -34.7778 -34.7778
   -34.7773 -34.7773 -34.7773 -34.7768 -34.7768 -34.7768 -34.7739 -34.7739
   -34.7739 -34.7719 -34.7719 -34.7709 -34.7709 -34.7709 -34.7703 -34.7703
   -34.7703 -34.7696 -34.7696 -34.7696 -34.7653 -34.7653 -34.7653 -34.7648
   -34.7645 -34.7645 -34.7641 -34.7641 -34.7641 -34.7640 -34.7640 -34.7640
   -34.7638 -34.7638 -34.7638 -34.7636 -34.7636 -34.7636 -34.7635 -34.7628
   -34.7626 -34.7626 -34.7621 -34.7619 -34.7619 -34.7611 -34.7611 -34.7611
   -34.7606 -34.7606 -34.7606 -34.7599 -34.7599 -34.7585 -34.7585 -34.7585
   -34.7577 -34.7577 -34.7577 -34.7542 -34.7542 -34.7542 -34.7535 -34.7535
   -34.7535 -34.7534 -34.7534 -34.7534 -34.7513 -34.7513 -34.7513 -34.7511
   -34.7511 -34.7511 -34.7510 -34.7508 -34.7506 -34.7506 -34.7506 -34.7505
   -34.7505 -34.7505 -34.7505 -34.7505 -34.7505 -34.7498 -34.7497 -34.7497
   -34.7497 -34.7497 -34.7497 -34.7491 -34.7491 -34.7480 -34.7480 -34.7480
   -34.7476 -34.7476 -34.7473 -34.7473 -34.7473 -34.7471 -34.7471 -34.7471
   -34.7470 -34.7470 -34.7470 -34.7463 -34.7459 -34.7459 -34.7459 -34.7459
   -34.7459 -34.7459 -34.7458 -34.7458 -34.7458 -34.7458 -34.7458 -34.7457
   -34.7457 -34.7457 -34.7453 -34.7453 -34.7453 -34.7452 -34.7449 -34.7449
   -34.7449 -34.7444 -34.7444 -34.7444 -34.7443 -34.7443 -34.7441 -34.7440
   -34.7440 -34.7439 -34.7432 -34.7432 -34.7432 -34.7428 -34.7428 -34.7425
   -34.7425 -34.7425 -34.7424 -34.7424 -34.7424 -34.7420 -34.7420 -34.7420
   -34.7419 -34.7419 -34.7419 -34.7414 -34.7414 -34.7414 -34.7414 -34.7414
   -34.7410 -34.7410 -34.7410 -34.7404 -34.7394 -34.7386 -34.7386 -34.7386
   -34.7351 -34.7351 -34.7351 -34.7348 -34.7348 -34.7348 -34.7348 -34.7348
   -34.7348 -34.7344 -34.7344 -34.7337 -34.7337 -34.7337 -34.7333 -34.7333
   -34.7333 -34.7332 -34.7332 -34.7332 -34.7326 -34.7326 -34.7326 -34.7323
   -34.7323 -34.7305 -34.7305 -34.7305 -34.7297 -34.7297 -34.7288 -34.7288
   -34.7288 -34.7288 -34.7288 -34.7288 -34.7282 -34.7264 -34.7264 -34.7264
   -13.1684 -12.7659 -12.7659 -12.7617 -12.7617 -12.7617 -12.7204 -12.4171
   -12.4171 -12.4139 -12.4139 -12.4139 -12.4124 -12.4124 -12.4124 -12.4102
   -12.4102 -12.4102 -12.3368 -12.1398 -12.1398 -12.1398 -12.1385 -12.1385
   -12.1385 -12.1329 -12.0955 -11.9270 -11.9270 -11.9206 -11.9206 -11.9206
   -11.9019 -11.7572 -11.7572 -11.7565 -11.7557 -11.7557 -11.7551 -11.7551
   -11.7551 -11.7549 -11.7549 -11.7549 -11.7532 -11.7532 -11.7532 -11.7500
   -11.7500 -11.7500 -11.7482 -11.7482 -11.7482 -11.7475 -11.7475 -11.7475
   -11.7203 -11.6890 -11.6890 -11.6890 -11.6874 -11.6874 -11.6874 -11.6870
   -11.6870 -11.6835 -11.6835 -11.6835 -11.6820 -11.6820 -11.6820 -11.6815
   -11.6815 -11.6815 -11.6812 -11.6803 -11.6803 -11.6803 -11.6769 -11.6769
   -11.5696 -11.5163 -11.5163 -11.5121 -11.5114 -11.5114 -11.5114 -11.5112
   -11.5112 -11.5112 -11.5093 -11.5093 -11.5071 -11.5071 -11.5071 -11.4740
   -11.4568 -11.4568 -11.4543 -11.4525 -11.4525 -11.4523 -11.4523 -11.4523
   -11.4512 -11.4512 -11.4512   1.8713   1.9084   1.9084   1.9106   1.9106
     1.9106   1.9121   1.9121   1.9121   1.9127   1.9127   1.9127   1.9132
     1.9132   1.9132   1.9139   1.9139   1.9157   1.9157   1.9157   1.9225
     1.9833   1.9833   1.9833   2.0567   2.0567   2.0567   2.3062   2.4866
     2.4866   2.4866   2.4892   2.4993   2.4993   2.4993   2.5414   2.5946
     2.5946   2.5946   2.5970   2.5970   2.5970   2.6007   2.6007   2.6007
     2.6043   2.6043   2.6043   2.6197   2.6208   2.6208   2.6208   2.6209
     2.6209   2.6209   2.6216   2.6216   2.6222   2.6222   2.6244   2.6244
     2.6244   2.6246   2.6246   2.6246   2.6271   2.6271   2.6271   2.7132
     2.7132   2.7132   2.7219   2.7448   2.7448   2.8311   2.8311   2.8311
     2.9622   2.9671   2.9671   2.9671   2.9729   2.9729   2.9729   2.9733
     2.9733   3.0467   3.0467   3.0467   3.1465   3.1465   3.1465   3.1483
     3.1483   3.1501   3.1501   3.1501   3.1535   3.3163   3.3163   3.3163
     3.5186   3.6749   3.6749   3.6774   3.6774   3.6774   3.6787   3.6787
     3.6787   3.7585   3.7585   3.7585   4.0585   4.0585   4.0585   4.0600
     4.0600   4.0600   4.0700   4.0700   4.0700   4.1314   4.1314   4.1314
     4.4924   4.4924   4.4924   4.4934   4.4934   4.4934   4.4939   4.4939
     4.4942   4.4942   4.4942   4.4947   4.4947   4.4947   4.4983   4.5019
     4.5019   4.5071   4.5071   4.5071   4.5081   4.5724   4.5724   4.5724
     4.6750   4.6797   4.6797   4.6807   4.6809   4.6809   4.6809   4.6946
     4.6946   4.7415   4.7415   4.7415   4.7497   4.8616   4.8616   4.8727
     4.8727   4.8727   4.9253   4.9468   4.9468   4.9468   4.9468   4.9468
     4.9473   4.9473   4.9473   4.9474   4.9474   4.9474   4.9500   4.9503
     4.9503   4.9503   4.9506   4.9506   4.9555   4.9555   4.9555   5.0105
     5.0105   5.0105   5.0343   5.0343   5.0343   5.1248   5.1248   5.1248
     5.3704   5.3704   5.3704   5.3704   5.3704   5.3704   5.3735   5.3735
     5.3735   5.3756   5.3756   5.3756   5.3926   5.3956   5.3956   5.3956
     5.3965   5.3975   5.3975   5.3984   5.3984   5.3984   5.4025   5.4025
     5.4025   5.4029   5.4029   5.4029   5.4078   5.4078   5.4078   5.4102
     5.4102   5.4113   5.4113   5.4113   5.4117   5.4162   5.4162   5.4162
     5.4186   5.4186   5.4189   5.4189   5.4189   5.4772   5.4772   5.4772
     5.5080   5.5080   5.5080   5.5128   5.5128   5.5176   5.5176   5.5176
     5.5225   5.5507   5.5507   5.5507   5.5877   5.5903   5.5903   5.5911
     5.5911   5.5911   5.5930   5.5930   5.5936   5.5936   5.5936   5.5956
     5.5956   5.5956   5.5962   5.5962   5.5962   5.5972   5.5974   5.5974
     5.5974   5.8952   5.8952   5.8952   5.9806   5.9806   5.9818   5.9818
     5.9818   5.9880   5.9880   5.9888   5.9888   5.9888   5.9891   5.9891
     5.9891   6.0756   6.0756   6.0756   6.1273   6.1273   6.1273   6.1274
     6.1274   6.1274   6.1340   6.1340   6.1340   6.1682   6.1682   6.1682
     6.1895   6.1903   6.1903   6.1903   6.1916   6.1916   6.1916   6.1923
     6.1923   6.5647   6.5647   6.5647  10.1429  15.1715  16.6228  16.6228
    16.6228  17.0973  17.0973  17.3216  17.4515  17.4515  17.4515  18.1508
    18.1527  18.1527  18.1527  18.1679  18.1679  18.1679  18.1923  18.2655
    18.2655  18.2684  18.2684  18.2684  18.2698  18.2698  18.2698  18.7097
    18.7097  18.7097  18.8657  19.3482  19.3482  19.3482  19.5068  19.5068
    19.5068  19.5092  19.5092  19.5103  19.5103  19.5103  19.5109  19.5109
    19.5109  19.5126  19.5138  19.5138  19.5138  19.5163  19.5163  19.5289
    19.5289  19.5289  19.7001  19.7001  19.7001  19.9058  20.0532  20.0532
    20.1489  20.1489  20.1489  20.3127  20.3127  20.3195  20.3328  20.3328
    20.3328  20.3499  20.6891  20.6891  20.6908  20.8092  20.8092  20.8196
    20.8196  20.8196  20.8201  20.8203  20.8203  20.8203  20.8209  20.8209
    20.8209  20.8231  20.8231  20.8231  20.8278  20.8278  20.8284  20.8284
    20.8284  20.8752  20.8780  20.8780  20.8780  20.8790  20.8790  20.8790
    20.8977  20.8977  20.8977  20.9022  20.9022  20.9882  20.9882  20.9882
    21.0327  21.0327  21.0327  21.0356  21.0356  21.0356  21.0516  21.0516
    21.0516  21.3320  21.3320  21.3320  21.5863  21.5943  21.5943  21.5981
    21.5981  21.5981  21.5993  21.6050  21.6050  21.6050  21.6060  21.6060
    21.6060  21.6067  21.6067  21.6067  21.6099  21.6099  21.6556  21.6556
    21.6556  21.9751  21.9751  21.9751  22.1895  22.2880  22.2880  22.2907
    22.2907  22.2907  22.2979  22.3106  22.3106  22.3770  22.3770  22.3770
    22.7903  22.7907  22.7907  22.7907  22.7912  22.7912  22.8165  22.8165
    22.8165  22.8322  22.8322  22.8322  23.1128  23.1129  23.1129  23.1129
    23.1268  23.1268  23.1316  23.1316  23.1316  23.1443  23.1443  23.1443
    23.1642  23.1642  23.1744  23.1825  23.1825  23.1825  23.2057  23.2134
    23.2392  23.2392  23.2392  23.2413  23.2413  23.2413  23.2427  23.2432
    23.2432  23.2441  23.2441  23.2441  23.2458  23.2463  23.2463  23.2479

     occupation numbers 
     1.0000   1.0000   1.0000   1.0000   1.0000   1.0000   1.0000   1.0000
     1.0000   1.0000   1.0000   1.0000   1.0000   1.0000   1.0000   1.0000
     1.0000   1.0000   1.0000   1.0000   1.0000   1.0000   1.0000   1.0000
     1.0000   1.0000   1.0000   1.0000   1.0000   1.0000   1.0000   1.0000
     1.0000   1.0000   1.0000   1.0000   1.0000   1.0000   1.0000   1.0000
     1.0000   1.0000   1.0000   1.0000   1.0000   1.0000   1.0000   1.0000
     1.0000   1.0000   1.0000   1.0000   1.0000   1.0000   1.0000   1.0000
     1.0000   1.0000   1.0000   1.0000   1.0000   1.0000   1.0000   1.0000
     1.0000   1.0000   1.0000   1.0000   1.0000   1.0000   1.0000   1.0000
     1.0000   1.0000   1.0000   1.0000   1.0000   1.0000   1.0000   1.0000
     1.0000   1.0000   1.0000   1.0000   1.0000   1.0000   1.0000   1.0000
     1.0000   1.0000   1.0000   1.0000   1.0000   1.0000   1.0000   1.0000
     1.0000   1.0000   1.0000   1.0000   1.0000   1.0000   1.0000   1.0000
     1.0000   1.0000   1.0000   1.0000   1.0000   1.0000   1.0000   1.0000
     1.0000   1.0000   1.0000   1.0000   1.0000   1.0000   1.0000   1.0000
     1.0000   1.0000   1.0000   1.0000   1.0000   1.0000   1.0000   1.0000
     1.0000   1.0000   1.0000   1.0000   1.0000   1.0000   1.0000   1.0000
     1.0000   1.0000   1.0000   1.0000   1.0000   1.0000   1.0000   1.0000
     1.0000   1.0000   1.0000   1.0000   1.0000   1.0000   1.0000   1.0000
     1.0000   1.0000   1.0000   1.0000   1.0000   1.0000   1.0000   1.0000
     1.0000   1.0000   1.0000   1.0000   1.0000   1.0000   1.0000   1.0000
     1.0000   1.0000   1.0000   1.0000   1.0000   1.0000   1.0000   1.0000
     1.0000   1.0000   1.0000   1.0000   1.0000   1.0000   1.0000   1.0000
     1.0000   1.0000   1.0000   1.0000   1.0000   1.0000   1.0000   1.0000
     1.0000   1.0000   1.0000   1.0000   1.0000   1.0000   1.0000   1.0000
     1.0000   1.0000   1.0000   1.0000   1.0000   1.0000   1.0000   1.0000
     1.0000   1.0000   1.0000   1.0000   1.0000   1.0000   1.0000   1.0000
     1.0000   1.0000   1.0000   1.0000   1.0000   1.0000   1.0000   1.0000
     1.0000   1.0000   1.0000   1.0000   1.0000   1.0000   1.0000   1.0000
     1.0000   1.0000   1.0000   1.0000   1.0000   1.0000   1.0000   1.0000
     1.0000   1.0000   1.0000   1.0000   1.0000   1.0000   1.0000   1.0000
     1.0000   1.0000   1.0000   1.0000   1.0000   1.0000   1.0000   1.0000
     1.0000   1.0000   1.0000   1.0000   1.0000   1.0000   1.0000   1.0000
     1.0000   1.0000   1.0000   1.0000   1.0000   1.0000   1.0000   1.0000
     1.0000   1.0000   1.0000   1.0000   1.0000   1.0000   1.0000   1.0000
     1.0000   1.0000   1.0000   1.0000   1.0000   1.0000   1.0000   1.0000
     1.0000   1.0000   1.0000   1.0000   1.0000   1.0000   1.0000   1.0000
     1.0000   1.0000   1.0000   1.0000   1.0000   1.0000   1.0000   1.0000
     1.0000   1.0000   1.0000   1.0000   1.0000   1.0000   1.0000   1.0000
     1.0000   1.0000   1.0000   1.0000   1.0000   1.0000   1.0000   1.0000
     1.0000   1.0000   1.0000   1.0000   1.0000   1.0000   1.0000   1.0000
     1.0000   1.0000   1.0000   1.0000   1.0000   1.0000   1.0000   1.0000
     1.0000   1.0000   1.0000   1.0000   1.0000   1.0000   1.0000   1.0000
     1.0000   1.0000   1.0000   1.0000   1.0000   1.0000   1.0000   1.0000
     1.0000   1.0000   1.0000   1.0000   1.0000   1.0000   1.0000   1.0000
     1.0000   1.0000   1.0000   1.0000   1.0000   1.0000   1.0000   1.0000
     1.0000   1.0000   1.0000   1.0000   1.0000   1.0000   1.0000   1.0000
     1.0000   1.0000   1.0000   1.0000   1.0000   1.0000   1.0000   1.0000
     1.0000   1.0000   1.0000   1.0000   1.0000   1.0000   1.0000   1.0000
     1.0000   1.0000   1.0000   1.0000   1.0000   1.0000   1.0000   1.0000
     1.0000   1.0000   1.0000   1.0000   1.0000   1.0000   1.0000   1.0000
     1.0000   1.0000   1.0000   1.0000   1.0000   1.0000   1.0000   1.0000
     1.0000   1.0000   1.0000   1.0000   1.0000   1.0000   1.0000   1.0000
     1.0000   1.0000   1.0000   1.0000   1.0000   1.0000   1.0000   1.0000
     1.0000   1.0000   1.0000   1.0000   1.0000   1.0000   1.0000   1.0000
     1.0000   1.0000   1.0000   1.0000   1.0000   1.0000   1.0000   1.0000
     1.0000   1.0000   1.0000   1.0000   1.0000   1.0000   1.0000   1.0000
     1.0000   1.0000   1.0000   1.0000   1.0000   1.0000   1.0000   1.0000
     1.0000   1.0000   1.0000   1.0000   1.0000   1.0000   1.0000   1.0000
     1.0000   1.0000   1.0000   1.0000   1.0000   1.0000   1.0000   1.0000
     1.0000   1.0000   1.0000   1.0000   1.0000   1.0000   1.0000   1.0000
     1.0000   1.0000   1.0000   1.0000   1.0000   1.0000   1.0000   1.0000
     1.0000   1.0000   1.0000   1.0000   1.0000   1.0000   1.0000   1.0000
     1.0000   1.0000   1.0000   1.0000   1.0000   1.0000   1.0000   1.0000
     1.0000   1.0000   1.0000   1.0000   1.0000   1.0000   1.0000   1.0000
     1.0000   1.0000   1.0000   1.0000   1.0000   1.0000   1.0000   1.0000
     1.0000   1.0000   1.0000   1.0000   1.0000   1.0000   1.0000   1.0000
     1.0000   1.0000   1.0000   1.0000   1.0000   1.0000   1.0000   1.0000
     1.0000   1.0000   1.0000   1.0000   1.0000   1.0000   1.0000   1.0000
     1.0000   1.0000   1.0000   1.0000   1.0000   1.0000   1.0000   1.0000
     1.0000   1.0000   1.0000   1.0000   1.0000   1.0000   1.0000   1.0000
     1.0000   1.0000   1.0000   1.0000   1.0000   1.0000   1.0000   1.0000
     1.0000   1.0000   1.0000   1.0000   1.0000   1.0000   1.0000   1.0000
     1.0000   1.0000   1.0000   1.0000   1.0000   1.0000   1.0000   1.0000
     1.0000   1.0000   1.0000   1.0000   1.0000   1.0000   1.0000   1.0000
     1.0000   1.0000   1.0000   1.0000   1.0000   1.0000   1.0000   1.0000
     1.0000   1.0000   1.0000   1.0000   1.0000   1.0000   1.0000   1.0000
     1.0000   1.0000   1.0000   1.0000   1.0000   1.0000   1.0000   1.0000
     1.0000   1.0000   1.0000   1.0000   1.0000   1.0000   1.0000   1.0000
     1.0000   1.0000   1.0000   1.0000   1.0000   1.0000   1.0000   1.0000
     1.0000   1.0000   1.0000   1.0000   1.0000   1.0000   1.0000   1.0000
     1.0000   1.0000   1.0000   1.0000   1.0000   1.0000   1.0000   1.0000
     1.0000   1.0000   1.0000   1.0000   1.0000   1.0000   1.0000   1.0000
     1.0000   1.0000   1.0000   1.0000   1.0000   1.0000   1.0000   1.0000
     1.0000   1.0000   1.0000   1.0000   1.0000   1.0000   1.0000   1.0000
     1.0000   1.0000   1.0000   1.0000   1.0000   1.0000   1.0000   1.0000
     1.0000   1.0000   1.0000   1.0000   1.0000   1.0000   1.0000   1.0000
     1.0000   1.0000   1.0000   1.0000   1.0000   1.0000   1.0000   1.0000
     1.0000   1.0000   1.0000   1.0000   1.0000   1.0000   1.0000   1.0000
     1.0000   1.0000   1.0000   1.0000   1.0000   1.0000   1.0000   1.0000
     1.0000   1.0000   1.0000   1.0000   1.0000   1.0000   1.0000   1.0000
     1.0000   1.0000   1.0000   1.0000   1.0000   1.0000   1.0000   1.0000
     1.0000   1.0000   1.0000   1.0000   1.0000   1.0000   1.0000   1.0000
     1.0000   1.0000   1.0000   1.0000   1.0000   1.0000   1.0000   1.0000
     1.0000   1.0000   1.0000   1.0000   1.0000   1.0000   1.0000   1.0000
     1.0000   1.0000   1.0000   1.0000   1.0000   1.0000   1.0000   1.0000
     1.0000   1.0000   1.0000   1.0000   1.0000   1.0000   1.0000   1.0000
     1.0000   1.0000   1.0000   1.0000   1.0000   1.0000   1.0000   1.0000
     1.0000   1.0000   1.0000   1.0000   1.0000   1.0000   1.0000   1.0000
     1.0000   1.0000   1.0000   1.0000   1.0000   1.0000   1.0000   1.0000
     1.0000   1.0000   1.0000   1.0000   1.0000   1.0000   1.0000   1.0000
     1.0000   1.0000   1.0000   1.0000   1.0000   1.0000   1.0000   1.0000
     1.0000   1.0000   1.0000   1.0000   1.0000   1.0000   1.0000   1.0000
     1.0000   1.0000   1.0000   1.0000   1.0000   1.0000   1.0000   1.0000
     1.0000   1.0000   1.0000   1.0000   1.0000   1.0000   1.0000   1.0000
     1.0000   1.0000   1.0000   1.0000   1.0000   1.0000   1.0000   1.0000
     1.0000   1.0000   1.0000   1.0000   1.0000   1.0000   1.0000   1.0000
     1.0000   1.0000   1.0000   1.0000   1.0000   0.0000   0.0000   0.0000
     0.0000   0.0000   0.0000   0.0000   0.0000   0.0000   0.0000   0.0000
     0.0000   0.0000   0.0000   0.0000   0.0000   0.0000   0.0000   0.0000
     0.0000   0.0000   0.0000   0.0000   0.0000   0.0000   0.0000   0.0000
     0.0000   0.0000   0.0000   0.0000   0.0000   0.0000   0.0000   0.0000
     0.0000   0.0000   0.0000   0.0000   0.0000   0.0000   0.0000   0.0000
     0.0000   0.0000   0.0000   0.0000   0.0000   0.0000   0.0000   0.0000
     0.0000   0.0000   0.0000   0.0000   0.0000   0.0000   0.0000   0.0000
     0.0000   0.0000   0.0000   0.0000   0.0000   0.0000   0.0000   0.0000
     0.0000   0.0000   0.0000   0.0000   0.0000   0.0000   0.0000   0.0000
     0.0000   0.0000   0.0000   0.0000   0.0000   0.0000   0.0000   0.0000
     0.0000   0.0000   0.0000   0.0000   0.0000   0.0000   0.0000   0.0000
     0.0000   0.0000   0.0000   0.0000   0.0000   0.0000   0.0000   0.0000
     0.0000   0.0000   0.0000   0.0000   0.0000   0.0000   0.0000   0.0000
     0.0000   0.0000   0.0000   0.0000   0.0000   0.0000   0.0000   0.0000
     0.0000   0.0000   0.0000   0.0000   0.0000   0.0000   0.0000   0.0000
     0.0000   0.0000   0.0000   0.0000   0.0000   0.0000   0.0000   0.0000
     0.0000   0.0000   0.0000   0.0000   0.0000   0.0000   0.0000   0.0000
     0.0000   0.0000   0.0000   0.0000   0.0000   0.0000   0.0000   0.0000
     0.0000   0.0000   0.0000   0.0000   0.0000   0.0000   0.0000   0.0000
     0.0000   0.0000   0.0000   0.0000   0.0000   0.0000   0.0000   0.0000
     0.0000   0.0000   0.0000   0.0000   0.0000   0.0000   0.0000   0.0000
     0.0000   0.0000   0.0000   0.0000   0.0000   0.0000   0.0000   0.0000
     0.0000   0.0000   0.0000   0.0000   0.0000   0.0000   0.0000   0.0000
     0.0000   0.0000   0.0000   0.0000   0.0000   0.0000   0.0000   0.0000
     0.0000   0.0000   0.0000   0.0000   0.0000   0.0000   0.0000   0.0000

     highest occupied, lowest unoccupied level (ev):    10.1429   15.1715

!    total energy              =  -15183.33620595 Ry
     Harris-Foulkes estimate   =  -15183.33620595 Ry
     estimated scf accuracy    <       0.00000001 Ry

     total magnetization       =     0.00 Bohr mag/cell
     absolute magnetization    =     0.00 Bohr mag/cell

     convergence has been achieved in   4 iterations

     total energy              =  -15183.33623980 Ry
     Harris-Foulkes estimate   =  -15183.33623980 Ry
     est. exchange err (dexx)  =       0.00003386 Ry
     - averaged Fock potential =    1553.83858066 Ry
     + Fock energy             =    -776.94194058 Ry

     EXX: now go back to refine exchange calculation

     total cpu time spent up to now is    31601.5 secs

     per-process dynamical memory:   354.5 Mb

     Self-consistent Calculation

     iteration #  1     ecut=    60.00 Ry     beta=0.30
     Davidson diagonalization with overlap
     ethr =  1.58E-10,  avg # of iterations =  6.5

     total cpu time spent up to now is    33193.6 secs

     total energy              =  -15183.33624554 Ry
     Harris-Foulkes estimate   =  -15183.33624704 Ry
     estimated scf accuracy    <       0.00000376 Ry

     total magnetization       =     0.00 Bohr mag/cell
     absolute magnetization    =     0.00 Bohr mag/cell

     iteration #  2     ecut=    60.00 Ry     beta=0.30
     Davidson diagonalization with overlap
     ethr =  2.18E-10,  avg # of iterations =  5.0

     total cpu time spent up to now is    34341.2 secs

     total energy              =  -15183.33624574 Ry
     Harris-Foulkes estimate   =  -15183.33624591 Ry
     estimated scf accuracy    <       0.00000047 Ry

     total magnetization       =     0.00 Bohr mag/cell
     absolute magnetization    =     0.00 Bohr mag/cell

     iteration #  3     ecut=    60.00 Ry     beta=0.30
     Davidson diagonalization with overlap
     ethr =  2.71E-11,  avg # of iterations = 12.0
 
     Magnetic moment per site:
     atom:    1    charge:    8.1499    magn:   -0.0000    constr:    0.0000
     atom:    2    charge:    8.1498    magn:   -0.0000    constr:    0.0000
     atom:    3    charge:    8.1498    magn:   -0.0000    constr:    0.0000
     atom:    4    charge:    8.1498    magn:   -0.0000    constr:    0.0000
     atom:    5    charge:    8.1499    magn:   -0.0000    constr:    0.0000
     atom:    6    charge:    8.1499    magn:   -0.0000    constr:    0.0000
     atom:    7    charge:    8.1498    magn:   -0.0000    constr:    0.0000
     atom:    8    charge:    8.1499    magn:   -0.0000    constr:    0.0000
     atom:    9    charge:    8.1499    magn:   -0.0000    constr:    0.0000
     atom:   10    charge:    8.1498    magn:   -0.0000    constr:    0.0000
     atom:   11    charge:    8.1499    magn:   -0.0000    constr:    0.0000
     atom:   12    charge:    8.1499    magn:   -0.0000    constr:    0.0000
     atom:   13    charge:    8.1499    magn:   -0.0000    constr:    0.0000
     atom:   14    charge:    8.1489    magn:   -0.0000    constr:    0.0000
     atom:   15    charge:    8.1489    magn:   -0.0000    constr:    0.0000
     atom:   16    charge:    8.1499    magn:   -0.0000    constr:    0.0000
     atom:   17    charge:    8.1489    magn:   -0.0000    constr:    0.0000
     atom:   18    charge:    8.1489    magn:   -0.0000    constr:    0.0000
     atom:   19    charge:    8.1498    magn:   -0.0000    constr:    0.0000
     atom:   20    charge:    8.1499    magn:   -0.0000    constr:    0.0000
     atom:   21    charge:    8.1499    magn:   -0.0000    constr:    0.0000
     atom:   22    charge:    8.1499    magn:   -0.0000    constr:    0.0000
     atom:   23    charge:    8.1489    magn:   -0.0000    constr:    0.0000
     atom:   24    charge:    8.1489    magn:   -0.0000    constr:    0.0000
     atom:   25    charge:    8.1499    magn:   -0.0000    constr:    0.0000
     atom:   26    charge:    8.1489    magn:   -0.0000    constr:    0.0000
     atom:   27    charge:    8.1489    magn:   -0.0000    constr:    0.0000
     atom:   28    charge:    8.1498    magn:   -0.0000    constr:    0.0000
     atom:   29    charge:    8.1501    magn:   -0.0000    constr:    0.0000
     atom:   30    charge:    8.1498    magn:   -0.0000    constr:    0.0000
     atom:   31    charge:    8.1501    magn:   -0.0000    constr:    0.0000
     atom:   32    charge:    8.1497    magn:    0.0000    constr:    0.0000
     atom:   33    charge:    8.1501    magn:   -0.0000    constr:    0.0000
     atom:   34    charge:    8.1498    magn:   -0.0000    constr:    0.0000
     atom:   35    charge:    8.1501    magn:   -0.0000    constr:    0.0000
     atom:   36    charge:    8.1498    magn:   -0.0000    constr:    0.0000
     atom:   37    charge:    8.1498    magn:   -0.0000    constr:    0.0000
     atom:   38    charge:    8.1502    magn:   -0.0000    constr:    0.0000
     atom:   39    charge:    8.1498    magn:   -0.0000    constr:    0.0000
     atom:   40    charge:    8.1502    magn:   -0.0000    constr:    0.0000
     atom:   41    charge:    8.1436    magn:   -0.0000    constr:    0.0000
     atom:   42    charge:    8.1502    magn:   -0.0000    constr:    0.0000
     atom:   43    charge:    8.1498    magn:   -0.0000    constr:    0.0000
     atom:   44    charge:    8.1502    magn:   -0.0000    constr:    0.0000
     atom:   45    charge:    8.1498    magn:   -0.0000    constr:    0.0000
     atom:   46    charge:    8.1498    magn:   -0.0000    constr:    0.0000
     atom:   47    charge:    8.1502    magn:   -0.0000    constr:    0.0000
     atom:   48    charge:    8.1498    magn:   -0.0000    constr:    0.0000
     atom:   49    charge:    8.1502    magn:   -0.0000    constr:    0.0000
     atom:   50    charge:    8.1436    magn:    0.0000    constr:    0.0000
     atom:   51    charge:    8.1502    magn:   -0.0000    constr:    0.0000
     atom:   52    charge:    8.1498    magn:   -0.0000    constr:    0.0000
     atom:   53    charge:    8.1502    magn:   -0.0000    constr:    0.0000
     atom:   54    charge:    8.1498    magn:   -0.0000    constr:    0.0000
     atom:   55    charge:    8.1498    magn:   -0.0000    constr:    0.0000
     atom:   56    charge:    8.1501    magn:   -0.0000    constr:    0.0000
     atom:   57    charge:    8.1498    magn:   -0.0000    constr:    0.0000
     atom:   58    charge:    8.1498    magn:   -0.0000    constr:    0.0000
     atom:   59    charge:    8.1502    magn:   -0.0000    constr:    0.0000
     atom:   60    charge:    8.1498    magn:   -0.0000    constr:    0.0000
     atom:   61    charge:    8.1498    magn:   -0.0000    constr:    0.0000
     atom:   62    charge:    8.1502    magn:   -0.0000    constr:    0.0000
     atom:   63    charge:    8.1498    magn:   -0.0000    constr:    0.0000
     atom:   64    charge:    8.1501    magn:   -0.0000    constr:    0.0000
     atom:   65    charge:    8.1497    magn:   -0.0000    constr:    0.0000
     atom:   66    charge:    8.1501    magn:   -0.0000    constr:    0.0000
     atom:   67    charge:    8.1502    magn:   -0.0000    constr:    0.0000
     atom:   68    charge:    8.1436    magn:    0.0000    constr:    0.0000
     atom:   69    charge:    8.1502    magn:   -0.0000    constr:    0.0000
     atom:   70    charge:    8.1502    magn:   -0.0000    constr:    0.0000
     atom:   71    charge:    8.1436    magn:   -0.0000    constr:    0.0000
     atom:   72    charge:    8.1502    magn:   -0.0000    constr:    0.0000
     atom:   73    charge:    8.1498    magn:   -0.0000    constr:    0.0000
     atom:   74    charge:    8.1501    magn:   -0.0000    constr:    0.0000
     atom:   75    charge:    8.1498    magn:   -0.0000    constr:    0.0000
     atom:   76    charge:    8.1498    magn:   -0.0000    constr:    0.0000
     atom:   77    charge:    8.1502    magn:   -0.0000    constr:    0.0000
     atom:   78    charge:    8.1498    magn:   -0.0000    constr:    0.0000
     atom:   79    charge:    8.1498    magn:   -0.0000    constr:    0.0000
     atom:   80    charge:    8.1502    magn:   -0.0000    constr:    0.0000
     atom:   81    charge:    8.1498    magn:   -0.0000    constr:    0.0000
     atom:   82    charge:    8.1498    magn:   -0.0000    constr:    0.0000
     atom:   83    charge:    8.1498    magn:   -0.0000    constr:    0.0000
     atom:   84    charge:    8.1498    magn:   -0.0000    constr:    0.0000
     atom:   85    charge:    8.1501    magn:   -0.0000    constr:    0.0000
     atom:   86    charge:    8.1502    magn:   -0.0000    constr:    0.0000
     atom:   87    charge:    8.1502    magn:   -0.0000    constr:    0.0000
     atom:   88    charge:    8.1498    magn:   -0.0000    constr:    0.0000
     atom:   89    charge:    8.1498    magn:   -0.0000    constr:    0.0000
     atom:   90    charge:    8.1498    magn:   -0.0000    constr:    0.0000
     atom:   91    charge:    8.1501    magn:   -0.0000    constr:    0.0000
     atom:   92    charge:    8.1502    magn:   -0.0000    constr:    0.0000
     atom:   93    charge:    8.1502    magn:   -0.0000    constr:    0.0000
     atom:   94    charge:    8.1497    magn:   -0.0000    constr:    0.0000
     atom:   95    charge:    8.1436    magn:   -0.0000    constr:    0.0000
     atom:   96    charge:    8.1436    magn:    0.0000    constr:    0.0000
     atom:   97    charge:    8.1501    magn:   -0.0000    constr:    0.0000
     atom:   98    charge:    8.1502    magn:   -0.0000    constr:    0.0000
     atom:   99    charge:    8.1502    magn:   -0.0000    constr:    0.0000
     atom:  100    charge:    8.1498    magn:   -0.0000    constr:    0.0000
     atom:  101    charge:    8.1498    magn:   -0.0000    constr:    0.0000
     atom:  102    charge:    8.1498    magn:   -0.0000    constr:    0.0000
     atom:  103    charge:    8.1501    magn:   -0.0000    constr:    0.0000
     atom:  104    charge:    8.1502    magn:   -0.0000    constr:    0.0000
     atom:  105    charge:    8.1502    magn:   -0.0000    constr:    0.0000
     atom:  106    charge:    8.1498    magn:   -0.0000    constr:    0.0000
     atom:  107    charge:    8.1498    magn:   -0.0000    constr:    0.0000
     atom:  108    charge:    8.1498    magn:   -0.0000    constr:    0.0000
     atom:  109    charge:    5.8313    magn:    0.0000    constr:    0.0000
     atom:  110    charge:    5.8312    magn:    0.0000    constr:    0.0000
     atom:  111    charge:    5.8312    magn:    0.0000    constr:    0.0000
     atom:  112    charge:    5.8318    magn:   -0.0000    constr:    0.0000
     atom:  113    charge:    5.8315    magn:    0.0000    constr:    0.0000
     atom:  114    charge:    5.8315    magn:    0.0000    constr:    0.0000
     atom:  115    charge:    5.8313    magn:    0.0000    constr:    0.0000
     atom:  116    charge:    5.8312    magn:    0.0000    constr:    0.0000
     atom:  117    charge:    5.8312    magn:    0.0000    constr:    0.0000
     atom:  118    charge:    5.8312    magn:    0.0000    constr:    0.0000
     atom:  119    charge:    5.8308    magn:    0.0000    constr:    0.0000
     atom:  120    charge:    5.8308    magn:    0.0000    constr:    0.0000
     atom:  121    charge:    5.8315    magn:   -0.0000    constr:    0.0000
     atom:  122    charge:    5.8264    magn:    0.0000    constr:    0.0000
     atom:  123    charge:    5.8264    magn:    0.0000    constr:    0.0000
     atom:  124    charge:    5.8312    magn:    0.0000    constr:    0.0000
     atom:  125    charge:    5.8308    magn:    0.0000    constr:    0.0000
     atom:  126    charge:    5.8308    magn:    0.0000    constr:    0.0000
     atom:  127    charge:    5.8312    magn:    0.0000    constr:    0.0000
     atom:  128    charge:    5.8308    magn:    0.0000    constr:    0.0000
     atom:  129    charge:    5.8308    magn:    0.0000    constr:    0.0000
     atom:  130    charge:    5.8315    magn:   -0.0000    constr:    0.0000
     atom:  131    charge:    5.8264    magn:    0.0000    constr:    0.0000
     atom:  132    charge:    5.8264    magn:    0.0000    constr:    0.0000
     atom:  133    charge:    5.8312    magn:    0.0000    constr:    0.0000
     atom:  134    charge:    5.8308    magn:    0.0000    constr:    0.0000
     atom:  135    charge:    5.8308    magn:   -0.0000    constr:    0.0000
     atom:  136    charge:    5.8313    magn:    0.0000    constr:    0.0000
     atom:  137    charge:    5.8318    magn:    0.0000    constr:    0.0000
     atom:  138    charge:    5.8313    magn:    0.0000    constr:    0.0000
     atom:  139    charge:    5.8312    magn:    0.0000    constr:    0.0000
     atom:  140    charge:    5.8315    magn:    0.0000    constr:    0.0000
     atom:  141    charge:    5.8312    magn:    0.0000    constr:    0.0000
     atom:  142    charge:    5.8312    magn:    0.0000    constr:    0.0000
     atom:  143    charge:    5.8315    magn:   -0.0000    constr:    0.0000
     atom:  144    charge:    5.8312    magn:    0.0000    constr:    0.0000
     atom:  145    charge:    5.8312    magn:    0.0000    constr:    0.0000
     atom:  146    charge:    5.8315    magn:    0.0000    constr:    0.0000
     atom:  147    charge:    5.8312    magn:    0.0000    constr:    0.0000
     atom:  148    charge:    5.8308    magn:    0.0000    constr:    0.0000
     atom:  149    charge:    5.8264    magn:    0.0000    constr:    0.0000
     atom:  150    charge:    5.8308    magn:    0.0000    constr:    0.0000
     atom:  151    charge:    5.8308    magn:    0.0000    constr:    0.0000
     atom:  152    charge:    5.8264    magn:    0.0000    constr:    0.0000
     atom:  153    charge:    5.8308    magn:    0.0000    constr:    0.0000
     atom:  154    charge:    5.8312    magn:    0.0000    constr:    0.0000
     atom:  155    charge:    5.8315    magn:    0.0000    constr:    0.0000
     atom:  156    charge:    5.8312    magn:    0.0000    constr:    0.0000
     atom:  157    charge:    5.8308    magn:    0.0000    constr:    0.0000
     atom:  158    charge:    5.8264    magn:    0.0000    constr:    0.0000
     atom:  159    charge:    5.8308    magn:    0.0000    constr:    0.0000
     atom:  160    charge:    5.8308    magn:    0.0000    constr:    0.0000
     atom:  161    charge:    5.8264    magn:    0.0000    constr:    0.0000
     atom:  162    charge:    5.8308    magn:   -0.0000    constr:    0.0000
     atom:  163    charge:    5.8312    magn:    0.0000    constr:    0.0000
     atom:  164    charge:    5.8317    magn:    0.0000    constr:    0.0000
     atom:  165    charge:    5.8312    magn:    0.0000    constr:    0.0000
     atom:  166    charge:    5.8317    magn:    0.0000    constr:    0.0000
     atom:  167    charge:    5.8314    magn:    0.0000    constr:    0.0000
     atom:  168    charge:    5.8317    magn:    0.0000    constr:    0.0000
     atom:  169    charge:    5.8312    magn:    0.0000    constr:    0.0000
     atom:  170    charge:    5.8317    magn:    0.0000    constr:    0.0000
     atom:  171    charge:    5.8312    magn:    0.0000    constr:    0.0000
     atom:  172    charge:    5.8317    magn:   -0.0000    constr:    0.0000
     atom:  173    charge:    5.8314    magn:    0.0000    constr:    0.0000
     atom:  174    charge:    5.8317    magn:   -0.0000    constr:    0.0000
     atom:  175    charge:    5.8314    magn:    0.0000    constr:    0.0000
     atom:  176    charge:    5.8314    magn:    0.0000    constr:    0.0000
     atom:  177    charge:    5.8317    magn:    0.0000    constr:    0.0000
     atom:  178    charge:    5.8314    magn:    0.0000    constr:    0.0000
     atom:  179    charge:    5.8317    magn:   -0.0000    constr:    0.0000
     atom:  180    charge:    5.8312    magn:    0.0000    constr:    0.0000
     atom:  181    charge:    5.8317    magn:   -0.0000    constr:    0.0000
     atom:  182    charge:    5.8312    magn:    0.0000    constr:    0.0000
     atom:  183    charge:    5.8317    magn:    0.0000    constr:    0.0000
     atom:  184    charge:    5.8314    magn:    0.0000    constr:    0.0000
     atom:  185    charge:    5.8317    magn:    0.0000    constr:    0.0000
     atom:  186    charge:    5.8312    magn:    0.0000    constr:    0.0000
     atom:  187    charge:    5.8317    magn:    0.0000    constr:    0.0000
     atom:  188    charge:    5.8312    magn:    0.0000    constr:    0.0000
     atom:  189    charge:    5.8313    magn:    0.0000    constr:    0.0000
     atom:  190    charge:    5.8312    magn:    0.0000    constr:    0.0000
     atom:  191    charge:    5.8312    magn:    0.0000    constr:    0.0000
     atom:  192    charge:    5.8312    magn:    0.0000    constr:    0.0000
     atom:  193    charge:    5.8308    magn:    0.0000    constr:    0.0000
     atom:  194    charge:    5.8308    magn:    0.0000    constr:    0.0000
     atom:  195    charge:    5.8312    magn:    0.0000    constr:    0.0000
     atom:  196    charge:    5.8308    magn:    0.0000    constr:    0.0000
     atom:  197    charge:    5.8308    magn:    0.0000    constr:    0.0000
     atom:  198    charge:    5.8318    magn:    0.0000    constr:    0.0000
     atom:  199    charge:    5.8315    magn:   -0.0000    constr:    0.0000
     atom:  200    charge:    5.8315    magn:    0.0000    constr:    0.0000
     atom:  201    charge:    5.8315    magn:    0.0000    constr:    0.0000
     atom:  202    charge:    5.8264    magn:   -0.0000    constr:    0.0000
     atom:  203    charge:    5.8264    magn:    0.0000    constr:    0.0000
     atom:  204    charge:    5.8315    magn:    0.0000    constr:    0.0000
     atom:  205    charge:    5.8264    magn:    0.0000    constr:    0.0000
     atom:  206    charge:    5.8264    magn:    0.0000    constr:    0.0000
     atom:  207    charge:    5.8313    magn:    0.0000    constr:    0.0000
     atom:  208    charge:    5.8312    magn:    0.0000    constr:    0.0000
     atom:  209    charge:    5.8312    magn:    0.0000    constr:    0.0000
     atom:  210    charge:    5.8312    magn:    0.0000    constr:    0.0000
     atom:  211    charge:    5.8308    magn:    0.0000    constr:    0.0000
     atom:  212    charge:    5.8308    magn:    0.0000    constr:    0.0000
     atom:  213    charge:    5.8312    magn:    0.0000    constr:    0.0000
     atom:  214    charge:    5.8308    magn:    0.0000    constr:    0.0000
     atom:  215    charge:    5.8308    magn:    0.0000    constr:    0.0000

     total cpu time spent up to now is    35612.6 secs

     End of self-consistent calculation

 ------ SPIN UP ------------


          k = 0.0000 0.0000 0.0000 ( 52700 PWs)   bands (ev):

   -71.8512 -71.8485 -71.8485 -71.8485 -71.8472 -71.8472 -71.8188 -71.8176
   -71.8176 -71.8171 -71.8155 -71.8155 -71.8155 -71.8146 -71.8146 -71.8143
   -71.8135 -71.8135 -71.8135 -71.8130 -71.8130 -71.8130 -71.8129 -71.8129
   -71.8129 -71.8125 -71.8121 -71.8121 -71.8121 -71.8121 -71.8113 -71.8113
   -71.8113 -71.8111 -71.8111 -71.8104 -71.8101 -71.8101 -71.8101 -71.8099
   -71.8098 -71.8098 -71.8098 -71.8098 -71.8098 -71.8095 -71.8094 -71.8094
   -71.8094 -71.8092 -71.8092 -71.8092 -71.8092 -71.8092 -71.8092 -71.8088
   -71.8088 -71.8088 -71.8084 -71.8084 -71.8084 -71.8084 -71.8084 -71.8082
   -71.8082 -71.8081 -71.8081 -71.8081 -71.8081 -71.8081 -71.8081 -71.8078
   -71.8076 -71.8075 -71.8075 -71.8075 -71.8071 -71.8070 -71.8070 -71.8070
   -71.8069 -71.8069 -71.8066 -71.8066 -71.8066 -71.8066 -71.8066 -71.8058
   -71.8058 -71.8058 -71.8057 -71.8057 -71.8057 -71.8055 -71.8055 -71.8055
   -71.8053 -71.8053 -71.8053 -71.8049 -71.8049 -71.8049 -71.8042 -71.8042
   -71.8041 -71.8041 -71.8041 -71.8035 -34.8371 -34.8323 -34.8323 -34.8323
   -34.8294 -34.8294 -34.8294 -34.8230 -34.8230 -34.8230 -34.8219 -34.8219
   -34.8219 -34.8206 -34.8206 -34.8204 -34.8200 -34.8200 -34.8200 -34.8198
   -34.8198 -34.8198 -34.8186 -34.8186 -34.8174 -34.8174 -34.8174 -34.8110
   -34.8110 -34.8110 -34.8110 -34.8110 -34.8108 -34.8104 -34.8104 -34.8104
   -34.8098 -34.8098 -34.8098 -34.8077 -34.8077 -34.8077 -34.8059 -34.8037
   -34.8037 -34.8037 -34.8032 -34.8032 -34.8032 -34.8025 -34.8022 -34.8022
   -34.8022 -34.8016 -34.8016 -34.8016 -34.8013 -34.8011 -34.8011 -34.8011
   -34.8011 -34.8011 -34.8011 -34.8009 -34.8009 -34.8009 -34.8008 -34.8008
   -34.8008 -34.8008 -34.8008 -34.7982 -34.7982 -34.7979 -34.7979 -34.7979
   -34.7971 -34.7971 -34.7971 -34.7968 -34.7956 -34.7956 -34.7956 -34.7954
   -34.7954 -34.7954 -34.7948 -34.7944 -34.7944 -34.7932 -34.7932 -34.7932
   -34.7929 -34.7929 -34.7929 -34.7891 -34.7891 -34.7891 -34.7885 -34.7885
   -34.7885 -34.7861 -34.7861 -34.7861 -34.7820 -34.7820 -34.7811 -34.7811
   -34.7811 -34.7798 -34.7795 -34.7795 -34.7795 -34.7782 -34.7782 -34.7782
   -34.7776 -34.7776 -34.7776 -34.7771 -34.7771 -34.7771 -34.7742 -34.7742
   -34.7742 -34.7722 -34.7722 -34.7713 -34.7713 -34.7713 -34.7706 -34.7706
   -34.7706 -34.7699 -34.7699 -34.7699 -34.7656 -34.7656 -34.7656 -34.7651
   -34.7649 -34.7649 -34.7644 -34.7644 -34.7644 -34.7644 -34.7644 -34.7644
   -34.7641 -34.7641 -34.7641 -34.7640 -34.7640 -34.7640 -34.7638 -34.7632
   -34.7629 -34.7629 -34.7625 -34.7623 -34.7623 -34.7615 -34.7615 -34.7615
   -34.7610 -34.7610 -34.7610 -34.7603 -34.7603 -34.7588 -34.7588 -34.7588
   -34.7580 -34.7580 -34.7580 -34.7546 -34.7546 -34.7546 -34.7539 -34.7539
   -34.7539 -34.7537 -34.7537 -34.7537 -34.7517 -34.7517 -34.7517 -34.7514
   -34.7514 -34.7514 -34.7514 -34.7511 -34.7509 -34.7509 -34.7509 -34.7509
   -34.7509 -34.7509 -34.7508 -34.7508 -34.7508 -34.7502 -34.7501 -34.7501
   -34.7501 -34.7501 -34.7501 -34.7495 -34.7495 -34.7484 -34.7484 -34.7484
   -34.7480 -34.7480 -34.7476 -34.7476 -34.7476 -34.7474 -34.7474 -34.7474
   -34.7474 -34.7474 -34.7474 -34.7466 -34.7463 -34.7463 -34.7463 -34.7463
   -34.7463 -34.7463 -34.7462 -34.7462 -34.7461 -34.7461 -34.7461 -34.7460
   -34.7460 -34.7460 -34.7457 -34.7457 -34.7457 -34.7456 -34.7452 -34.7452
   -34.7452 -34.7447 -34.7447 -34.7447 -34.7446 -34.7446 -34.7445 -34.7444
   -34.7444 -34.7443 -34.7435 -34.7435 -34.7435 -34.7432 -34.7432 -34.7429
   -34.7429 -34.7429 -34.7427 -34.7427 -34.7427 -34.7423 -34.7423 -34.7423
   -34.7423 -34.7423 -34.7423 -34.7418 -34.7418 -34.7418 -34.7418 -34.7418
   -34.7414 -34.7414 -34.7414 -34.7408 -34.7398 -34.7390 -34.7390 -34.7390
   -34.7354 -34.7354 -34.7354 -34.7352 -34.7352 -34.7352 -34.7351 -34.7351
   -34.7351 -34.7347 -34.7347 -34.7340 -34.7340 -34.7340 -34.7337 -34.7337
   -34.7337 -34.7336 -34.7336 -34.7336 -34.7330 -34.7330 -34.7330 -34.7327
   -34.7327 -34.7309 -34.7309 -34.7309 -34.7301 -34.7301 -34.7292 -34.7292
   -34.7292 -34.7291 -34.7291 -34.7291 -34.7286 -34.7268 -34.7268 -34.7268
   -13.1678 -12.7654 -12.7654 -12.7612 -12.7612 -12.7612 -12.7198 -12.4166
   -12.4166 -12.4134 -12.4134 -12.4134 -12.4118 -12.4118 -12.4118 -12.4097
   -12.4097 -12.4097 -12.3362 -12.1393 -12.1393 -12.1393 -12.1380 -12.1380
   -12.1380 -12.1324 -12.0950 -11.9265 -11.9265 -11.9201 -11.9201 -11.9201
   -11.9014 -11.7567 -11.7567 -11.7560 -11.7551 -11.7551 -11.7546 -11.7546
   -11.7546 -11.7544 -11.7544 -11.7544 -11.7527 -11.7527 -11.7527 -11.7495
   -11.7495 -11.7495 -11.7476 -11.7476 -11.7476 -11.7470 -11.7470 -11.7470
   -11.7198 -11.6885 -11.6885 -11.6885 -11.6869 -11.6869 -11.6869 -11.6865
   -11.6865 -11.6830 -11.6830 -11.6830 -11.6816 -11.6816 -11.6816 -11.6809
   -11.6809 -11.6809 -11.6807 -11.6798 -11.6798 -11.6798 -11.6764 -11.6764
   -11.5691 -11.5158 -11.5158 -11.5116 -11.5109 -11.5109 -11.5109 -11.5108
   -11.5108 -11.5108 -11.5088 -11.5088 -11.5066 -11.5066 -11.5066 -11.4735
   -11.4563 -11.4563 -11.4538 -11.4521 -11.4521 -11.4518 -11.4518 -11.4518
   -11.4507 -11.4507 -11.4507   1.8717   1.9089   1.9089   1.9110   1.9110
     1.9110   1.9125   1.9125   1.9125   1.9131   1.9131   1.9131   1.9137
     1.9137   1.9137   1.9143   1.9143   1.9161   1.9161   1.9161   1.9230
     1.9838   1.9838   1.9838   2.0571   2.0571   2.0571   2.3067   2.4870
     2.4870   2.4870   2.4897   2.4998   2.4998   2.4998   2.5418   2.5949
     2.5949   2.5949   2.5973   2.5973   2.5973   2.6010   2.6010   2.6010
     2.6047   2.6047   2.6047   2.6201   2.6212   2.6212   2.6212   2.6213
     2.6213   2.6213   2.6220   2.6220   2.6226   2.6226   2.6248   2.6248
     2.6248   2.6251   2.6251   2.6251   2.6275   2.6275   2.6275   2.7136
     2.7136   2.7136   2.7224   2.7453   2.7453   2.8315   2.8315   2.8315
     2.9625   2.9673   2.9673   2.9673   2.9732   2.9732   2.9732   2.9735
     2.9735   3.0469   3.0469   3.0469   3.1467   3.1467   3.1467   3.1485
     3.1485   3.1503   3.1503   3.1503   3.1537   3.3166   3.3166   3.3166
     3.5191   3.6753   3.6753   3.6778   3.6778   3.6778   3.6792   3.6792
     3.6792   3.7589   3.7589   3.7589   4.0585   4.0585   4.0585   4.0601
     4.0601   4.0601   4.0701   4.0701   4.0701   4.1314   4.1314   4.1314
     4.4923   4.4923   4.4923   4.4933   4.4933   4.4933   4.4939   4.4939
     4.4942   4.4942   4.4942   4.4947   4.4947   4.4947   4.4983   4.5018
     4.5018   4.5070   4.5070   4.5070   4.5081   4.5724   4.5724   4.5724
     4.6749   4.6796   4.6796   4.6805   4.6808   4.6808   4.6808   4.6945
     4.6945   4.7414   4.7414   4.7414   4.7499   4.8618   4.8618   4.8729
     4.8729   4.8729   4.9253   4.9467   4.9467   4.9467   4.9468   4.9468
     4.9472   4.9472   4.9472   4.9474   4.9474   4.9474   4.9499   4.9502
     4.9502   4.9502   4.9505   4.9505   4.9554   4.9554   4.9554   5.0103
     5.0103   5.0103   5.0341   5.0341   5.0341   5.1246   5.1246   5.1246
     5.3701   5.3701   5.3701   5.3701   5.3701   5.3701   5.3733   5.3733
     5.3733   5.3754   5.3754   5.3754   5.3925   5.3954   5.3954   5.3954
     5.3963   5.3972   5.3972   5.3982   5.3982   5.3982   5.4023   5.4023
     5.4023   5.4027   5.4027   5.4027   5.4076   5.4076   5.4076   5.4099
     5.4099   5.4111   5.4111   5.4111   5.4114   5.4159   5.4159   5.4159
     5.4182   5.4182   5.4186   5.4186   5.4186   5.4770   5.4770   5.4770
     5.5078   5.5078   5.5078   5.5126   5.5126   5.5174   5.5174   5.5174
     5.5223   5.5505   5.5505   5.5505   5.5874   5.5900   5.5900   5.5909
     5.5909   5.5909   5.5928   5.5928   5.5933   5.5933   5.5933   5.5953
     5.5953   5.5953   5.5959   5.5959   5.5959   5.5968   5.5971   5.5971
     5.5971   5.8949   5.8949   5.8949   5.9802   5.9802   5.9814   5.9814
     5.9814   5.9876   5.9876   5.9884   5.9884   5.9884   5.9887   5.9887
     5.9887   6.0753   6.0753   6.0753   6.1270   6.1270   6.1270   6.1271
     6.1271   6.1271   6.1337   6.1337   6.1337   6.1678   6.1678   6.1678
     6.1892   6.1899   6.1899   6.1899   6.1913   6.1913   6.1913   6.1919
     6.1919   6.5642   6.5642   6.5642  10.1406  15.1739  16.6248  16.6248
    16.6248  17.0990  17.0990  17.3231  17.4528  17.4528  17.4528  18.1524
    18.1542  18.1542  18.1542  18.1694  18.1694  18.1694  18.1938  18.2669
    18.2669  18.2698  18.2698  18.2698  18.2712  18.2712  18.2712  18.7108
    18.7108  18.7108  18.8669  19.3492  19.3492  19.3492  19.5080  19.5080
    19.5080  19.5105  19.5105  19.5115  19.5115  19.5115  19.5121  19.5121
    19.5121  19.5138  19.5150  19.5150  19.5150  19.5175  19.5175  19.5302
    19.5302  19.5302  19.7012  19.7012  19.7012  19.9069  20.0543  20.0543
    20.1499  20.1499  20.1499  20.3137  20.3137  20.3205  20.3338  20.3338
    20.3338  20.3509  20.6901  20.6901  20.6918  20.8102  20.8102  20.8205
    20.8205  20.8205  20.8211  20.8212  20.8212  20.8212  20.8219  20.8219
    20.8219  20.8241  20.8241  20.8241  20.8287  20.8287  20.8294  20.8294
    20.8294  20.8762  20.8789  20.8789  20.8789  20.8800  20.8800  20.8800
    20.8986  20.8986  20.8986  20.9032  20.9032  20.9891  20.9891  20.9891
    21.0336  21.0336  21.0336  21.0365  21.0365  21.0365  21.0525  21.0525
    21.0525  21.3328  21.3328  21.3328  21.5872  21.5952  21.5952  21.5990
    21.5990  21.5990  21.6002  21.6058  21.6058  21.6058  21.6069  21.6069
    21.6069  21.6076  21.6076  21.6076  21.6107  21.6107  21.6565  21.6565
    21.6565  21.9759  21.9759  21.9759  22.1902  22.2888  22.2888  22.2915
    22.2915  22.2915  22.2987  22.3114  22.3114  22.3778  22.3778  22.3778
    22.7911  22.7914  22.7914  22.7914  22.7920  22.7920  22.8173  22.8173
    22.8173  22.8330  22.8330  22.8330  23.1136  23.1136  23.1136  23.1136
    23.1276  23.1276  23.1324  23.1324  23.1324  23.1450  23.1450  23.1450
    23.1649  23.1649  23.1752  23.1833  23.1833  23.1833  23.2065  23.2143
    23.2399  23.2399  23.2399  23.2421  23.2421  23.2421  23.2434  23.2439
    23.2439  23.2449  23.2449  23.2449  23.2465  23.2470  23.2470  23.2486

     occupation numbers 
     1.0000   1.0000   1.0000   1.0000   1.0000   1.0000   1.0000   1.0000
     1.0000   1.0000   1.0000   1.0000   1.0000   1.0000   1.0000   1.0000
     1.0000   1.0000   1.0000   1.0000   1.0000   1.0000   1.0000   1.0000
     1.0000   1.0000   1.0000   1.0000   1.0000   1.0000   1.0000   1.0000
     1.0000   1.0000   1.0000   1.0000   1.0000   1.0000   1.0000   1.0000
     1.0000   1.0000   1.0000   1.0000   1.0000   1.0000   1.0000   1.0000
     1.0000   1.0000   1.0000   1.0000   1.0000   1.0000   1.0000   1.0000
     1.0000   1.0000   1.0000   1.0000   1.0000   1.0000   1.0000   1.0000
     1.0000   1.0000   1.0000   1.0000   1.0000   1.0000   1.0000   1.0000
     1.0000   1.0000   1.0000   1.0000   1.0000   1.0000   1.0000   1.0000
     1.0000   1.0000   1.0000   1.0000   1.0000   1.0000   1.0000   1.0000
     1.0000   1.0000   1.0000   1.0000   1.0000   1.0000   1.0000   1.0000
     1.0000   1.0000   1.0000   1.0000   1.0000   1.0000   1.0000   1.0000
     1.0000   1.0000   1.0000   1.0000   1.0000   1.0000   1.0000   1.0000
     1.0000   1.0000   1.0000   1.0000   1.0000   1.0000   1.0000   1.0000
     1.0000   1.0000   1.0000   1.0000   1.0000   1.0000   1.0000   1.0000
     1.0000   1.0000   1.0000   1.0000   1.0000   1.0000   1.0000   1.0000
     1.0000   1.0000   1.0000   1.0000   1.0000   1.0000   1.0000   1.0000
     1.0000   1.0000   1.0000   1.0000   1.0000   1.0000   1.0000   1.0000
     1.0000   1.0000   1.0000   1.0000   1.0000   1.0000   1.0000   1.0000
     1.0000   1.0000   1.0000   1.0000   1.0000   1.0000   1.0000   1.0000
     1.0000   1.0000   1.0000   1.0000   1.0000   1.0000   1.0000   1.0000
     1.0000   1.0000   1.0000   1.0000   1.0000   1.0000   1.0000   1.0000
     1.0000   1.0000   1.0000   1.0000   1.0000   1.0000   1.0000   1.0000
     1.0000   1.0000   1.0000   1.0000   1.0000   1.0000   1.0000   1.0000
     1.0000   1.0000   1.0000   1.0000   1.0000   1.0000   1.0000   1.0000
     1.0000   1.0000   1.0000   1.0000   1.0000   1.0000   1.0000   1.0000
     1.0000   1.0000   1.0000   1.0000   1.0000   1.0000   1.0000   1.0000
     1.0000   1.0000   1.0000   1.0000   1.0000   1.0000   1.0000   1.0000
     1.0000   1.0000   1.0000   1.0000   1.0000   1.0000   1.0000   1.0000
     1.0000   1.0000   1.0000   1.0000   1.0000   1.0000   1.0000   1.0000
     1.0000   1.0000   1.0000   1.0000   1.0000   1.0000   1.0000   1.0000
     1.0000   1.0000   1.0000   1.0000   1.0000   1.0000   1.0000   1.0000
     1.0000   1.0000   1.0000   1.0000   1.0000   1.0000   1.0000   1.0000
     1.0000   1.0000   1.0000   1.0000   1.0000   1.0000   1.0000   1.0000
     1.0000   1.0000   1.0000   1.0000   1.0000   1.0000   1.0000   1.0000
     1.0000   1.0000   1.0000   1.0000   1.0000   1.0000   1.0000   1.0000
     1.0000   1.0000   1.0000   1.0000   1.0000   1.0000   1.0000   1.0000
     1.0000   1.0000   1.0000   1.0000   1.0000   1.0000   1.0000   1.0000
     1.0000   1.0000   1.0000   1.0000   1.0000   1.0000   1.0000   1.0000
     1.0000   1.0000   1.0000   1.0000   1.0000   1.0000   1.0000   1.0000
     1.0000   1.0000   1.0000   1.0000   1.0000   1.0000   1.0000   1.0000
     1.0000   1.0000   1.0000   1.0000   1.0000   1.0000   1.0000   1.0000
     1.0000   1.0000   1.0000   1.0000   1.0000   1.0000   1.0000   1.0000
     1.0000   1.0000   1.0000   1.0000   1.0000   1.0000   1.0000   1.0000
     1.0000   1.0000   1.0000   1.0000   1.0000   1.0000   1.0000   1.0000
     1.0000   1.0000   1.0000   1.0000   1.0000   1.0000   1.0000   1.0000
     1.0000   1.0000   1.0000   1.0000   1.0000   1.0000   1.0000   1.0000
     1.0000   1.0000   1.0000   1.0000   1.0000   1.0000   1.0000   1.0000
     1.0000   1.0000   1.0000   1.0000   1.0000   1.0000   1.0000   1.0000
     1.0000   1.0000   1.0000   1.0000   1.0000   1.0000   1.0000   1.0000
     1.0000   1.0000   1.0000   1.0000   1.0000   1.0000   1.0000   1.0000
     1.0000   1.0000   1.0000   1.0000   1.0000   1.0000   1.0000   1.0000
     1.0000   1.0000   1.0000   1.0000   1.0000   1.0000   1.0000   1.0000
     1.0000   1.0000   1.0000   1.0000   1.0000   1.0000   1.0000   1.0000
     1.0000   1.0000   1.0000   1.0000   1.0000   1.0000   1.0000   1.0000
     1.0000   1.0000   1.0000   1.0000   1.0000   1.0000   1.0000   1.0000
     1.0000   1.0000   1.0000   1.0000   1.0000   1.0000   1.0000   1.0000
     1.0000   1.0000   1.0000   1.0000   1.0000   1.0000   1.0000   1.0000
     1.0000   1.0000   1.0000   1.0000   1.0000   1.0000   1.0000   1.0000
     1.0000   1.0000   1.0000   1.0000   1.0000   1.0000   1.0000   1.0000
     1.0000   1.0000   1.0000   1.0000   1.0000   1.0000   1.0000   1.0000
     1.0000   1.0000   1.0000   1.0000   1.0000   1.0000   1.0000   1.0000
     1.0000   1.0000   1.0000   1.0000   1.0000   1.0000   1.0000   1.0000
     1.0000   1.0000   1.0000   1.0000   1.0000   1.0000   1.0000   1.0000
     1.0000   1.0000   1.0000   1.0000   1.0000   1.0000   1.0000   1.0000
     1.0000   1.0000   1.0000   1.0000   1.0000   1.0000   1.0000   1.0000
     1.0000   1.0000   1.0000   1.0000   1.0000   1.0000   1.0000   1.0000
     1.0000   1.0000   1.0000   1.0000   1.0000   1.0000   1.0000   1.0000
     1.0000   1.0000   1.0000   1.0000   1.0000   1.0000   1.0000   1.0000
     1.0000   1.0000   1.0000   1.0000   1.0000   1.0000   1.0000   1.0000
     1.0000   1.0000   1.0000   1.0000   1.0000   1.0000   1.0000   1.0000
     1.0000   1.0000   1.0000   1.0000   1.0000   1.0000   1.0000   1.0000
     1.0000   1.0000   1.0000   1.0000   1.0000   1.0000   1.0000   1.0000
     1.0000   1.0000   1.0000   1.0000   1.0000   1.0000   1.0000   1.0000
     1.0000   1.0000   1.0000   1.0000   1.0000   1.0000   1.0000   1.0000
     1.0000   1.0000   1.0000   1.0000   1.0000   1.0000   1.0000   1.0000
     1.0000   1.0000   1.0000   1.0000   1.0000   1.0000   1.0000   1.0000
     1.0000   1.0000   1.0000   1.0000   1.0000   1.0000   1.0000   1.0000
     1.0000   1.0000   1.0000   1.0000   1.0000   1.0000   1.0000   1.0000
     1.0000   1.0000   1.0000   1.0000   1.0000   1.0000   1.0000   1.0000
     1.0000   1.0000   1.0000   1.0000   1.0000   1.0000   1.0000   1.0000
     1.0000   1.0000   1.0000   1.0000   1.0000   1.0000   1.0000   1.0000
     1.0000   1.0000   1.0000   1.0000   1.0000   1.0000   1.0000   1.0000
     1.0000   1.0000   1.0000   1.0000   1.0000   1.0000   1.0000   1.0000
     1.0000   1.0000   1.0000   1.0000   1.0000   1.0000   1.0000   1.0000
     1.0000   1.0000   1.0000   1.0000   1.0000   1.0000   1.0000   1.0000
     1.0000   1.0000   1.0000   1.0000   1.0000   1.0000   1.0000   1.0000
     1.0000   1.0000   1.0000   1.0000   1.0000   1.0000   1.0000   1.0000
     1.0000   1.0000   1.0000   1.0000   1.0000   1.0000   1.0000   1.0000
     1.0000   1.0000   1.0000   1.0000   1.0000   1.0000   1.0000   1.0000
     1.0000   1.0000   1.0000   1.0000   1.0000   1.0000   1.0000   1.0000
     1.0000   1.0000   1.0000   1.0000   1.0000   1.0000   1.0000   1.0000
     1.0000   1.0000   1.0000   1.0000   1.0000   1.0000   1.0000   1.0000
     1.0000   1.0000   1.0000   1.0000   1.0000   1.0000   1.0000   1.0000
     1.0000   1.0000   1.0000   1.0000   1.0000   1.0000   1.0000   1.0000
     1.0000   1.0000   1.0000   1.0000   1.0000   1.0000   1.0000   1.0000
     1.0000   1.0000   1.0000   1.0000   1.0000   1.0000   1.0000   1.0000
     1.0000   1.0000   1.0000   1.0000   1.0000   1.0000   1.0000   1.0000
     1.0000   1.0000   1.0000   1.0000   1.0000   1.0000   1.0000   1.0000
     1.0000   1.0000   1.0000   1.0000   1.0000   1.0000   1.0000   1.0000
     1.0000   1.0000   1.0000   1.0000   1.0000   1.0000   1.0000   1.0000
     1.0000   1.0000   1.0000   1.0000   1.0000   1.0000   1.0000   1.0000
     1.0000   1.0000   1.0000   1.0000   1.0000   1.0000   1.0000   1.0000
     1.0000   1.0000   1.0000   1.0000   1.0000   1.0000   1.0000   1.0000
     1.0000   1.0000   1.0000   1.0000   1.0000   1.0000   1.0000   1.0000
     1.0000   1.0000   1.0000   1.0000   1.0000   1.0000   1.0000   1.0000
     1.0000   1.0000   1.0000   1.0000   1.0000   0.0000   0.0000   0.0000
     0.0000   0.0000   0.0000   0.0000   0.0000   0.0000   0.0000   0.0000
     0.0000   0.0000   0.0000   0.0000   0.0000   0.0000   0.0000   0.0000
     0.0000   0.0000   0.0000   0.0000   0.0000   0.0000   0.0000   0.0000
     0.0000   0.0000   0.0000   0.0000   0.0000   0.0000   0.0000   0.0000
     0.0000   0.0000   0.0000   0.0000   0.0000   0.0000   0.0000   0.0000
     0.0000   0.0000   0.0000   0.0000   0.0000   0.0000   0.0000   0.0000
     0.0000   0.0000   0.0000   0.0000   0.0000   0.0000   0.0000   0.0000
     0.0000   0.0000   0.0000   0.0000   0.0000   0.0000   0.0000   0.0000
     0.0000   0.0000   0.0000   0.0000   0.0000   0.0000   0.0000   0.0000
     0.0000   0.0000   0.0000   0.0000   0.0000   0.0000   0.0000   0.0000
     0.0000   0.0000   0.0000   0.0000   0.0000   0.0000   0.0000   0.0000
     0.0000   0.0000   0.0000   0.0000   0.0000   0.0000   0.0000   0.0000
     0.0000   0.0000   0.0000   0.0000   0.0000   0.0000   0.0000   0.0000
     0.0000   0.0000   0.0000   0.0000   0.0000   0.0000   0.0000   0.0000
     0.0000   0.0000   0.0000   0.0000   0.0000   0.0000   0.0000   0.0000
     0.0000   0.0000   0.0000   0.0000   0.0000   0.0000   0.0000   0.0000
     0.0000   0.0000   0.0000   0.0000   0.0000   0.0000   0.0000   0.0000
     0.0000   0.0000   0.0000   0.0000   0.0000   0.0000   0.0000   0.0000
     0.0000   0.0000   0.0000   0.0000   0.0000   0.0000   0.0000   0.0000
     0.0000   0.0000   0.0000   0.0000   0.0000   0.0000   0.0000   0.0000
     0.0000   0.0000   0.0000   0.0000   0.0000   0.0000   0.0000   0.0000
     0.0000   0.0000   0.0000   0.0000   0.0000   0.0000   0.0000   0.0000
     0.0000   0.0000   0.0000   0.0000   0.0000   0.0000   0.0000   0.0000
     0.0000   0.0000   0.0000   0.0000   0.0000   0.0000   0.0000   0.0000
     0.0000   0.0000   0.0000   0.0000   0.0000   0.0000   0.0000   0.0000

 ------ SPIN DOWN ----------


          k = 0.0000 0.0000 0.0000 ( 52700 PWs)   bands (ev):

   -71.8512 -71.8485 -71.8485 -71.8485 -71.8472 -71.8472 -71.8188 -71.8176
   -71.8176 -71.8171 -71.8155 -71.8155 -71.8155 -71.8146 -71.8146 -71.8143
   -71.8135 -71.8135 -71.8135 -71.8130 -71.8130 -71.8130 -71.8129 -71.8129
   -71.8129 -71.8125 -71.8121 -71.8121 -71.8121 -71.8121 -71.8113 -71.8113
   -71.8113 -71.8111 -71.8111 -71.8104 -71.8101 -71.8101 -71.8101 -71.8099
   -71.8098 -71.8098 -71.8098 -71.8098 -71.8098 -71.8095 -71.8094 -71.8094
   -71.8094 -71.8092 -71.8092 -71.8092 -71.8092 -71.8092 -71.8092 -71.8088
   -71.8088 -71.8088 -71.8084 -71.8084 -71.8084 -71.8084 -71.8084 -71.8082
   -71.8082 -71.8081 -71.8081 -71.8081 -71.8081 -71.8081 -71.8081 -71.8078
   -71.8076 -71.8075 -71.8075 -71.8075 -71.8071 -71.8070 -71.8070 -71.8070
   -71.8069 -71.8069 -71.8066 -71.8066 -71.8066 -71.8066 -71.8066 -71.8058
   -71.8058 -71.8058 -71.8057 -71.8057 -71.8057 -71.8055 -71.8055 -71.8055
   -71.8053 -71.8053 -71.8053 -71.8049 -71.8049 -71.8049 -71.8042 -71.8042
   -71.8041 -71.8041 -71.8041 -71.8035 -34.8371 -34.8323 -34.8323 -34.8323
   -34.8294 -34.8294 -34.8294 -34.8230 -34.8230 -34.8230 -34.8219 -34.8219
   -34.8219 -34.8206 -34.8206 -34.8204 -34.8200 -34.8200 -34.8200 -34.8198
   -34.8198 -34.8198 -34.8186 -34.8186 -34.8174 -34.8174 -34.8174 -34.8110
   -34.8110 -34.8110 -34.8110 -34.8110 -34.8108 -34.8104 -34.8104 -34.8104
   -34.8098 -34.8098 -34.8098 -34.8077 -34.8077 -34.8077 -34.8059 -34.8037
   -34.8037 -34.8037 -34.8032 -34.8032 -34.8032 -34.8025 -34.8022 -34.8022
   -34.8022 -34.8016 -34.8016 -34.8016 -34.8013 -34.8011 -34.8011 -34.8011
   -34.8011 -34.8011 -34.8011 -34.8009 -34.8009 -34.8009 -34.8008 -34.8008
   -34.8008 -34.8008 -34.8008 -34.7982 -34.7982 -34.7979 -34.7979 -34.7979
   -34.7971 -34.7971 -34.7971 -34.7968 -34.7956 -34.7956 -34.7956 -34.7954
   -34.7954 -34.7954 -34.7948 -34.7944 -34.7944 -34.7932 -34.7932 -34.7932
   -34.7929 -34.7929 -34.7929 -34.7891 -34.7891 -34.7891 -34.7885 -34.7885
   -34.7885 -34.7861 -34.7861 -34.7861 -34.7820 -34.7820 -34.7811 -34.7811
   -34.7811 -34.7798 -34.7795 -34.7795 -34.7795 -34.7782 -34.7782 -34.7782
   -34.7776 -34.7776 -34.7776 -34.7771 -34.7771 -34.7771 -34.7742 -34.7742
   -34.7742 -34.7722 -34.7722 -34.7713 -34.7713 -34.7713 -34.7706 -34.7706
   -34.7706 -34.7699 -34.7699 -34.7699 -34.7656 -34.7656 -34.7656 -34.7651
   -34.7649 -34.7649 -34.7644 -34.7644 -34.7644 -34.7644 -34.7644 -34.7644
   -34.7641 -34.7641 -34.7641 -34.7640 -34.7640 -34.7640 -34.7638 -34.7632
   -34.7629 -34.7629 -34.7625 -34.7623 -34.7623 -34.7615 -34.7615 -34.7615
   -34.7610 -34.7610 -34.7610 -34.7603 -34.7603 -34.7588 -34.7588 -34.7588
   -34.7580 -34.7580 -34.7580 -34.7546 -34.7546 -34.7546 -34.7539 -34.7539
   -34.7539 -34.7537 -34.7537 -34.7537 -34.7517 -34.7517 -34.7517 -34.7514
   -34.7514 -34.7514 -34.7514 -34.7511 -34.7509 -34.7509 -34.7509 -34.7509
   -34.7509 -34.7509 -34.7508 -34.7508 -34.7508 -34.7502 -34.7501 -34.7501
   -34.7501 -34.7501 -34.7501 -34.7495 -34.7495 -34.7484 -34.7484 -34.7484
   -34.7480 -34.7480 -34.7476 -34.7476 -34.7476 -34.7474 -34.7474 -34.7474
   -34.7474 -34.7474 -34.7474 -34.7466 -34.7463 -34.7463 -34.7463 -34.7463
   -34.7463 -34.7463 -34.7462 -34.7462 -34.7461 -34.7461 -34.7461 -34.7460
   -34.7460 -34.7460 -34.7457 -34.7457 -34.7457 -34.7456 -34.7452 -34.7452
   -34.7452 -34.7447 -34.7447 -34.7447 -34.7446 -34.7446 -34.7445 -34.7444
   -34.7444 -34.7443 -34.7435 -34.7435 -34.7435 -34.7432 -34.7432 -34.7429
   -34.7429 -34.7429 -34.7427 -34.7427 -34.7427 -34.7423 -34.7423 -34.7423
   -34.7423 -34.7423 -34.7423 -34.7418 -34.7418 -34.7418 -34.7418 -34.7418
   -34.7414 -34.7414 -34.7414 -34.7408 -34.7398 -34.7390 -34.7390 -34.7390
   -34.7354 -34.7354 -34.7354 -34.7352 -34.7352 -34.7352 -34.7351 -34.7351
   -34.7351 -34.7347 -34.7347 -34.7340 -34.7340 -34.7340 -34.7337 -34.7337
   -34.7337 -34.7336 -34.7336 -34.7336 -34.7330 -34.7330 -34.7330 -34.7327
   -34.7327 -34.7309 -34.7309 -34.7309 -34.7301 -34.7301 -34.7292 -34.7292
   -34.7292 -34.7291 -34.7291 -34.7291 -34.7286 -34.7268 -34.7268 -34.7268
   -13.1678 -12.7654 -12.7654 -12.7612 -12.7612 -12.7612 -12.7198 -12.4166
   -12.4166 -12.4134 -12.4134 -12.4134 -12.4118 -12.4118 -12.4118 -12.4097
   -12.4097 -12.4097 -12.3362 -12.1393 -12.1393 -12.1393 -12.1380 -12.1380
   -12.1380 -12.1324 -12.0950 -11.9265 -11.9265 -11.9201 -11.9201 -11.9201
   -11.9014 -11.7567 -11.7567 -11.7560 -11.7551 -11.7551 -11.7546 -11.7546
   -11.7546 -11.7544 -11.7544 -11.7544 -11.7527 -11.7527 -11.7527 -11.7495
   -11.7495 -11.7495 -11.7476 -11.7476 -11.7476 -11.7470 -11.7470 -11.7470
   -11.7198 -11.6885 -11.6885 -11.6885 -11.6869 -11.6869 -11.6869 -11.6865
   -11.6865 -11.6830 -11.6830 -11.6830 -11.6816 -11.6816 -11.6816 -11.6809
   -11.6809 -11.6809 -11.6807 -11.6798 -11.6798 -11.6798 -11.6764 -11.6764
   -11.5691 -11.5158 -11.5158 -11.5116 -11.5109 -11.5109 -11.5109 -11.5108
   -11.5108 -11.5108 -11.5088 -11.5088 -11.5066 -11.5066 -11.5066 -11.4735
   -11.4563 -11.4563 -11.4538 -11.4521 -11.4521 -11.4518 -11.4518 -11.4518
   -11.4507 -11.4507 -11.4507   1.8717   1.9089   1.9089   1.9110   1.9110
     1.9110   1.9125   1.9125   1.9125   1.9131   1.9131   1.9131   1.9137
     1.9137   1.9137   1.9143   1.9143   1.9161   1.9161   1.9161   1.9230
     1.9838   1.9838   1.9838   2.0571   2.0571   2.0571   2.3067   2.4870
     2.4870   2.4870   2.4897   2.4998   2.4998   2.4998   2.5418   2.5949
     2.5949   2.5949   2.5973   2.5973   2.5973   2.6010   2.6010   2.6010
     2.6047   2.6047   2.6047   2.6201   2.6212   2.6212   2.6212   2.6213
     2.6213   2.6213   2.6220   2.6220   2.6226   2.6226   2.6248   2.6248
     2.6248   2.6251   2.6251   2.6251   2.6275   2.6275   2.6275   2.7136
     2.7136   2.7136   2.7224   2.7453   2.7453   2.8315   2.8315   2.8315
     2.9625   2.9673   2.9673   2.9673   2.9732   2.9732   2.9732   2.9735
     2.9735   3.0469   3.0469   3.0469   3.1467   3.1467   3.1467   3.1485
     3.1485   3.1503   3.1503   3.1503   3.1537   3.3166   3.3166   3.3166
     3.5191   3.6753   3.6753   3.6778   3.6778   3.6778   3.6792   3.6792
     3.6792   3.7589   3.7589   3.7589   4.0585   4.0585   4.0585   4.0601
     4.0601   4.0601   4.0701   4.0701   4.0701   4.1314   4.1314   4.1314
     4.4923   4.4923   4.4923   4.4933   4.4933   4.4933   4.4939   4.4939
     4.4942   4.4942   4.4942   4.4947   4.4947   4.4947   4.4983   4.5018
     4.5018   4.5070   4.5070   4.5070   4.5081   4.5724   4.5724   4.5724
     4.6749   4.6796   4.6796   4.6805   4.6808   4.6808   4.6808   4.6945
     4.6945   4.7414   4.7414   4.7414   4.7499   4.8618   4.8618   4.8729
     4.8729   4.8729   4.9253   4.9467   4.9467   4.9467   4.9468   4.9468
     4.9472   4.9472   4.9472   4.9474   4.9474   4.9474   4.9499   4.9502
     4.9502   4.9502   4.9505   4.9505   4.9554   4.9554   4.9554   5.0103
     5.0103   5.0103   5.0341   5.0341   5.0341   5.1246   5.1246   5.1246
     5.3701   5.3701   5.3701   5.3701   5.3701   5.3701   5.3733   5.3733
     5.3733   5.3754   5.3754   5.3754   5.3925   5.3954   5.3954   5.3954
     5.3963   5.3972   5.3972   5.3982   5.3982   5.3982   5.4023   5.4023
     5.4023   5.4027   5.4027   5.4027   5.4076   5.4076   5.4076   5.4099
     5.4099   5.4111   5.4111   5.4111   5.4114   5.4159   5.4159   5.4159
     5.4182   5.4182   5.4186   5.4186   5.4186   5.4770   5.4770   5.4770
     5.5078   5.5078   5.5078   5.5126   5.5126   5.5174   5.5174   5.5174
     5.5223   5.5505   5.5505   5.5505   5.5874   5.5900   5.5900   5.5909
     5.5909   5.5909   5.5928   5.5928   5.5933   5.5933   5.5933   5.5953
     5.5953   5.5953   5.5959   5.5959   5.5959   5.5968   5.5971   5.5971
     5.5971   5.8949   5.8949   5.8949   5.9802   5.9802   5.9814   5.9814
     5.9814   5.9876   5.9876   5.9884   5.9884   5.9884   5.9887   5.9887
     5.9887   6.0753   6.0753   6.0753   6.1270   6.1270   6.1270   6.1271
     6.1271   6.1271   6.1337   6.1337   6.1337   6.1678   6.1678   6.1678
     6.1892   6.1899   6.1899   6.1899   6.1913   6.1913   6.1913   6.1919
     6.1919   6.5642   6.5642   6.5642  10.1406  15.1739  16.6248  16.6248
    16.6248  17.0990  17.0990  17.3231  17.4528  17.4528  17.4528  18.1524
    18.1542  18.1542  18.1542  18.1694  18.1694  18.1694  18.1938  18.2669
    18.2669  18.2698  18.2698  18.2698  18.2712  18.2712  18.2712  18.7108
    18.7108  18.7108  18.8669  19.3492  19.3492  19.3492  19.5080  19.5080
    19.5080  19.5105  19.5105  19.5115  19.5115  19.5115  19.5121  19.5121
    19.5121  19.5138  19.5150  19.5150  19.5150  19.5175  19.5175  19.5302
    19.5302  19.5302  19.7012  19.7012  19.7012  19.9069  20.0543  20.0543
    20.1499  20.1499  20.1499  20.3137  20.3137  20.3205  20.3338  20.3338
    20.3338  20.3509  20.6901  20.6901  20.6918  20.8102  20.8102  20.8205
    20.8205  20.8205  20.8211  20.8212  20.8212  20.8212  20.8219  20.8219
    20.8219  20.8241  20.8241  20.8241  20.8287  20.8287  20.8294  20.8294
    20.8294  20.8762  20.8789  20.8789  20.8789  20.8800  20.8800  20.8800
    20.8986  20.8986  20.8986  20.9032  20.9032  20.9891  20.9891  20.9891
    21.0336  21.0336  21.0336  21.0365  21.0365  21.0365  21.0525  21.0525
    21.0525  21.3328  21.3328  21.3328  21.5872  21.5952  21.5952  21.5990
    21.5990  21.5990  21.6002  21.6058  21.6058  21.6058  21.6069  21.6069
    21.6069  21.6076  21.6076  21.6076  21.6107  21.6107  21.6565  21.6565
    21.6565  21.9759  21.9759  21.9759  22.1902  22.2888  22.2888  22.2915
    22.2915  22.2915  22.2987  22.3114  22.3114  22.3778  22.3778  22.3778
    22.7911  22.7914  22.7914  22.7914  22.7920  22.7920  22.8173  22.8173
    22.8173  22.8330  22.8330  22.8330  23.1136  23.1136  23.1136  23.1136
    23.1276  23.1276  23.1324  23.1324  23.1324  23.1450  23.1450  23.1450
    23.1649  23.1649  23.1752  23.1833  23.1833  23.1833  23.2065  23.2143
    23.2399  23.2399  23.2399  23.2421  23.2421  23.2421  23.2434  23.2439
    23.2439  23.2449  23.2449  23.2449  23.2465  23.2470  23.2470  23.2486

     occupation numbers 
     1.0000   1.0000   1.0000   1.0000   1.0000   1.0000   1.0000   1.0000
     1.0000   1.0000   1.0000   1.0000   1.0000   1.0000   1.0000   1.0000
     1.0000   1.0000   1.0000   1.0000   1.0000   1.0000   1.0000   1.0000
     1.0000   1.0000   1.0000   1.0000   1.0000   1.0000   1.0000   1.0000
     1.0000   1.0000   1.0000   1.0000   1.0000   1.0000   1.0000   1.0000
     1.0000   1.0000   1.0000   1.0000   1.0000   1.0000   1.0000   1.0000
     1.0000   1.0000   1.0000   1.0000   1.0000   1.0000   1.0000   1.0000
     1.0000   1.0000   1.0000   1.0000   1.0000   1.0000   1.0000   1.0000
     1.0000   1.0000   1.0000   1.0000   1.0000   1.0000   1.0000   1.0000
     1.0000   1.0000   1.0000   1.0000   1.0000   1.0000   1.0000   1.0000
     1.0000   1.0000   1.0000   1.0000   1.0000   1.0000   1.0000   1.0000
     1.0000   1.0000   1.0000   1.0000   1.0000   1.0000   1.0000   1.0000
     1.0000   1.0000   1.0000   1.0000   1.0000   1.0000   1.0000   1.0000
     1.0000   1.0000   1.0000   1.0000   1.0000   1.0000   1.0000   1.0000
     1.0000   1.0000   1.0000   1.0000   1.0000   1.0000   1.0000   1.0000
     1.0000   1.0000   1.0000   1.0000   1.0000   1.0000   1.0000   1.0000
     1.0000   1.0000   1.0000   1.0000   1.0000   1.0000   1.0000   1.0000
     1.0000   1.0000   1.0000   1.0000   1.0000   1.0000   1.0000   1.0000
     1.0000   1.0000   1.0000   1.0000   1.0000   1.0000   1.0000   1.0000
     1.0000   1.0000   1.0000   1.0000   1.0000   1.0000   1.0000   1.0000
     1.0000   1.0000   1.0000   1.0000   1.0000   1.0000   1.0000   1.0000
     1.0000   1.0000   1.0000   1.0000   1.0000   1.0000   1.0000   1.0000
     1.0000   1.0000   1.0000   1.0000   1.0000   1.0000   1.0000   1.0000
     1.0000   1.0000   1.0000   1.0000   1.0000   1.0000   1.0000   1.0000
     1.0000   1.0000   1.0000   1.0000   1.0000   1.0000   1.0000   1.0000
     1.0000   1.0000   1.0000   1.0000   1.0000   1.0000   1.0000   1.0000
     1.0000   1.0000   1.0000   1.0000   1.0000   1.0000   1.0000   1.0000
     1.0000   1.0000   1.0000   1.0000   1.0000   1.0000   1.0000   1.0000
     1.0000   1.0000   1.0000   1.0000   1.0000   1.0000   1.0000   1.0000
     1.0000   1.0000   1.0000   1.0000   1.0000   1.0000   1.0000   1.0000
     1.0000   1.0000   1.0000   1.0000   1.0000   1.0000   1.0000   1.0000
     1.0000   1.0000   1.0000   1.0000   1.0000   1.0000   1.0000   1.0000
     1.0000   1.0000   1.0000   1.0000   1.0000   1.0000   1.0000   1.0000
     1.0000   1.0000   1.0000   1.0000   1.0000   1.0000   1.0000   1.0000
     1.0000   1.0000   1.0000   1.0000   1.0000   1.0000   1.0000   1.0000
     1.0000   1.0000   1.0000   1.0000   1.0000   1.0000   1.0000   1.0000
     1.0000   1.0000   1.0000   1.0000   1.0000   1.0000   1.0000   1.0000
     1.0000   1.0000   1.0000   1.0000   1.0000   1.0000   1.0000   1.0000
     1.0000   1.0000   1.0000   1.0000   1.0000   1.0000   1.0000   1.0000
     1.0000   1.0000   1.0000   1.0000   1.0000   1.0000   1.0000   1.0000
     1.0000   1.0000   1.0000   1.0000   1.0000   1.0000   1.0000   1.0000
     1.0000   1.0000   1.0000   1.0000   1.0000   1.0000   1.0000   1.0000
     1.0000   1.0000   1.0000   1.0000   1.0000   1.0000   1.0000   1.0000
     1.0000   1.0000   1.0000   1.0000   1.0000   1.0000   1.0000   1.0000
     1.0000   1.0000   1.0000   1.0000   1.0000   1.0000   1.0000   1.0000
     1.0000   1.0000   1.0000   1.0000   1.0000   1.0000   1.0000   1.0000
     1.0000   1.0000   1.0000   1.0000   1.0000   1.0000   1.0000   1.0000
     1.0000   1.0000   1.0000   1.0000   1.0000   1.0000   1.0000   1.0000
     1.0000   1.0000   1.0000   1.0000   1.0000   1.0000   1.0000   1.0000
     1.0000   1.0000   1.0000   1.0000   1.0000   1.0000   1.0000   1.0000
     1.0000   1.0000   1.0000   1.0000   1.0000   1.0000   1.0000   1.0000
     1.0000   1.0000   1.0000   1.0000   1.0000   1.0000   1.0000   1.0000
     1.0000   1.0000   1.0000   1.0000   1.0000   1.0000   1.0000   1.0000
     1.0000   1.0000   1.0000   1.0000   1.0000   1.0000   1.0000   1.0000
     1.0000   1.0000   1.0000   1.0000   1.0000   1.0000   1.0000   1.0000
     1.0000   1.0000   1.0000   1.0000   1.0000   1.0000   1.0000   1.0000
     1.0000   1.0000   1.0000   1.0000   1.0000   1.0000   1.0000   1.0000
     1.0000   1.0000   1.0000   1.0000   1.0000   1.0000   1.0000   1.0000
     1.0000   1.0000   1.0000   1.0000   1.0000   1.0000   1.0000   1.0000
     1.0000   1.0000   1.0000   1.0000   1.0000   1.0000   1.0000   1.0000
     1.0000   1.0000   1.0000   1.0000   1.0000   1.0000   1.0000   1.0000
     1.0000   1.0000   1.0000   1.0000   1.0000   1.0000   1.0000   1.0000
     1.0000   1.0000   1.0000   1.0000   1.0000   1.0000   1.0000   1.0000
     1.0000   1.0000   1.0000   1.0000   1.0000   1.0000   1.0000   1.0000
     1.0000   1.0000   1.0000   1.0000   1.0000   1.0000   1.0000   1.0000
     1.0000   1.0000   1.0000   1.0000   1.0000   1.0000   1.0000   1.0000
     1.0000   1.0000   1.0000   1.0000   1.0000   1.0000   1.0000   1.0000
     1.0000   1.0000   1.0000   1.0000   1.0000   1.0000   1.0000   1.0000
     1.0000   1.0000   1.0000   1.0000   1.0000   1.0000   1.0000   1.0000
     1.0000   1.0000   1.0000   1.0000   1.0000   1.0000   1.0000   1.0000
     1.0000   1.0000   1.0000   1.0000   1.0000   1.0000   1.0000   1.0000
     1.0000   1.0000   1.0000   1.0000   1.0000   1.0000   1.0000   1.0000
     1.0000   1.0000   1.0000   1.0000   1.0000   1.0000   1.0000   1.0000
     1.0000   1.0000   1.0000   1.0000   1.0000   1.0000   1.0000   1.0000
     1.0000   1.0000   1.0000   1.0000   1.0000   1.0000   1.0000   1.0000
     1.0000   1.0000   1.0000   1.0000   1.0000   1.0000   1.0000   1.0000
     1.0000   1.0000   1.0000   1.0000   1.0000   1.0000   1.0000   1.0000
     1.0000   1.0000   1.0000   1.0000   1.0000   1.0000   1.0000   1.0000
     1.0000   1.0000   1.0000   1.0000   1.0000   1.0000   1.0000   1.0000
     1.0000   1.0000   1.0000   1.0000   1.0000   1.0000   1.0000   1.0000
     1.0000   1.0000   1.0000   1.0000   1.0000   1.0000   1.0000   1.0000
     1.0000   1.0000   1.0000   1.0000   1.0000   1.0000   1.0000   1.0000
     1.0000   1.0000   1.0000   1.0000   1.0000   1.0000   1.0000   1.0000
     1.0000   1.0000   1.0000   1.0000   1.0000   1.0000   1.0000   1.0000
     1.0000   1.0000   1.0000   1.0000   1.0000   1.0000   1.0000   1.0000
     1.0000   1.0000   1.0000   1.0000   1.0000   1.0000   1.0000   1.0000
     1.0000   1.0000   1.0000   1.0000   1.0000   1.0000   1.0000   1.0000
     1.0000   1.0000   1.0000   1.0000   1.0000   1.0000   1.0000   1.0000
     1.0000   1.0000   1.0000   1.0000   1.0000   1.0000   1.0000   1.0000
     1.0000   1.0000   1.0000   1.0000   1.0000   1.0000   1.0000   1.0000
     1.0000   1.0000   1.0000   1.0000   1.0000   1.0000   1.0000   1.0000
     1.0000   1.0000   1.0000   1.0000   1.0000   1.0000   1.0000   1.0000
     1.0000   1.0000   1.0000   1.0000   1.0000   1.0000   1.0000   1.0000
     1.0000   1.0000   1.0000   1.0000   1.0000   1.0000   1.0000   1.0000
     1.0000   1.0000   1.0000   1.0000   1.0000   1.0000   1.0000   1.0000
     1.0000   1.0000   1.0000   1.0000   1.0000   1.0000   1.0000   1.0000
     1.0000   1.0000   1.0000   1.0000   1.0000   1.0000   1.0000   1.0000
     1.0000   1.0000   1.0000   1.0000   1.0000   1.0000   1.0000   1.0000
     1.0000   1.0000   1.0000   1.0000   1.0000   1.0000   1.0000   1.0000
     1.0000   1.0000   1.0000   1.0000   1.0000   1.0000   1.0000   1.0000
     1.0000   1.0000   1.0000   1.0000   1.0000   1.0000   1.0000   1.0000
     1.0000   1.0000   1.0000   1.0000   1.0000   1.0000   1.0000   1.0000
     1.0000   1.0000   1.0000   1.0000   1.0000   1.0000   1.0000   1.0000
     1.0000   1.0000   1.0000   1.0000   1.0000   1.0000   1.0000   1.0000
     1.0000   1.0000   1.0000   1.0000   1.0000   1.0000   1.0000   1.0000
     1.0000   1.0000   1.0000   1.0000   1.0000   1.0000   1.0000   1.0000
     1.0000   1.0000   1.0000   1.0000   1.0000   1.0000   1.0000   1.0000
     1.0000   1.0000   1.0000   1.0000   1.0000   0.0000   0.0000   0.0000
     0.0000   0.0000   0.0000   0.0000   0.0000   0.0000   0.0000   0.0000
     0.0000   0.0000   0.0000   0.0000   0.0000   0.0000   0.0000   0.0000
     0.0000   0.0000   0.0000   0.0000   0.0000   0.0000   0.0000   0.0000
     0.0000   0.0000   0.0000   0.0000   0.0000   0.0000   0.0000   0.0000
     0.0000   0.0000   0.0000   0.0000   0.0000   0.0000   0.0000   0.0000
     0.0000   0.0000   0.0000   0.0000   0.0000   0.0000   0.0000   0.0000
     0.0000   0.0000   0.0000   0.0000   0.0000   0.0000   0.0000   0.0000
     0.0000   0.0000   0.0000   0.0000   0.0000   0.0000   0.0000   0.0000
     0.0000   0.0000   0.0000   0.0000   0.0000   0.0000   0.0000   0.0000
     0.0000   0.0000   0.0000   0.0000   0.0000   0.0000   0.0000   0.0000
     0.0000   0.0000   0.0000   0.0000   0.0000   0.0000   0.0000   0.0000
     0.0000   0.0000   0.0000   0.0000   0.0000   0.0000   0.0000   0.0000
     0.0000   0.0000   0.0000   0.0000   0.0000   0.0000   0.0000   0.0000
     0.0000   0.0000   0.0000   0.0000   0.0000   0.0000   0.0000   0.0000
     0.0000   0.0000   0.0000   0.0000   0.0000   0.0000   0.0000   0.0000
     0.0000   0.0000   0.0000   0.0000   0.0000   0.0000   0.0000   0.0000
     0.0000   0.0000   0.0000   0.0000   0.0000   0.0000   0.0000   0.0000
     0.0000   0.0000   0.0000   0.0000   0.0000   0.0000   0.0000   0.0000
     0.0000   0.0000   0.0000   0.0000   0.0000   0.0000   0.0000   0.0000
     0.0000   0.0000   0.0000   0.0000   0.0000   0.0000   0.0000   0.0000
     0.0000   0.0000   0.0000   0.0000   0.0000   0.0000   0.0000   0.0000
     0.0000   0.0000   0.0000   0.0000   0.0000   0.0000   0.0000   0.0000
     0.0000   0.0000   0.0000   0.0000   0.0000   0.0000   0.0000   0.0000
     0.0000   0.0000   0.0000   0.0000   0.0000   0.0000   0.0000   0.0000
     0.0000   0.0000   0.0000   0.0000   0.0000   0.0000   0.0000   0.0000

     highest occupied, lowest unoccupied level (ev):    10.1406   15.1739

!    total energy              =  -15183.33624577 Ry
     Harris-Foulkes estimate   =  -15183.33624579 Ry
     estimated scf accuracy    <       0.00000008 Ry

     total magnetization       =     0.00 Bohr mag/cell
     absolute magnetization    =     0.00 Bohr mag/cell

     convergence has been achieved in   3 iterations

     total energy              =  -15183.33624687 Ry
     Harris-Foulkes estimate   =  -15183.33624689 Ry
     est. exchange err (dexx)  =       0.00000110 Ry
     - averaged Fock potential =    1553.89156733 Ry
     + Fock energy             =    -776.94962785 Ry

     EXX: now go back to refine exchange calculation

     total cpu time spent up to now is    36105.3 secs

     per-process dynamical memory:   333.7 Mb

     Self-consistent Calculation

     iteration #  1     ecut=    60.00 Ry     beta=0.30
     Davidson diagonalization with overlap
     ethr =  2.71E-11,  avg # of iterations =  6.0

     total cpu time spent up to now is    37559.7 secs

     total energy              =  -15183.33624706 Ry
     Harris-Foulkes estimate   =  -15183.33624712 Ry
     estimated scf accuracy    <       0.00000014 Ry

     total magnetization       =     0.00 Bohr mag/cell
     absolute magnetization    =     0.00 Bohr mag/cell

     iteration #  2     ecut=    60.00 Ry     beta=0.30
     Davidson diagonalization with overlap
     ethr =  8.17E-12,  avg # of iterations =  6.0
 
     Magnetic moment per site:
     atom:    1    charge:    8.1499    magn:   -0.0000    constr:    0.0000
     atom:    2    charge:    8.1498    magn:   -0.0000    constr:    0.0000
     atom:    3    charge:    8.1498    magn:   -0.0000    constr:    0.0000
     atom:    4    charge:    8.1498    magn:   -0.0000    constr:    0.0000
     atom:    5    charge:    8.1499    magn:   -0.0000    constr:    0.0000
     atom:    6    charge:    8.1499    magn:   -0.0000    constr:    0.0000
     atom:    7    charge:    8.1498    magn:   -0.0000    constr:    0.0000
     atom:    8    charge:    8.1499    magn:   -0.0000    constr:    0.0000
     atom:    9    charge:    8.1499    magn:   -0.0000    constr:    0.0000
     atom:   10    charge:    8.1498    magn:   -0.0000    constr:    0.0000
     atom:   11    charge:    8.1499    magn:   -0.0000    constr:    0.0000
     atom:   12    charge:    8.1499    magn:   -0.0000    constr:    0.0000
     atom:   13    charge:    8.1499    magn:   -0.0000    constr:    0.0000
     atom:   14    charge:    8.1489    magn:   -0.0000    constr:    0.0000
     atom:   15    charge:    8.1489    magn:   -0.0000    constr:    0.0000
     atom:   16    charge:    8.1499    magn:   -0.0000    constr:    0.0000
     atom:   17    charge:    8.1489    magn:   -0.0000    constr:    0.0000
     atom:   18    charge:    8.1489    magn:   -0.0000    constr:    0.0000
     atom:   19    charge:    8.1498    magn:   -0.0000    constr:    0.0000
     atom:   20    charge:    8.1499    magn:   -0.0000    constr:    0.0000
     atom:   21    charge:    8.1499    magn:   -0.0000    constr:    0.0000
     atom:   22    charge:    8.1499    magn:   -0.0000    constr:    0.0000
     atom:   23    charge:    8.1489    magn:   -0.0000    constr:    0.0000
     atom:   24    charge:    8.1489    magn:   -0.0000    constr:    0.0000
     atom:   25    charge:    8.1499    magn:   -0.0000    constr:    0.0000
     atom:   26    charge:    8.1489    magn:   -0.0000    constr:    0.0000
     atom:   27    charge:    8.1489    magn:   -0.0000    constr:    0.0000
     atom:   28    charge:    8.1498    magn:   -0.0000    constr:    0.0000
     atom:   29    charge:    8.1501    magn:   -0.0000    constr:    0.0000
     atom:   30    charge:    8.1498    magn:   -0.0000    constr:    0.0000
     atom:   31    charge:    8.1501    magn:   -0.0000    constr:    0.0000
     atom:   32    charge:    8.1497    magn:   -0.0000    constr:    0.0000
     atom:   33    charge:    8.1501    magn:   -0.0000    constr:    0.0000
     atom:   34    charge:    8.1498    magn:   -0.0000    constr:    0.0000
     atom:   35    charge:    8.1501    magn:   -0.0000    constr:    0.0000
     atom:   36    charge:    8.1498    magn:   -0.0000    constr:    0.0000
     atom:   37    charge:    8.1498    magn:   -0.0000    constr:    0.0000
     atom:   38    charge:    8.1502    magn:   -0.0000    constr:    0.0000
     atom:   39    charge:    8.1498    magn:   -0.0000    constr:    0.0000
     atom:   40    charge:    8.1502    magn:   -0.0000    constr:    0.0000
     atom:   41    charge:    8.1435    magn:   -0.0000    constr:    0.0000
     atom:   42    charge:    8.1502    magn:   -0.0000    constr:    0.0000
     atom:   43    charge:    8.1498    magn:   -0.0000    constr:    0.0000
     atom:   44    charge:    8.1502    magn:   -0.0000    constr:    0.0000
     atom:   45    charge:    8.1498    magn:   -0.0000    constr:    0.0000
     atom:   46    charge:    8.1498    magn:   -0.0000    constr:    0.0000
     atom:   47    charge:    8.1502    magn:   -0.0000    constr:    0.0000
     atom:   48    charge:    8.1498    magn:   -0.0000    constr:    0.0000
     atom:   49    charge:    8.1502    magn:   -0.0000    constr:    0.0000
     atom:   50    charge:    8.1435    magn:    0.0000    constr:    0.0000
     atom:   51    charge:    8.1502    magn:   -0.0000    constr:    0.0000
     atom:   52    charge:    8.1498    magn:   -0.0000    constr:    0.0000
     atom:   53    charge:    8.1502    magn:   -0.0000    constr:    0.0000
     atom:   54    charge:    8.1498    magn:   -0.0000    constr:    0.0000
     atom:   55    charge:    8.1498    magn:   -0.0000    constr:    0.0000
     atom:   56    charge:    8.1501    magn:   -0.0000    constr:    0.0000
     atom:   57    charge:    8.1498    magn:   -0.0000    constr:    0.0000
     atom:   58    charge:    8.1498    magn:   -0.0000    constr:    0.0000
     atom:   59    charge:    8.1502    magn:   -0.0000    constr:    0.0000
     atom:   60    charge:    8.1498    magn:   -0.0000    constr:    0.0000
     atom:   61    charge:    8.1498    magn:   -0.0000    constr:    0.0000
     atom:   62    charge:    8.1502    magn:   -0.0000    constr:    0.0000
     atom:   63    charge:    8.1498    magn:   -0.0000    constr:    0.0000
     atom:   64    charge:    8.1501    magn:   -0.0000    constr:    0.0000
     atom:   65    charge:    8.1497    magn:   -0.0000    constr:    0.0000
     atom:   66    charge:    8.1501    magn:   -0.0000    constr:    0.0000
     atom:   67    charge:    8.1502    magn:   -0.0000    constr:    0.0000
     atom:   68    charge:    8.1435    magn:    0.0000    constr:    0.0000
     atom:   69    charge:    8.1502    magn:   -0.0000    constr:    0.0000
     atom:   70    charge:    8.1502    magn:   -0.0000    constr:    0.0000
     atom:   71    charge:    8.1435    magn:   -0.0000    constr:    0.0000
     atom:   72    charge:    8.1502    magn:   -0.0000    constr:    0.0000
     atom:   73    charge:    8.1498    magn:   -0.0000    constr:    0.0000
     atom:   74    charge:    8.1501    magn:   -0.0000    constr:    0.0000
     atom:   75    charge:    8.1498    magn:   -0.0000    constr:    0.0000
     atom:   76    charge:    8.1498    magn:   -0.0000    constr:    0.0000
     atom:   77    charge:    8.1502    magn:   -0.0000    constr:    0.0000
     atom:   78    charge:    8.1498    magn:   -0.0000    constr:    0.0000
     atom:   79    charge:    8.1498    magn:   -0.0000    constr:    0.0000
     atom:   80    charge:    8.1502    magn:   -0.0000    constr:    0.0000
     atom:   81    charge:    8.1498    magn:   -0.0000    constr:    0.0000
     atom:   82    charge:    8.1498    magn:   -0.0000    constr:    0.0000
     atom:   83    charge:    8.1498    magn:   -0.0000    constr:    0.0000
     atom:   84    charge:    8.1498    magn:   -0.0000    constr:    0.0000
     atom:   85    charge:    8.1501    magn:   -0.0000    constr:    0.0000
     atom:   86    charge:    8.1502    magn:   -0.0000    constr:    0.0000
     atom:   87    charge:    8.1502    magn:   -0.0000    constr:    0.0000
     atom:   88    charge:    8.1498    magn:   -0.0000    constr:    0.0000
     atom:   89    charge:    8.1498    magn:   -0.0000    constr:    0.0000
     atom:   90    charge:    8.1498    magn:   -0.0000    constr:    0.0000
     atom:   91    charge:    8.1501    magn:   -0.0000    constr:    0.0000
     atom:   92    charge:    8.1502    magn:   -0.0000    constr:    0.0000
     atom:   93    charge:    8.1502    magn:   -0.0000    constr:    0.0000
     atom:   94    charge:    8.1497    magn:   -0.0000    constr:    0.0000
     atom:   95    charge:    8.1435    magn:   -0.0000    constr:    0.0000
     atom:   96    charge:    8.1435    magn:    0.0000    constr:    0.0000
     atom:   97    charge:    8.1501    magn:   -0.0000    constr:    0.0000
     atom:   98    charge:    8.1502    magn:   -0.0000    constr:    0.0000
     atom:   99    charge:    8.1502    magn:   -0.0000    constr:    0.0000
     atom:  100    charge:    8.1498    magn:   -0.0000    constr:    0.0000
     atom:  101    charge:    8.1498    magn:   -0.0000    constr:    0.0000
     atom:  102    charge:    8.1498    magn:   -0.0000    constr:    0.0000
     atom:  103    charge:    8.1501    magn:   -0.0000    constr:    0.0000
     atom:  104    charge:    8.1502    magn:   -0.0000    constr:    0.0000
     atom:  105    charge:    8.1502    magn:   -0.0000    constr:    0.0000
     atom:  106    charge:    8.1498    magn:   -0.0000    constr:    0.0000
     atom:  107    charge:    8.1498    magn:   -0.0000    constr:    0.0000
     atom:  108    charge:    8.1498    magn:   -0.0000    constr:    0.0000
     atom:  109    charge:    5.8313    magn:    0.0000    constr:    0.0000
     atom:  110    charge:    5.8312    magn:    0.0000    constr:    0.0000
     atom:  111    charge:    5.8312    magn:    0.0000    constr:    0.0000
     atom:  112    charge:    5.8319    magn:   -0.0000    constr:    0.0000
     atom:  113    charge:    5.8315    magn:   -0.0000    constr:    0.0000
     atom:  114    charge:    5.8315    magn:   -0.0000    constr:    0.0000
     atom:  115    charge:    5.8313    magn:    0.0000    constr:    0.0000
     atom:  116    charge:    5.8312    magn:    0.0000    constr:    0.0000
     atom:  117    charge:    5.8312    magn:    0.0000    constr:    0.0000
     atom:  118    charge:    5.8312    magn:    0.0000    constr:    0.0000
     atom:  119    charge:    5.8309    magn:    0.0000    constr:    0.0000
     atom:  120    charge:    5.8309    magn:    0.0000    constr:    0.0000
     atom:  121    charge:    5.8315    magn:   -0.0000    constr:    0.0000
     atom:  122    charge:    5.8264    magn:    0.0000    constr:    0.0000
     atom:  123    charge:    5.8264    magn:    0.0000    constr:    0.0000
     atom:  124    charge:    5.8312    magn:    0.0000    constr:    0.0000
     atom:  125    charge:    5.8309    magn:   -0.0000    constr:    0.0000
     atom:  126    charge:    5.8309    magn:    0.0000    constr:    0.0000
     atom:  127    charge:    5.8312    magn:    0.0000    constr:    0.0000
     atom:  128    charge:    5.8309    magn:   -0.0000    constr:    0.0000
     atom:  129    charge:    5.8309    magn:    0.0000    constr:    0.0000
     atom:  130    charge:    5.8315    magn:   -0.0000    constr:    0.0000
     atom:  131    charge:    5.8264    magn:    0.0000    constr:    0.0000
     atom:  132    charge:    5.8264    magn:    0.0000    constr:    0.0000
     atom:  133    charge:    5.8312    magn:    0.0000    constr:    0.0000
     atom:  134    charge:    5.8309    magn:    0.0000    constr:    0.0000
     atom:  135    charge:    5.8309    magn:   -0.0000    constr:    0.0000
     atom:  136    charge:    5.8313    magn:    0.0000    constr:    0.0000
     atom:  137    charge:    5.8319    magn:    0.0000    constr:    0.0000
     atom:  138    charge:    5.8313    magn:    0.0000    constr:    0.0000
     atom:  139    charge:    5.8312    magn:    0.0000    constr:    0.0000
     atom:  140    charge:    5.8315    magn:    0.0000    constr:    0.0000
     atom:  141    charge:    5.8312    magn:    0.0000    constr:    0.0000
     atom:  142    charge:    5.8312    magn:    0.0000    constr:    0.0000
     atom:  143    charge:    5.8315    magn:   -0.0000    constr:    0.0000
     atom:  144    charge:    5.8312    magn:    0.0000    constr:    0.0000
     atom:  145    charge:    5.8312    magn:    0.0000    constr:    0.0000
     atom:  146    charge:    5.8315    magn:    0.0000    constr:    0.0000
     atom:  147    charge:    5.8312    magn:    0.0000    constr:    0.0000
     atom:  148    charge:    5.8309    magn:    0.0000    constr:    0.0000
     atom:  149    charge:    5.8264    magn:    0.0000    constr:    0.0000
     atom:  150    charge:    5.8309    magn:    0.0000    constr:    0.0000
     atom:  151    charge:    5.8309    magn:    0.0000    constr:    0.0000
     atom:  152    charge:    5.8264    magn:    0.0000    constr:    0.0000
     atom:  153    charge:    5.8309    magn:   -0.0000    constr:    0.0000
     atom:  154    charge:    5.8312    magn:    0.0000    constr:    0.0000
     atom:  155    charge:    5.8315    magn:    0.0000    constr:    0.0000
     atom:  156    charge:    5.8312    magn:    0.0000    constr:    0.0000
     atom:  157    charge:    5.8309    magn:    0.0000    constr:    0.0000
     atom:  158    charge:    5.8264    magn:    0.0000    constr:    0.0000
     atom:  159    charge:    5.8309    magn:   -0.0000    constr:    0.0000
     atom:  160    charge:    5.8309    magn:    0.0000    constr:    0.0000
     atom:  161    charge:    5.8264    magn:    0.0000    constr:    0.0000
     atom:  162    charge:    5.8309    magn:   -0.0000    constr:    0.0000
     atom:  163    charge:    5.8313    magn:    0.0000    constr:    0.0000
     atom:  164    charge:    5.8317    magn:    0.0000    constr:    0.0000
     atom:  165    charge:    5.8313    magn:    0.0000    constr:    0.0000
     atom:  166    charge:    5.8317    magn:    0.0000    constr:    0.0000
     atom:  167    charge:    5.8315    magn:    0.0000    constr:    0.0000
     atom:  168    charge:    5.8317    magn:    0.0000    constr:    0.0000
     atom:  169    charge:    5.8313    magn:    0.0000    constr:    0.0000
     atom:  170    charge:    5.8317    magn:    0.0000    constr:    0.0000
     atom:  171    charge:    5.8313    magn:    0.0000    constr:    0.0000
     atom:  172    charge:    5.8317    magn:   -0.0000    constr:    0.0000
     atom:  173    charge:    5.8315    magn:    0.0000    constr:    0.0000
     atom:  174    charge:    5.8317    magn:   -0.0000    constr:    0.0000
     atom:  175    charge:    5.8315    magn:    0.0000    constr:    0.0000
     atom:  176    charge:    5.8315    magn:    0.0000    constr:    0.0000
     atom:  177    charge:    5.8317    magn:    0.0000    constr:    0.0000
     atom:  178    charge:    5.8315    magn:    0.0000    constr:    0.0000
     atom:  179    charge:    5.8317    magn:   -0.0000    constr:    0.0000
     atom:  180    charge:    5.8313    magn:    0.0000    constr:    0.0000
     atom:  181    charge:    5.8317    magn:   -0.0000    constr:    0.0000
     atom:  182    charge:    5.8313    magn:    0.0000    constr:    0.0000
     atom:  183    charge:    5.8317    magn:    0.0000    constr:    0.0000
     atom:  184    charge:    5.8315    magn:    0.0000    constr:    0.0000
     atom:  185    charge:    5.8317    magn:    0.0000    constr:    0.0000
     atom:  186    charge:    5.8313    magn:    0.0000    constr:    0.0000
     atom:  187    charge:    5.8317    magn:    0.0000    constr:    0.0000
     atom:  188    charge:    5.8313    magn:    0.0000    constr:    0.0000
     atom:  189    charge:    5.8313    magn:    0.0000    constr:    0.0000
     atom:  190    charge:    5.8312    magn:    0.0000    constr:    0.0000
     atom:  191    charge:    5.8312    magn:    0.0000    constr:    0.0000
     atom:  192    charge:    5.8312    magn:    0.0000    constr:    0.0000
     atom:  193    charge:    5.8309    magn:    0.0000    constr:    0.0000
     atom:  194    charge:    5.8309    magn:    0.0000    constr:    0.0000
     atom:  195    charge:    5.8312    magn:    0.0000    constr:    0.0000
     atom:  196    charge:    5.8309    magn:    0.0000    constr:    0.0000
     atom:  197    charge:    5.8309    magn:    0.0000    constr:    0.0000
     atom:  198    charge:    5.8319    magn:    0.0000    constr:    0.0000
     atom:  199    charge:    5.8315    magn:   -0.0000    constr:    0.0000
     atom:  200    charge:    5.8315    magn:    0.0000    constr:    0.0000
     atom:  201    charge:    5.8315    magn:    0.0000    constr:    0.0000
     atom:  202    charge:    5.8264    magn:   -0.0000    constr:    0.0000
     atom:  203    charge:    5.8264    magn:    0.0000    constr:    0.0000
     atom:  204    charge:    5.8315    magn:    0.0000    constr:    0.0000
     atom:  205    charge:    5.8264    magn:    0.0000    constr:    0.0000
     atom:  206    charge:    5.8264    magn:    0.0000    constr:    0.0000
     atom:  207    charge:    5.8313    magn:    0.0000    constr:    0.0000
     atom:  208    charge:    5.8312    magn:    0.0000    constr:    0.0000
     atom:  209    charge:    5.8312    magn:    0.0000    constr:    0.0000
     atom:  210    charge:    5.8312    magn:    0.0000    constr:    0.0000
     atom:  211    charge:    5.8309    magn:    0.0000    constr:    0.0000
     atom:  212    charge:    5.8309    magn:    0.0000    constr:    0.0000
     atom:  213    charge:    5.8312    magn:    0.0000    constr:    0.0000
     atom:  214    charge:    5.8309    magn:    0.0000    constr:    0.0000
     atom:  215    charge:    5.8309    magn:    0.0000    constr:    0.0000

     total cpu time spent up to now is    38722.8 secs

     End of self-consistent calculation

 ------ SPIN UP ------------


          k = 0.0000 0.0000 0.0000 ( 52700 PWs)   bands (ev):

   -71.8512 -71.8485 -71.8485 -71.8485 -71.8472 -71.8472 -71.8188 -71.8176
   -71.8176 -71.8171 -71.8155 -71.8155 -71.8155 -71.8146 -71.8146 -71.8143
   -71.8136 -71.8136 -71.8136 -71.8131 -71.8131 -71.8131 -71.8129 -71.8129
   -71.8129 -71.8125 -71.8121 -71.8121 -71.8121 -71.8121 -71.8113 -71.8113
   -71.8113 -71.8111 -71.8111 -71.8104 -71.8101 -71.8101 -71.8101 -71.8100
   -71.8098 -71.8098 -71.8098 -71.8098 -71.8098 -71.8095 -71.8094 -71.8094
   -71.8094 -71.8092 -71.8092 -71.8092 -71.8092 -71.8092 -71.8092 -71.8089
   -71.8089 -71.8089 -71.8084 -71.8084 -71.8084 -71.8084 -71.8084 -71.8083
   -71.8083 -71.8082 -71.8082 -71.8082 -71.8081 -71.8081 -71.8081 -71.8078
   -71.8076 -71.8075 -71.8075 -71.8075 -71.8071 -71.8070 -71.8070 -71.8070
   -71.8069 -71.8069 -71.8066 -71.8066 -71.8066 -71.8066 -71.8066 -71.8059
   -71.8059 -71.8059 -71.8058 -71.8058 -71.8058 -71.8055 -71.8055 -71.8055
   -71.8053 -71.8053 -71.8053 -71.8049 -71.8049 -71.8049 -71.8042 -71.8042
   -71.8041 -71.8041 -71.8041 -71.8035 -34.8371 -34.8323 -34.8323 -34.8323
   -34.8294 -34.8294 -34.8294 -34.8230 -34.8230 -34.8230 -34.8219 -34.8219
   -34.8219 -34.8206 -34.8206 -34.8204 -34.8201 -34.8201 -34.8201 -34.8199
   -34.8199 -34.8199 -34.8187 -34.8187 -34.8175 -34.8175 -34.8175 -34.8111
   -34.8111 -34.8111 -34.8110 -34.8110 -34.8109 -34.8104 -34.8104 -34.8104
   -34.8098 -34.8098 -34.8098 -34.8077 -34.8077 -34.8077 -34.8060 -34.8037
   -34.8037 -34.8037 -34.8033 -34.8033 -34.8033 -34.8026 -34.8022 -34.8022
   -34.8022 -34.8017 -34.8017 -34.8017 -34.8014 -34.8012 -34.8012 -34.8012
   -34.8012 -34.8012 -34.8012 -34.8010 -34.8010 -34.8010 -34.8009 -34.8009
   -34.8009 -34.8009 -34.8009 -34.7982 -34.7982 -34.7980 -34.7980 -34.7980
   -34.7972 -34.7972 -34.7972 -34.7968 -34.7957 -34.7957 -34.7957 -34.7954
   -34.7954 -34.7954 -34.7948 -34.7945 -34.7945 -34.7933 -34.7933 -34.7933
   -34.7929 -34.7929 -34.7929 -34.7892 -34.7892 -34.7892 -34.7886 -34.7886
   -34.7885 -34.7861 -34.7861 -34.7861 -34.7820 -34.7820 -34.7811 -34.7811
   -34.7811 -34.7799 -34.7795 -34.7795 -34.7795 -34.7782 -34.7782 -34.7782
   -34.7776 -34.7776 -34.7776 -34.7772 -34.7772 -34.7772 -34.7743 -34.7743
   -34.7743 -34.7722 -34.7722 -34.7713 -34.7713 -34.7713 -34.7707 -34.7707
   -34.7707 -34.7700 -34.7700 -34.7700 -34.7657 -34.7657 -34.7657 -34.7651
   -34.7649 -34.7649 -34.7645 -34.7645 -34.7645 -34.7644 -34.7644 -34.7644
   -34.7642 -34.7642 -34.7642 -34.7641 -34.7641 -34.7641 -34.7638 -34.7632
   -34.7630 -34.7630 -34.7625 -34.7624 -34.7624 -34.7616 -34.7616 -34.7616
   -34.7610 -34.7610 -34.7610 -34.7603 -34.7603 -34.7589 -34.7589 -34.7589
   -34.7581 -34.7581 -34.7581 -34.7546 -34.7546 -34.7546 -34.7539 -34.7539
   -34.7539 -34.7538 -34.7538 -34.7538 -34.7517 -34.7517 -34.7517 -34.7515
   -34.7515 -34.7515 -34.7514 -34.7512 -34.7510 -34.7510 -34.7510 -34.7509
   -34.7509 -34.7509 -34.7509 -34.7509 -34.7509 -34.7502 -34.7502 -34.7502
   -34.7502 -34.7501 -34.7501 -34.7496 -34.7496 -34.7484 -34.7484 -34.7484
   -34.7481 -34.7481 -34.7477 -34.7477 -34.7477 -34.7475 -34.7475 -34.7475
   -34.7474 -34.7474 -34.7474 -34.7467 -34.7464 -34.7464 -34.7464 -34.7463
   -34.7463 -34.7463 -34.7462 -34.7462 -34.7462 -34.7462 -34.7462 -34.7461
   -34.7461 -34.7461 -34.7457 -34.7457 -34.7457 -34.7456 -34.7453 -34.7453
   -34.7453 -34.7448 -34.7448 -34.7448 -34.7447 -34.7447 -34.7445 -34.7444
   -34.7444 -34.7443 -34.7436 -34.7436 -34.7436 -34.7432 -34.7432 -34.7429
   -34.7429 -34.7429 -34.7428 -34.7428 -34.7428 -34.7424 -34.7424 -34.7424
   -34.7423 -34.7423 -34.7423 -34.7419 -34.7419 -34.7418 -34.7418 -34.7418
   -34.7414 -34.7414 -34.7414 -34.7409 -34.7398 -34.7390 -34.7390 -34.7390
   -34.7355 -34.7355 -34.7355 -34.7352 -34.7352 -34.7352 -34.7352 -34.7352
   -34.7352 -34.7348 -34.7348 -34.7341 -34.7341 -34.7341 -34.7337 -34.7337
   -34.7337 -34.7336 -34.7336 -34.7336 -34.7330 -34.7330 -34.7330 -34.7327
   -34.7327 -34.7310 -34.7310 -34.7310 -34.7301 -34.7301 -34.7292 -34.7292
   -34.7292 -34.7292 -34.7292 -34.7292 -34.7286 -34.7269 -34.7269 -34.7269
   -13.1677 -12.7653 -12.7653 -12.7611 -12.7611 -12.7611 -12.7197 -12.4165
   -12.4165 -12.4133 -12.4133 -12.4133 -12.4117 -12.4117 -12.4117 -12.4095
   -12.4095 -12.4095 -12.3361 -12.1392 -12.1392 -12.1392 -12.1379 -12.1379
   -12.1379 -12.1323 -12.0949 -11.9264 -11.9264 -11.9200 -11.9200 -11.9200
   -11.9013 -11.7566 -11.7566 -11.7559 -11.7550 -11.7550 -11.7545 -11.7545
   -11.7545 -11.7543 -11.7543 -11.7543 -11.7526 -11.7526 -11.7526 -11.7493
   -11.7493 -11.7493 -11.7475 -11.7475 -11.7475 -11.7469 -11.7469 -11.7469
   -11.7197 -11.6884 -11.6884 -11.6884 -11.6868 -11.6868 -11.6868 -11.6864
   -11.6864 -11.6829 -11.6829 -11.6829 -11.6815 -11.6815 -11.6815 -11.6808
   -11.6808 -11.6808 -11.6806 -11.6797 -11.6797 -11.6797 -11.6763 -11.6763
   -11.5690 -11.5157 -11.5157 -11.5115 -11.5108 -11.5108 -11.5108 -11.5107
   -11.5107 -11.5107 -11.5087 -11.5087 -11.5065 -11.5065 -11.5065 -11.4734
   -11.4562 -11.4562 -11.4537 -11.4520 -11.4520 -11.4517 -11.4517 -11.4517
   -11.4506 -11.4506 -11.4506   1.8718   1.9090   1.9090   1.9111   1.9111
     1.9111   1.9126   1.9126   1.9126   1.9132   1.9132   1.9132   1.9138
     1.9138   1.9138   1.9144   1.9144   1.9162   1.9162   1.9162   1.9231
     1.9839   1.9839   1.9839   2.0572   2.0572   2.0572   2.3068   2.4871
     2.4871   2.4871   2.4898   2.4999   2.4999   2.4999   2.5419   2.5950
     2.5950   2.5950   2.5974   2.5974   2.5974   2.6010   2.6010   2.6010
     2.6047   2.6047   2.6047   2.6202   2.6213   2.6213   2.6213   2.6214
     2.6214   2.6214   2.6221   2.6221   2.6227   2.6227   2.6249   2.6249
     2.6249   2.6251   2.6251   2.6251   2.6276   2.6276   2.6276   2.7136
     2.7136   2.7136   2.7224   2.7453   2.7453   2.8316   2.8316   2.8316
     2.9625   2.9674   2.9674   2.9674   2.9732   2.9732   2.9732   2.9736
     2.9736   3.0470   3.0470   3.0470   3.1468   3.1468   3.1468   3.1486
     3.1486   3.1504   3.1504   3.1504   3.1538   3.3167   3.3167   3.3167
     3.5192   3.6754   3.6754   3.6779   3.6779   3.6779   3.6792   3.6792
     3.6792   3.7590   3.7590   3.7590   4.0585   4.0585   4.0585   4.0601
     4.0601   4.0601   4.0701   4.0701   4.0701   4.1314   4.1314   4.1314
     4.4923   4.4923   4.4923   4.4933   4.4933   4.4933   4.4939   4.4939
     4.4942   4.4942   4.4942   4.4947   4.4947   4.4947   4.4983   4.5018
     4.5018   4.5070   4.5070   4.5070   4.5081   4.5724   4.5724   4.5724
     4.6749   4.6796   4.6796   4.6805   4.6807   4.6807   4.6807   4.6945
     4.6945   4.7414   4.7414   4.7414   4.7500   4.8619   4.8619   4.8730
     4.8730   4.8730   4.9252   4.9467   4.9467   4.9467   4.9468   4.9468
     4.9472   4.9472   4.9472   4.9474   4.9474   4.9474   4.9499   4.9502
     4.9502   4.9502   4.9505   4.9505   4.9554   4.9554   4.9554   5.0103
     5.0103   5.0103   5.0340   5.0340   5.0340   5.1246   5.1246   5.1246
     5.3701   5.3701   5.3701   5.3701   5.3701   5.3701   5.3732   5.3732
     5.3732   5.3753   5.3753   5.3753   5.3925   5.3953   5.3953   5.3953
     5.3962   5.3972   5.3972   5.3982   5.3982   5.3982   5.4023   5.4023
     5.4023   5.4027   5.4027   5.4027   5.4076   5.4076   5.4076   5.4099
     5.4099   5.4110   5.4110   5.4110   5.4114   5.4159   5.4159   5.4159
     5.4182   5.4182   5.4185   5.4185   5.4185   5.4769   5.4769   5.4769
     5.5078   5.5078   5.5078   5.5126   5.5126   5.5173   5.5173   5.5173
     5.5222   5.5504   5.5504   5.5504   5.5874   5.5899   5.5899   5.5908
     5.5908   5.5908   5.5928   5.5928   5.5933   5.5933   5.5933   5.5953
     5.5953   5.5953   5.5959   5.5959   5.5959   5.5968   5.5970   5.5970
     5.5970   5.8949   5.8949   5.8949   5.9802   5.9802   5.9813   5.9813
     5.9813   5.9876   5.9876   5.9883   5.9883   5.9883   5.9887   5.9887
     5.9887   6.0753   6.0753   6.0753   6.1269   6.1269   6.1269   6.1270
     6.1270   6.1270   6.1336   6.1336   6.1336   6.1677   6.1677   6.1677
     6.1891   6.1899   6.1899   6.1899   6.1912   6.1912   6.1912   6.1918
     6.1918   6.5641   6.5641   6.5641  10.1404  15.1744  16.6253  16.6253
    16.6253  17.0993  17.0993  17.3234  17.4531  17.4531  17.4531  18.1526
    18.1545  18.1545  18.1545  18.1697  18.1697  18.1697  18.1941  18.2672
    18.2672  18.2700  18.2700  18.2700  18.2715  18.2715  18.2715  18.7110
    18.7110  18.7110  18.8671  19.3495  19.3495  19.3495  19.5082  19.5082
    19.5082  19.5107  19.5107  19.5118  19.5118  19.5118  19.5124  19.5124
    19.5124  19.5140  19.5153  19.5153  19.5153  19.5177  19.5177  19.5305
    19.5305  19.5305  19.7014  19.7014  19.7014  19.9070  20.0545  20.0545
    20.1501  20.1501  20.1501  20.3139  20.3139  20.3207  20.3340  20.3340
    20.3340  20.3510  20.6903  20.6903  20.6920  20.8104  20.8104  20.8207
    20.8207  20.8207  20.8213  20.8214  20.8214  20.8214  20.8221  20.8221
    20.8221  20.8243  20.8243  20.8243  20.8289  20.8289  20.8296  20.8296
    20.8296  20.8764  20.8791  20.8791  20.8791  20.8802  20.8802  20.8802
    20.8988  20.8988  20.8988  20.9034  20.9034  20.9893  20.9893  20.9893
    21.0338  21.0338  21.0338  21.0367  21.0367  21.0367  21.0527  21.0527
    21.0527  21.3330  21.3330  21.3330  21.5874  21.5954  21.5954  21.5992
    21.5992  21.5992  21.6003  21.6060  21.6060  21.6060  21.6071  21.6071
    21.6071  21.6077  21.6077  21.6077  21.6109  21.6109  21.6567  21.6567
    21.6567  21.9761  21.9761  21.9761  22.1904  22.2889  22.2889  22.2916
    22.2916  22.2916  22.2988  22.3116  22.3116  22.3779  22.3779  22.3779
    22.7913  22.7916  22.7916  22.7916  22.7922  22.7922  22.8174  22.8174
    22.8174  22.8331  22.8331  22.8331  23.1138  23.1138  23.1138  23.1138
    23.1277  23.1277  23.1325  23.1325  23.1325  23.1452  23.1452  23.1452
    23.1651  23.1651  23.1753  23.1835  23.1835  23.1835  23.2066  23.2144
    23.2401  23.2401  23.2401  23.2422  23.2422  23.2422  23.2435  23.2441
    23.2441  23.2450  23.2450  23.2450  23.2466  23.2471  23.2471  23.2487

     occupation numbers 
     1.0000   1.0000   1.0000   1.0000   1.0000   1.0000   1.0000   1.0000
     1.0000   1.0000   1.0000   1.0000   1.0000   1.0000   1.0000   1.0000
     1.0000   1.0000   1.0000   1.0000   1.0000   1.0000   1.0000   1.0000
     1.0000   1.0000   1.0000   1.0000   1.0000   1.0000   1.0000   1.0000
     1.0000   1.0000   1.0000   1.0000   1.0000   1.0000   1.0000   1.0000
     1.0000   1.0000   1.0000   1.0000   1.0000   1.0000   1.0000   1.0000
     1.0000   1.0000   1.0000   1.0000   1.0000   1.0000   1.0000   1.0000
     1.0000   1.0000   1.0000   1.0000   1.0000   1.0000   1.0000   1.0000
     1.0000   1.0000   1.0000   1.0000   1.0000   1.0000   1.0000   1.0000
     1.0000   1.0000   1.0000   1.0000   1.0000   1.0000   1.0000   1.0000
     1.0000   1.0000   1.0000   1.0000   1.0000   1.0000   1.0000   1.0000
     1.0000   1.0000   1.0000   1.0000   1.0000   1.0000   1.0000   1.0000
     1.0000   1.0000   1.0000   1.0000   1.0000   1.0000   1.0000   1.0000
     1.0000   1.0000   1.0000   1.0000   1.0000   1.0000   1.0000   1.0000
     1.0000   1.0000   1.0000   1.0000   1.0000   1.0000   1.0000   1.0000
     1.0000   1.0000   1.0000   1.0000   1.0000   1.0000   1.0000   1.0000
     1.0000   1.0000   1.0000   1.0000   1.0000   1.0000   1.0000   1.0000
     1.0000   1.0000   1.0000   1.0000   1.0000   1.0000   1.0000   1.0000
     1.0000   1.0000   1.0000   1.0000   1.0000   1.0000   1.0000   1.0000
     1.0000   1.0000   1.0000   1.0000   1.0000   1.0000   1.0000   1.0000
     1.0000   1.0000   1.0000   1.0000   1.0000   1.0000   1.0000   1.0000
     1.0000   1.0000   1.0000   1.0000   1.0000   1.0000   1.0000   1.0000
     1.0000   1.0000   1.0000   1.0000   1.0000   1.0000   1.0000   1.0000
     1.0000   1.0000   1.0000   1.0000   1.0000   1.0000   1.0000   1.0000
     1.0000   1.0000   1.0000   1.0000   1.0000   1.0000   1.0000   1.0000
     1.0000   1.0000   1.0000   1.0000   1.0000   1.0000   1.0000   1.0000
     1.0000   1.0000   1.0000   1.0000   1.0000   1.0000   1.0000   1.0000
     1.0000   1.0000   1.0000   1.0000   1.0000   1.0000   1.0000   1.0000
     1.0000   1.0000   1.0000   1.0000   1.0000   1.0000   1.0000   1.0000
     1.0000   1.0000   1.0000   1.0000   1.0000   1.0000   1.0000   1.0000
     1.0000   1.0000   1.0000   1.0000   1.0000   1.0000   1.0000   1.0000
     1.0000   1.0000   1.0000   1.0000   1.0000   1.0000   1.0000   1.0000
     1.0000   1.0000   1.0000   1.0000   1.0000   1.0000   1.0000   1.0000
     1.0000   1.0000   1.0000   1.0000   1.0000   1.0000   1.0000   1.0000
     1.0000   1.0000   1.0000   1.0000   1.0000   1.0000   1.0000   1.0000
     1.0000   1.0000   1.0000   1.0000   1.0000   1.0000   1.0000   1.0000
     1.0000   1.0000   1.0000   1.0000   1.0000   1.0000   1.0000   1.0000
     1.0000   1.0000   1.0000   1.0000   1.0000   1.0000   1.0000   1.0000
     1.0000   1.0000   1.0000   1.0000   1.0000   1.0000   1.0000   1.0000
     1.0000   1.0000   1.0000   1.0000   1.0000   1.0000   1.0000   1.0000
     1.0000   1.0000   1.0000   1.0000   1.0000   1.0000   1.0000   1.0000
     1.0000   1.0000   1.0000   1.0000   1.0000   1.0000   1.0000   1.0000
     1.0000   1.0000   1.0000   1.0000   1.0000   1.0000   1.0000   1.0000
     1.0000   1.0000   1.0000   1.0000   1.0000   1.0000   1.0000   1.0000
     1.0000   1.0000   1.0000   1.0000   1.0000   1.0000   1.0000   1.0000
     1.0000   1.0000   1.0000   1.0000   1.0000   1.0000   1.0000   1.0000
     1.0000   1.0000   1.0000   1.0000   1.0000   1.0000   1.0000   1.0000
     1.0000   1.0000   1.0000   1.0000   1.0000   1.0000   1.0000   1.0000
     1.0000   1.0000   1.0000   1.0000   1.0000   1.0000   1.0000   1.0000
     1.0000   1.0000   1.0000   1.0000   1.0000   1.0000   1.0000   1.0000
     1.0000   1.0000   1.0000   1.0000   1.0000   1.0000   1.0000   1.0000
     1.0000   1.0000   1.0000   1.0000   1.0000   1.0000   1.0000   1.0000
     1.0000   1.0000   1.0000   1.0000   1.0000   1.0000   1.0000   1.0000
     1.0000   1.0000   1.0000   1.0000   1.0000   1.0000   1.0000   1.0000
     1.0000   1.0000   1.0000   1.0000   1.0000   1.0000   1.0000   1.0000
     1.0000   1.0000   1.0000   1.0000   1.0000   1.0000   1.0000   1.0000
     1.0000   1.0000   1.0000   1.0000   1.0000   1.0000   1.0000   1.0000
     1.0000   1.0000   1.0000   1.0000   1.0000   1.0000   1.0000   1.0000
     1.0000   1.0000   1.0000   1.0000   1.0000   1.0000   1.0000   1.0000
     1.0000   1.0000   1.0000   1.0000   1.0000   1.0000   1.0000   1.0000
     1.0000   1.0000   1.0000   1.0000   1.0000   1.0000   1.0000   1.0000
     1.0000   1.0000   1.0000   1.0000   1.0000   1.0000   1.0000   1.0000
     1.0000   1.0000   1.0000   1.0000   1.0000   1.0000   1.0000   1.0000
     1.0000   1.0000   1.0000   1.0000   1.0000   1.0000   1.0000   1.0000
     1.0000   1.0000   1.0000   1.0000   1.0000   1.0000   1.0000   1.0000
     1.0000   1.0000   1.0000   1.0000   1.0000   1.0000   1.0000   1.0000
     1.0000   1.0000   1.0000   1.0000   1.0000   1.0000   1.0000   1.0000
     1.0000   1.0000   1.0000   1.0000   1.0000   1.0000   1.0000   1.0000
     1.0000   1.0000   1.0000   1.0000   1.0000   1.0000   1.0000   1.0000
     1.0000   1.0000   1.0000   1.0000   1.0000   1.0000   1.0000   1.0000
     1.0000   1.0000   1.0000   1.0000   1.0000   1.0000   1.0000   1.0000
     1.0000   1.0000   1.0000   1.0000   1.0000   1.0000   1.0000   1.0000
     1.0000   1.0000   1.0000   1.0000   1.0000   1.0000   1.0000   1.0000
     1.0000   1.0000   1.0000   1.0000   1.0000   1.0000   1.0000   1.0000
     1.0000   1.0000   1.0000   1.0000   1.0000   1.0000   1.0000   1.0000
     1.0000   1.0000   1.0000   1.0000   1.0000   1.0000   1.0000   1.0000
     1.0000   1.0000   1.0000   1.0000   1.0000   1.0000   1.0000   1.0000
     1.0000   1.0000   1.0000   1.0000   1.0000   1.0000   1.0000   1.0000
     1.0000   1.0000   1.0000   1.0000   1.0000   1.0000   1.0000   1.0000
     1.0000   1.0000   1.0000   1.0000   1.0000   1.0000   1.0000   1.0000
     1.0000   1.0000   1.0000   1.0000   1.0000   1.0000   1.0000   1.0000
     1.0000   1.0000   1.0000   1.0000   1.0000   1.0000   1.0000   1.0000
     1.0000   1.0000   1.0000   1.0000   1.0000   1.0000   1.0000   1.0000
     1.0000   1.0000   1.0000   1.0000   1.0000   1.0000   1.0000   1.0000
     1.0000   1.0000   1.0000   1.0000   1.0000   1.0000   1.0000   1.0000
     1.0000   1.0000   1.0000   1.0000   1.0000   1.0000   1.0000   1.0000
     1.0000   1.0000   1.0000   1.0000   1.0000   1.0000   1.0000   1.0000
     1.0000   1.0000   1.0000   1.0000   1.0000   1.0000   1.0000   1.0000
     1.0000   1.0000   1.0000   1.0000   1.0000   1.0000   1.0000   1.0000
     1.0000   1.0000   1.0000   1.0000   1.0000   1.0000   1.0000   1.0000
     1.0000   1.0000   1.0000   1.0000   1.0000   1.0000   1.0000   1.0000
     1.0000   1.0000   1.0000   1.0000   1.0000   1.0000   1.0000   1.0000
     1.0000   1.0000   1.0000   1.0000   1.0000   1.0000   1.0000   1.0000
     1.0000   1.0000   1.0000   1.0000   1.0000   1.0000   1.0000   1.0000
     1.0000   1.0000   1.0000   1.0000   1.0000   1.0000   1.0000   1.0000
     1.0000   1.0000   1.0000   1.0000   1.0000   1.0000   1.0000   1.0000
     1.0000   1.0000   1.0000   1.0000   1.0000   1.0000   1.0000   1.0000
     1.0000   1.0000   1.0000   1.0000   1.0000   1.0000   1.0000   1.0000
     1.0000   1.0000   1.0000   1.0000   1.0000   1.0000   1.0000   1.0000
     1.0000   1.0000   1.0000   1.0000   1.0000   1.0000   1.0000   1.0000
     1.0000   1.0000   1.0000   1.0000   1.0000   1.0000   1.0000   1.0000
     1.0000   1.0000   1.0000   1.0000   1.0000   1.0000   1.0000   1.0000
     1.0000   1.0000   1.0000   1.0000   1.0000   1.0000   1.0000   1.0000
     1.0000   1.0000   1.0000   1.0000   1.0000   1.0000   1.0000   1.0000
     1.0000   1.0000   1.0000   1.0000   1.0000   1.0000   1.0000   1.0000
     1.0000   1.0000   1.0000   1.0000   1.0000   1.0000   1.0000   1.0000
     1.0000   1.0000   1.0000   1.0000   1.0000   1.0000   1.0000   1.0000
     1.0000   1.0000   1.0000   1.0000   1.0000   0.0000   0.0000   0.0000
     0.0000   0.0000   0.0000   0.0000   0.0000   0.0000   0.0000   0.0000
     0.0000   0.0000   0.0000   0.0000   0.0000   0.0000   0.0000   0.0000
     0.0000   0.0000   0.0000   0.0000   0.0000   0.0000   0.0000   0.0000
     0.0000   0.0000   0.0000   0.0000   0.0000   0.0000   0.0000   0.0000
     0.0000   0.0000   0.0000   0.0000   0.0000   0.0000   0.0000   0.0000
     0.0000   0.0000   0.0000   0.0000   0.0000   0.0000   0.0000   0.0000
     0.0000   0.0000   0.0000   0.0000   0.0000   0.0000   0.0000   0.0000
     0.0000   0.0000   0.0000   0.0000   0.0000   0.0000   0.0000   0.0000
     0.0000   0.0000   0.0000   0.0000   0.0000   0.0000   0.0000   0.0000
     0.0000   0.0000   0.0000   0.0000   0.0000   0.0000   0.0000   0.0000
     0.0000   0.0000   0.0000   0.0000   0.0000   0.0000   0.0000   0.0000
     0.0000   0.0000   0.0000   0.0000   0.0000   0.0000   0.0000   0.0000
     0.0000   0.0000   0.0000   0.0000   0.0000   0.0000   0.0000   0.0000
     0.0000   0.0000   0.0000   0.0000   0.0000   0.0000   0.0000   0.0000
     0.0000   0.0000   0.0000   0.0000   0.0000   0.0000   0.0000   0.0000
     0.0000   0.0000   0.0000   0.0000   0.0000   0.0000   0.0000   0.0000
     0.0000   0.0000   0.0000   0.0000   0.0000   0.0000   0.0000   0.0000
     0.0000   0.0000   0.0000   0.0000   0.0000   0.0000   0.0000   0.0000
     0.0000   0.0000   0.0000   0.0000   0.0000   0.0000   0.0000   0.0000
     0.0000   0.0000   0.0000   0.0000   0.0000   0.0000   0.0000   0.0000
     0.0000   0.0000   0.0000   0.0000   0.0000   0.0000   0.0000   0.0000
     0.0000   0.0000   0.0000   0.0000   0.0000   0.0000   0.0000   0.0000
     0.0000   0.0000   0.0000   0.0000   0.0000   0.0000   0.0000   0.0000
     0.0000   0.0000   0.0000   0.0000   0.0000   0.0000   0.0000   0.0000
     0.0000   0.0000   0.0000   0.0000   0.0000   0.0000   0.0000   0.0000

 ------ SPIN DOWN ----------


          k = 0.0000 0.0000 0.0000 ( 52700 PWs)   bands (ev):

   -71.8512 -71.8485 -71.8485 -71.8485 -71.8472 -71.8472 -71.8188 -71.8176
   -71.8176 -71.8171 -71.8155 -71.8155 -71.8155 -71.8146 -71.8146 -71.8143
   -71.8136 -71.8136 -71.8136 -71.8131 -71.8131 -71.8131 -71.8129 -71.8129
   -71.8129 -71.8125 -71.8121 -71.8121 -71.8121 -71.8121 -71.8113 -71.8113
   -71.8113 -71.8111 -71.8111 -71.8104 -71.8101 -71.8101 -71.8101 -71.8100
   -71.8098 -71.8098 -71.8098 -71.8098 -71.8098 -71.8095 -71.8094 -71.8094
   -71.8094 -71.8092 -71.8092 -71.8092 -71.8092 -71.8092 -71.8092 -71.8089
   -71.8089 -71.8089 -71.8084 -71.8084 -71.8084 -71.8084 -71.8084 -71.8083
   -71.8083 -71.8082 -71.8082 -71.8082 -71.8081 -71.8081 -71.8081 -71.8078
   -71.8076 -71.8075 -71.8075 -71.8075 -71.8071 -71.8070 -71.8070 -71.8070
   -71.8069 -71.8069 -71.8066 -71.8066 -71.8066 -71.8066 -71.8066 -71.8059
   -71.8059 -71.8059 -71.8058 -71.8058 -71.8058 -71.8055 -71.8055 -71.8055
   -71.8053 -71.8053 -71.8053 -71.8049 -71.8049 -71.8049 -71.8042 -71.8042
   -71.8041 -71.8041 -71.8041 -71.8035 -34.8371 -34.8323 -34.8323 -34.8323
   -34.8294 -34.8294 -34.8294 -34.8230 -34.8230 -34.8230 -34.8219 -34.8219
   -34.8219 -34.8206 -34.8206 -34.8204 -34.8201 -34.8201 -34.8201 -34.8199
   -34.8199 -34.8199 -34.8187 -34.8187 -34.8175 -34.8175 -34.8175 -34.8111
   -34.8111 -34.8111 -34.8110 -34.8110 -34.8109 -34.8104 -34.8104 -34.8104
   -34.8098 -34.8098 -34.8098 -34.8077 -34.8077 -34.8077 -34.8060 -34.8037
   -34.8037 -34.8037 -34.8033 -34.8033 -34.8033 -34.8026 -34.8022 -34.8022
   -34.8022 -34.8017 -34.8017 -34.8017 -34.8014 -34.8012 -34.8012 -34.8012
   -34.8012 -34.8012 -34.8012 -34.8010 -34.8010 -34.8010 -34.8009 -34.8009
   -34.8009 -34.8009 -34.8009 -34.7982 -34.7982 -34.7980 -34.7980 -34.7980
   -34.7972 -34.7972 -34.7972 -34.7968 -34.7957 -34.7957 -34.7957 -34.7954
   -34.7954 -34.7954 -34.7948 -34.7945 -34.7945 -34.7933 -34.7933 -34.7933
   -34.7929 -34.7929 -34.7929 -34.7892 -34.7892 -34.7892 -34.7886 -34.7886
   -34.7885 -34.7861 -34.7861 -34.7861 -34.7820 -34.7820 -34.7811 -34.7811
   -34.7811 -34.7799 -34.7795 -34.7795 -34.7795 -34.7782 -34.7782 -34.7782
   -34.7776 -34.7776 -34.7776 -34.7772 -34.7772 -34.7772 -34.7743 -34.7743
   -34.7743 -34.7722 -34.7722 -34.7713 -34.7713 -34.7713 -34.7707 -34.7707
   -34.7707 -34.7700 -34.7700 -34.7700 -34.7657 -34.7657 -34.7657 -34.7651
   -34.7649 -34.7649 -34.7645 -34.7645 -34.7645 -34.7644 -34.7644 -34.7644
   -34.7642 -34.7642 -34.7642 -34.7641 -34.7641 -34.7641 -34.7638 -34.7632
   -34.7630 -34.7630 -34.7625 -34.7624 -34.7624 -34.7616 -34.7616 -34.7616
   -34.7610 -34.7610 -34.7610 -34.7603 -34.7603 -34.7589 -34.7589 -34.7589
   -34.7581 -34.7581 -34.7581 -34.7546 -34.7546 -34.7546 -34.7539 -34.7539
   -34.7539 -34.7538 -34.7538 -34.7538 -34.7517 -34.7517 -34.7517 -34.7515
   -34.7515 -34.7515 -34.7514 -34.7512 -34.7510 -34.7510 -34.7510 -34.7509
   -34.7509 -34.7509 -34.7509 -34.7509 -34.7509 -34.7502 -34.7502 -34.7502
   -34.7502 -34.7501 -34.7501 -34.7496 -34.7496 -34.7484 -34.7484 -34.7484
   -34.7481 -34.7481 -34.7477 -34.7477 -34.7477 -34.7475 -34.7475 -34.7475
   -34.7474 -34.7474 -34.7474 -34.7467 -34.7464 -34.7464 -34.7464 -34.7463
   -34.7463 -34.7463 -34.7462 -34.7462 -34.7462 -34.7462 -34.7462 -34.7461
   -34.7461 -34.7461 -34.7457 -34.7457 -34.7457 -34.7456 -34.7453 -34.7453
   -34.7453 -34.7448 -34.7448 -34.7448 -34.7447 -34.7447 -34.7445 -34.7444
   -34.7444 -34.7443 -34.7436 -34.7436 -34.7436 -34.7432 -34.7432 -34.7429
   -34.7429 -34.7429 -34.7428 -34.7428 -34.7428 -34.7424 -34.7424 -34.7424
   -34.7423 -34.7423 -34.7423 -34.7419 -34.7419 -34.7418 -34.7418 -34.7418
   -34.7414 -34.7414 -34.7414 -34.7409 -34.7398 -34.7390 -34.7390 -34.7390
   -34.7355 -34.7355 -34.7355 -34.7352 -34.7352 -34.7352 -34.7352 -34.7352
   -34.7352 -34.7348 -34.7348 -34.7341 -34.7341 -34.7341 -34.7337 -34.7337
   -34.7337 -34.7336 -34.7336 -34.7336 -34.7330 -34.7330 -34.7330 -34.7327
   -34.7327 -34.7310 -34.7310 -34.7310 -34.7301 -34.7301 -34.7292 -34.7292
   -34.7292 -34.7292 -34.7292 -34.7292 -34.7286 -34.7269 -34.7269 -34.7269
   -13.1677 -12.7653 -12.7653 -12.7611 -12.7611 -12.7611 -12.7197 -12.4165
   -12.4165 -12.4133 -12.4133 -12.4133 -12.4117 -12.4117 -12.4117 -12.4095
   -12.4095 -12.4095 -12.3361 -12.1392 -12.1392 -12.1392 -12.1379 -12.1379
   -12.1379 -12.1323 -12.0949 -11.9264 -11.9264 -11.9200 -11.9200 -11.9200
   -11.9013 -11.7566 -11.7566 -11.7559 -11.7550 -11.7550 -11.7545 -11.7545
   -11.7545 -11.7543 -11.7543 -11.7543 -11.7526 -11.7526 -11.7526 -11.7493
   -11.7493 -11.7493 -11.7475 -11.7475 -11.7475 -11.7469 -11.7469 -11.7469
   -11.7197 -11.6884 -11.6884 -11.6884 -11.6868 -11.6868 -11.6868 -11.6864
   -11.6864 -11.6829 -11.6829 -11.6829 -11.6815 -11.6815 -11.6815 -11.6808
   -11.6808 -11.6808 -11.6806 -11.6797 -11.6797 -11.6797 -11.6763 -11.6763
   -11.5690 -11.5157 -11.5157 -11.5115 -11.5108 -11.5108 -11.5108 -11.5107
   -11.5107 -11.5107 -11.5087 -11.5087 -11.5065 -11.5065 -11.5065 -11.4734
   -11.4562 -11.4562 -11.4537 -11.4520 -11.4520 -11.4517 -11.4517 -11.4517
   -11.4506 -11.4506 -11.4506   1.8718   1.9090   1.9090   1.9111   1.9111
     1.9111   1.9126   1.9126   1.9126   1.9132   1.9132   1.9132   1.9138
     1.9138   1.9138   1.9144   1.9144   1.9162   1.9162   1.9162   1.9231
     1.9839   1.9839   1.9839   2.0572   2.0572   2.0572   2.3068   2.4871
     2.4871   2.4871   2.4898   2.4999   2.4999   2.4999   2.5419   2.5950
     2.5950   2.5950   2.5974   2.5974   2.5974   2.6010   2.6010   2.6010
     2.6047   2.6047   2.6047   2.6202   2.6213   2.6213   2.6213   2.6214
     2.6214   2.6214   2.6221   2.6221   2.6227   2.6227   2.6249   2.6249
     2.6249   2.6251   2.6251   2.6251   2.6276   2.6276   2.6276   2.7136
     2.7136   2.7136   2.7224   2.7453   2.7453   2.8316   2.8316   2.8316
     2.9625   2.9674   2.9674   2.9674   2.9732   2.9732   2.9732   2.9736
     2.9736   3.0470   3.0470   3.0470   3.1468   3.1468   3.1468   3.1486
     3.1486   3.1504   3.1504   3.1504   3.1538   3.3167   3.3167   3.3167
     3.5192   3.6754   3.6754   3.6779   3.6779   3.6779   3.6792   3.6792
     3.6792   3.7590   3.7590   3.7590   4.0585   4.0585   4.0585   4.0601
     4.0601   4.0601   4.0701   4.0701   4.0701   4.1314   4.1314   4.1314
     4.4923   4.4923   4.4923   4.4933   4.4933   4.4933   4.4939   4.4939
     4.4942   4.4942   4.4942   4.4947   4.4947   4.4947   4.4983   4.5018
     4.5018   4.5070   4.5070   4.5070   4.5081   4.5724   4.5724   4.5724
     4.6749   4.6796   4.6796   4.6805   4.6807   4.6807   4.6807   4.6945
     4.6945   4.7414   4.7414   4.7414   4.7500   4.8619   4.8619   4.8730
     4.8730   4.8730   4.9252   4.9467   4.9467   4.9467   4.9468   4.9468
     4.9472   4.9472   4.9472   4.9474   4.9474   4.9474   4.9499   4.9502
     4.9502   4.9502   4.9505   4.9505   4.9554   4.9554   4.9554   5.0103
     5.0103   5.0103   5.0340   5.0340   5.0340   5.1246   5.1246   5.1246
     5.3701   5.3701   5.3701   5.3701   5.3701   5.3701   5.3732   5.3732
     5.3732   5.3753   5.3753   5.3753   5.3925   5.3953   5.3953   5.3953
     5.3962   5.3972   5.3972   5.3982   5.3982   5.3982   5.4023   5.4023
     5.4023   5.4027   5.4027   5.4027   5.4076   5.4076   5.4076   5.4099
     5.4099   5.4110   5.4110   5.4110   5.4114   5.4159   5.4159   5.4159
     5.4182   5.4182   5.4185   5.4185   5.4185   5.4769   5.4769   5.4769
     5.5078   5.5078   5.5078   5.5126   5.5126   5.5173   5.5173   5.5173
     5.5222   5.5504   5.5504   5.5504   5.5874   5.5899   5.5899   5.5908
     5.5908   5.5908   5.5928   5.5928   5.5933   5.5933   5.5933   5.5953
     5.5953   5.5953   5.5959   5.5959   5.5959   5.5968   5.5970   5.5970
     5.5970   5.8949   5.8949   5.8949   5.9802   5.9802   5.9813   5.9813
     5.9813   5.9876   5.9876   5.9883   5.9883   5.9883   5.9887   5.9887
     5.9887   6.0753   6.0753   6.0753   6.1269   6.1269   6.1269   6.1270
     6.1270   6.1270   6.1336   6.1336   6.1336   6.1677   6.1677   6.1677
     6.1891   6.1899   6.1899   6.1899   6.1912   6.1912   6.1912   6.1918
     6.1918   6.5641   6.5641   6.5641  10.1404  15.1744  16.6253  16.6253
    16.6253  17.0993  17.0993  17.3234  17.4531  17.4531  17.4531  18.1526
    18.1545  18.1545  18.1545  18.1697  18.1697  18.1697  18.1941  18.2672
    18.2672  18.2700  18.2700  18.2700  18.2715  18.2715  18.2715  18.7110
    18.7110  18.7110  18.8671  19.3495  19.3495  19.3495  19.5082  19.5082
    19.5082  19.5107  19.5107  19.5118  19.5118  19.5118  19.5124  19.5124
    19.5124  19.5140  19.5153  19.5153  19.5153  19.5177  19.5177  19.5305
    19.5305  19.5305  19.7014  19.7014  19.7014  19.9070  20.0545  20.0545
    20.1501  20.1501  20.1501  20.3139  20.3139  20.3207  20.3340  20.3340
    20.3340  20.3510  20.6903  20.6903  20.6920  20.8104  20.8104  20.8207
    20.8207  20.8207  20.8213  20.8214  20.8214  20.8214  20.8221  20.8221
    20.8221  20.8243  20.8243  20.8243  20.8289  20.8289  20.8296  20.8296
    20.8296  20.8764  20.8791  20.8791  20.8791  20.8802  20.8802  20.8802
    20.8988  20.8988  20.8988  20.9034  20.9034  20.9893  20.9893  20.9893
    21.0338  21.0338  21.0338  21.0367  21.0367  21.0367  21.0527  21.0527
    21.0527  21.3330  21.3330  21.3330  21.5874  21.5954  21.5954  21.5992
    21.5992  21.5992  21.6003  21.6060  21.6060  21.6060  21.6071  21.6071
    21.6071  21.6077  21.6077  21.6077  21.6109  21.6109  21.6567  21.6567
    21.6567  21.9761  21.9761  21.9761  22.1904  22.2889  22.2889  22.2916
    22.2916  22.2916  22.2988  22.3116  22.3116  22.3779  22.3779  22.3779
    22.7913  22.7916  22.7916  22.7916  22.7922  22.7922  22.8174  22.8174
    22.8174  22.8331  22.8331  22.8331  23.1138  23.1138  23.1138  23.1138
    23.1277  23.1277  23.1325  23.1325  23.1325  23.1452  23.1452  23.1452
    23.1651  23.1651  23.1753  23.1835  23.1835  23.1835  23.2066  23.2144
    23.2401  23.2401  23.2401  23.2422  23.2422  23.2422  23.2435  23.2441
    23.2441  23.2450  23.2450  23.2450  23.2466  23.2471  23.2471  23.2487

     occupation numbers 
     1.0000   1.0000   1.0000   1.0000   1.0000   1.0000   1.0000   1.0000
     1.0000   1.0000   1.0000   1.0000   1.0000   1.0000   1.0000   1.0000
     1.0000   1.0000   1.0000   1.0000   1.0000   1.0000   1.0000   1.0000
     1.0000   1.0000   1.0000   1.0000   1.0000   1.0000   1.0000   1.0000
     1.0000   1.0000   1.0000   1.0000   1.0000   1.0000   1.0000   1.0000
     1.0000   1.0000   1.0000   1.0000   1.0000   1.0000   1.0000   1.0000
     1.0000   1.0000   1.0000   1.0000   1.0000   1.0000   1.0000   1.0000
     1.0000   1.0000   1.0000   1.0000   1.0000   1.0000   1.0000   1.0000
     1.0000   1.0000   1.0000   1.0000   1.0000   1.0000   1.0000   1.0000
     1.0000   1.0000   1.0000   1.0000   1.0000   1.0000   1.0000   1.0000
     1.0000   1.0000   1.0000   1.0000   1.0000   1.0000   1.0000   1.0000
     1.0000   1.0000   1.0000   1.0000   1.0000   1.0000   1.0000   1.0000
     1.0000   1.0000   1.0000   1.0000   1.0000   1.0000   1.0000   1.0000
     1.0000   1.0000   1.0000   1.0000   1.0000   1.0000   1.0000   1.0000
     1.0000   1.0000   1.0000   1.0000   1.0000   1.0000   1.0000   1.0000
     1.0000   1.0000   1.0000   1.0000   1.0000   1.0000   1.0000   1.0000
     1.0000   1.0000   1.0000   1.0000   1.0000   1.0000   1.0000   1.0000
     1.0000   1.0000   1.0000   1.0000   1.0000   1.0000   1.0000   1.0000
     1.0000   1.0000   1.0000   1.0000   1.0000   1.0000   1.0000   1.0000
     1.0000   1.0000   1.0000   1.0000   1.0000   1.0000   1.0000   1.0000
     1.0000   1.0000   1.0000   1.0000   1.0000   1.0000   1.0000   1.0000
     1.0000   1.0000   1.0000   1.0000   1.0000   1.0000   1.0000   1.0000
     1.0000   1.0000   1.0000   1.0000   1.0000   1.0000   1.0000   1.0000
     1.0000   1.0000   1.0000   1.0000   1.0000   1.0000   1.0000   1.0000
     1.0000   1.0000   1.0000   1.0000   1.0000   1.0000   1.0000   1.0000
     1.0000   1.0000   1.0000   1.0000   1.0000   1.0000   1.0000   1.0000
     1.0000   1.0000   1.0000   1.0000   1.0000   1.0000   1.0000   1.0000
     1.0000   1.0000   1.0000   1.0000   1.0000   1.0000   1.0000   1.0000
     1.0000   1.0000   1.0000   1.0000   1.0000   1.0000   1.0000   1.0000
     1.0000   1.0000   1.0000   1.0000   1.0000   1.0000   1.0000   1.0000
     1.0000   1.0000   1.0000   1.0000   1.0000   1.0000   1.0000   1.0000
     1.0000   1.0000   1.0000   1.0000   1.0000   1.0000   1.0000   1.0000
     1.0000   1.0000   1.0000   1.0000   1.0000   1.0000   1.0000   1.0000
     1.0000   1.0000   1.0000   1.0000   1.0000   1.0000   1.0000   1.0000
     1.0000   1.0000   1.0000   1.0000   1.0000   1.0000   1.0000   1.0000
     1.0000   1.0000   1.0000   1.0000   1.0000   1.0000   1.0000   1.0000
     1.0000   1.0000   1.0000   1.0000   1.0000   1.0000   1.0000   1.0000
     1.0000   1.0000   1.0000   1.0000   1.0000   1.0000   1.0000   1.0000
     1.0000   1.0000   1.0000   1.0000   1.0000   1.0000   1.0000   1.0000
     1.0000   1.0000   1.0000   1.0000   1.0000   1.0000   1.0000   1.0000
     1.0000   1.0000   1.0000   1.0000   1.0000   1.0000   1.0000   1.0000
     1.0000   1.0000   1.0000   1.0000   1.0000   1.0000   1.0000   1.0000
     1.0000   1.0000   1.0000   1.0000   1.0000   1.0000   1.0000   1.0000
     1.0000   1.0000   1.0000   1.0000   1.0000   1.0000   1.0000   1.0000
     1.0000   1.0000   1.0000   1.0000   1.0000   1.0000   1.0000   1.0000
     1.0000   1.0000   1.0000   1.0000   1.0000   1.0000   1.0000   1.0000
     1.0000   1.0000   1.0000   1.0000   1.0000   1.0000   1.0000   1.0000
     1.0000   1.0000   1.0000   1.0000   1.0000   1.0000   1.0000   1.0000
     1.0000   1.0000   1.0000   1.0000   1.0000   1.0000   1.0000   1.0000
     1.0000   1.0000   1.0000   1.0000   1.0000   1.0000   1.0000   1.0000
     1.0000   1.0000   1.0000   1.0000   1.0000   1.0000   1.0000   1.0000
     1.0000   1.0000   1.0000   1.0000   1.0000   1.0000   1.0000   1.0000
     1.0000   1.0000   1.0000   1.0000   1.0000   1.0000   1.0000   1.0000
     1.0000   1.0000   1.0000   1.0000   1.0000   1.0000   1.0000   1.0000
     1.0000   1.0000   1.0000   1.0000   1.0000   1.0000   1.0000   1.0000
     1.0000   1.0000   1.0000   1.0000   1.0000   1.0000   1.0000   1.0000
     1.0000   1.0000   1.0000   1.0000   1.0000   1.0000   1.0000   1.0000
     1.0000   1.0000   1.0000   1.0000   1.0000   1.0000   1.0000   1.0000
     1.0000   1.0000   1.0000   1.0000   1.0000   1.0000   1.0000   1.0000
     1.0000   1.0000   1.0000   1.0000   1.0000   1.0000   1.0000   1.0000
     1.0000   1.0000   1.0000   1.0000   1.0000   1.0000   1.0000   1.0000
     1.0000   1.0000   1.0000   1.0000   1.0000   1.0000   1.0000   1.0000
     1.0000   1.0000   1.0000   1.0000   1.0000   1.0000   1.0000   1.0000
     1.0000   1.0000   1.0000   1.0000   1.0000   1.0000   1.0000   1.0000
     1.0000   1.0000   1.0000   1.0000   1.0000   1.0000   1.0000   1.0000
     1.0000   1.0000   1.0000   1.0000   1.0000   1.0000   1.0000   1.0000
     1.0000   1.0000   1.0000   1.0000   1.0000   1.0000   1.0000   1.0000
     1.0000   1.0000   1.0000   1.0000   1.0000   1.0000   1.0000   1.0000
     1.0000   1.0000   1.0000   1.0000   1.0000   1.0000   1.0000   1.0000
     1.0000   1.0000   1.0000   1.0000   1.0000   1.0000   1.0000   1.0000
     1.0000   1.0000   1.0000   1.0000   1.0000   1.0000   1.0000   1.0000
     1.0000   1.0000   1.0000   1.0000   1.0000   1.0000   1.0000   1.0000
     1.0000   1.0000   1.0000   1.0000   1.0000   1.0000   1.0000   1.0000
     1.0000   1.0000   1.0000   1.0000   1.0000   1.0000   1.0000   1.0000
     1.0000   1.0000   1.0000   1.0000   1.0000   1.0000   1.0000   1.0000
     1.0000   1.0000   1.0000   1.0000   1.0000   1.0000   1.0000   1.0000
     1.0000   1.0000   1.0000   1.0000   1.0000   1.0000   1.0000   1.0000
     1.0000   1.0000   1.0000   1.0000   1.0000   1.0000   1.0000   1.0000
     1.0000   1.0000   1.0000   1.0000   1.0000   1.0000   1.0000   1.0000
     1.0000   1.0000   1.0000   1.0000   1.0000   1.0000   1.0000   1.0000
     1.0000   1.0000   1.0000   1.0000   1.0000   1.0000   1.0000   1.0000
     1.0000   1.0000   1.0000   1.0000   1.0000   1.0000   1.0000   1.0000
     1.0000   1.0000   1.0000   1.0000   1.0000   1.0000   1.0000   1.0000
     1.0000   1.0000   1.0000   1.0000   1.0000   1.0000   1.0000   1.0000
     1.0000   1.0000   1.0000   1.0000   1.0000   1.0000   1.0000   1.0000
     1.0000   1.0000   1.0000   1.0000   1.0000   1.0000   1.0000   1.0000
     1.0000   1.0000   1.0000   1.0000   1.0000   1.0000   1.0000   1.0000
     1.0000   1.0000   1.0000   1.0000   1.0000   1.0000   1.0000   1.0000
     1.0000   1.0000   1.0000   1.0000   1.0000   1.0000   1.0000   1.0000
     1.0000   1.0000   1.0000   1.0000   1.0000   1.0000   1.0000   1.0000
     1.0000   1.0000   1.0000   1.0000   1.0000   1.0000   1.0000   1.0000
     1.0000   1.0000   1.0000   1.0000   1.0000   1.0000   1.0000   1.0000
     1.0000   1.0000   1.0000   1.0000   1.0000   1.0000   1.0000   1.0000
     1.0000   1.0000   1.0000   1.0000   1.0000   1.0000   1.0000   1.0000
     1.0000   1.0000   1.0000   1.0000   1.0000   1.0000   1.0000   1.0000
     1.0000   1.0000   1.0000   1.0000   1.0000   1.0000   1.0000   1.0000
     1.0000   1.0000   1.0000   1.0000   1.0000   1.0000   1.0000   1.0000
     1.0000   1.0000   1.0000   1.0000   1.0000   1.0000   1.0000   1.0000
     1.0000   1.0000   1.0000   1.0000   1.0000   1.0000   1.0000   1.0000
     1.0000   1.0000   1.0000   1.0000   1.0000   1.0000   1.0000   1.0000
     1.0000   1.0000   1.0000   1.0000   1.0000   1.0000   1.0000   1.0000
     1.0000   1.0000   1.0000   1.0000   1.0000   1.0000   1.0000   1.0000
     1.0000   1.0000   1.0000   1.0000   1.0000   1.0000   1.0000   1.0000
     1.0000   1.0000   1.0000   1.0000   1.0000   1.0000   1.0000   1.0000
     1.0000   1.0000   1.0000   1.0000   1.0000   1.0000   1.0000   1.0000
     1.0000   1.0000   1.0000   1.0000   1.0000   1.0000   1.0000   1.0000
     1.0000   1.0000   1.0000   1.0000   1.0000   1.0000   1.0000   1.0000
     1.0000   1.0000   1.0000   1.0000   1.0000   0.0000   0.0000   0.0000
     0.0000   0.0000   0.0000   0.0000   0.0000   0.0000   0.0000   0.0000
     0.0000   0.0000   0.0000   0.0000   0.0000   0.0000   0.0000   0.0000
     0.0000   0.0000   0.0000   0.0000   0.0000   0.0000   0.0000   0.0000
     0.0000   0.0000   0.0000   0.0000   0.0000   0.0000   0.0000   0.0000
     0.0000   0.0000   0.0000   0.0000   0.0000   0.0000   0.0000   0.0000
     0.0000   0.0000   0.0000   0.0000   0.0000   0.0000   0.0000   0.0000
     0.0000   0.0000   0.0000   0.0000   0.0000   0.0000   0.0000   0.0000
     0.0000   0.0000   0.0000   0.0000   0.0000   0.0000   0.0000   0.0000
     0.0000   0.0000   0.0000   0.0000   0.0000   0.0000   0.0000   0.0000
     0.0000   0.0000   0.0000   0.0000   0.0000   0.0000   0.0000   0.0000
     0.0000   0.0000   0.0000   0.0000   0.0000   0.0000   0.0000   0.0000
     0.0000   0.0000   0.0000   0.0000   0.0000   0.0000   0.0000   0.0000
     0.0000   0.0000   0.0000   0.0000   0.0000   0.0000   0.0000   0.0000
     0.0000   0.0000   0.0000   0.0000   0.0000   0.0000   0.0000   0.0000
     0.0000   0.0000   0.0000   0.0000   0.0000   0.0000   0.0000   0.0000
     0.0000   0.0000   0.0000   0.0000   0.0000   0.0000   0.0000   0.0000
     0.0000   0.0000   0.0000   0.0000   0.0000   0.0000   0.0000   0.0000
     0.0000   0.0000   0.0000   0.0000   0.0000   0.0000   0.0000   0.0000
     0.0000   0.0000   0.0000   0.0000   0.0000   0.0000   0.0000   0.0000
     0.0000   0.0000   0.0000   0.0000   0.0000   0.0000   0.0000   0.0000
     0.0000   0.0000   0.0000   0.0000   0.0000   0.0000   0.0000   0.0000
     0.0000   0.0000   0.0000   0.0000   0.0000   0.0000   0.0000   0.0000
     0.0000   0.0000   0.0000   0.0000   0.0000   0.0000   0.0000   0.0000
     0.0000   0.0000   0.0000   0.0000   0.0000   0.0000   0.0000   0.0000
     0.0000   0.0000   0.0000   0.0000   0.0000   0.0000   0.0000   0.0000

     highest occupied, lowest unoccupied level (ev):    10.1404   15.1744

!    total energy              =  -15183.33624706 Ry
     Harris-Foulkes estimate   =  -15183.33624707 Ry
     estimated scf accuracy    <       0.00000001 Ry

     total magnetization       =    -0.00 Bohr mag/cell
     absolute magnetization    =     0.00 Bohr mag/cell

     convergence has been achieved in   2 iterations

!!   total energy              =  -15183.33624711 Ry
     Harris-Foulkes estimate   =  -15183.33624712 Ry
     est. exchange err (dexx)  =       0.00000004 Ry
     - averaged Fock potential =    1553.90085677 Ry
     + Fock energy             =    -776.95122896 Ry

     EXX self-consistency reached

     Forces acting on atoms (cartesian axes, Ry/au):

     atom    1 type  1   force =     0.00000000    0.00000000    0.00000000
     atom    2 type  1   force =     0.00000000    0.00000000    0.00005247
     atom    3 type  1   force =     0.00000000    0.00000000   -0.00005247
     atom    4 type  1   force =     0.00000000    0.00005247    0.00000000
     atom    5 type  1   force =     0.00000000    0.00007679    0.00007679
     atom    6 type  1   force =     0.00000000    0.00007679   -0.00007679
     atom    7 type  1   force =     0.00000000   -0.00005247   -0.00000000
     atom    8 type  1   force =     0.00000000   -0.00007679    0.00007679
     atom    9 type  1   force =    -0.00000000   -0.00007679   -0.00007679
     atom   10 type  1   force =     0.00005247    0.00000000    0.00000000
     atom   11 type  1   force =     0.00007679    0.00000000    0.00007679
     atom   12 type  1   force =     0.00007679    0.00000000   -0.00007679
     atom   13 type  1   force =     0.00007679    0.00007679    0.00000000
     atom   14 type  1   force =     0.00002332    0.00002332    0.00002332
     atom   15 type  1   force =     0.00002332    0.00002332   -0.00002332
     atom   16 type  1   force =     0.00007679   -0.00007679    0.00000000
     atom   17 type  1   force =     0.00002332   -0.00002332    0.00002332
     atom   18 type  1   force =     0.00002332   -0.00002332   -0.00002332
     atom   19 type  1   force =    -0.00005247    0.00000000   -0.00000000
     atom   20 type  1   force =    -0.00007679   -0.00000000    0.00007679
     atom   21 type  1   force =    -0.00007679    0.00000000   -0.00007679
     atom   22 type  1   force =    -0.00007679    0.00007679   -0.00000000
     atom   23 type  1   force =    -0.00002332    0.00002332    0.00002332
     atom   24 type  1   force =    -0.00002332    0.00002332   -0.00002332
     atom   25 type  1   force =    -0.00007679   -0.00007679    0.00000000
     atom   26 type  1   force =    -0.00002332   -0.00002332    0.00002332
     atom   27 type  1   force =    -0.00002332   -0.00002332   -0.00002332
     atom   28 type  1   force =     0.00000000    0.00003160    0.00003160
     atom   29 type  1   force =     0.00000000    0.00010941    0.00000000
     atom   30 type  1   force =    -0.00000000    0.00003160   -0.00003160
     atom   31 type  1   force =     0.00000000    0.00000000    0.00010941
     atom   32 type  1   force =     0.00000000   -0.00000000    0.00000000
     atom   33 type  1   force =     0.00000000    0.00000000   -0.00010941
     atom   34 type  1   force =    -0.00000000   -0.00003160    0.00003160
     atom   35 type  1   force =    -0.00000000   -0.00010941   -0.00000000
     atom   36 type  1   force =     0.00000000   -0.00003160   -0.00003160
     atom   37 type  1   force =     0.00002555    0.00002409    0.00002409
     atom   38 type  1   force =     0.00020093    0.00013931   -0.00000000
     atom   39 type  1   force =     0.00002555    0.00002409   -0.00002409
     atom   40 type  1   force =     0.00020093   -0.00000000    0.00013931
     atom   41 type  1   force =     0.00001547    0.00000000   -0.00000000
     atom   42 type  1   force =     0.00020093    0.00000000   -0.00013931
     atom   43 type  1   force =     0.00002555   -0.00002409    0.00002409
     atom   44 type  1   force =     0.00020093   -0.00013931    0.00000000
     atom   45 type  1   force =     0.00002555   -0.00002409   -0.00002409
     atom   46 type  1   force =    -0.00002555    0.00002409    0.00002409
     atom   47 type  1   force =    -0.00020093    0.00013931    0.00000000
     atom   48 type  1   force =    -0.00002555    0.00002409   -0.00002409
     atom   49 type  1   force =    -0.00020093    0.00000000    0.00013931
     atom   50 type  1   force =    -0.00001547    0.00000000    0.00000000
     atom   51 type  1   force =    -0.00020093   -0.00000000   -0.00013931
     atom   52 type  1   force =    -0.00002555   -0.00002409    0.00002409
     atom   53 type  1   force =    -0.00020093   -0.00013931   -0.00000000
     atom   54 type  1   force =    -0.00002555   -0.00002409   -0.00002409
     atom   55 type  1   force =     0.00003160   -0.00000000    0.00003160
     atom   56 type  1   force =     0.00010941   -0.00000000    0.00000000
     atom   57 type  1   force =     0.00003160   -0.00000000   -0.00003160
     atom   58 type  1   force =     0.00002409    0.00002555    0.00002409
     atom   59 type  1   force =     0.00013931    0.00020093    0.00000000
     atom   60 type  1   force =     0.00002409    0.00002555   -0.00002409
     atom   61 type  1   force =     0.00002409   -0.00002555    0.00002409
     atom   62 type  1   force =     0.00013931   -0.00020093    0.00000000
     atom   63 type  1   force =     0.00002409   -0.00002555   -0.00002409
     atom   64 type  1   force =     0.00000000    0.00000000    0.00010941
     atom   65 type  1   force =     0.00000000    0.00000000    0.00000000
     atom   66 type  1   force =    -0.00000000    0.00000000   -0.00010941
     atom   67 type  1   force =    -0.00000000    0.00020093    0.00013931
     atom   68 type  1   force =     0.00000000    0.00001547    0.00000000
     atom   69 type  1   force =    -0.00000000    0.00020093   -0.00013931
     atom   70 type  1   force =     0.00000000   -0.00020093    0.00013931
     atom   71 type  1   force =     0.00000000   -0.00001547    0.00000000
     atom   72 type  1   force =    -0.00000000   -0.00020093   -0.00013931
     atom   73 type  1   force =    -0.00003160   -0.00000000    0.00003160
     atom   74 type  1   force =    -0.00010941    0.00000000    0.00000000
     atom   75 type  1   force =    -0.00003160    0.00000000   -0.00003160
     atom   76 type  1   force =    -0.00002409    0.00002555    0.00002409
     atom   77 type  1   force =    -0.00013931    0.00020093    0.00000000
     atom   78 type  1   force =    -0.00002409    0.00002555   -0.00002409
     atom   79 type  1   force =    -0.00002409   -0.00002555    0.00002409
     atom   80 type  1   force =    -0.00013931   -0.00020093    0.00000000
     atom   81 type  1   force =    -0.00002409   -0.00002555   -0.00002409
     atom   82 type  1   force =     0.00003160    0.00003160   -0.00000000
     atom   83 type  1   force =     0.00002409    0.00002409    0.00002555
     atom   84 type  1   force =     0.00002409    0.00002409   -0.00002555
     atom   85 type  1   force =     0.00010941    0.00000000   -0.00000000
     atom   86 type  1   force =     0.00013931    0.00000000    0.00020093
     atom   87 type  1   force =     0.00013931    0.00000000   -0.00020093
     atom   88 type  1   force =     0.00003160   -0.00003160    0.00000000
     atom   89 type  1   force =     0.00002409   -0.00002409    0.00002555
     atom   90 type  1   force =     0.00002409   -0.00002409   -0.00002555
     atom   91 type  1   force =     0.00000000    0.00010941    0.00000000
     atom   92 type  1   force =     0.00000000    0.00013931    0.00020093
     atom   93 type  1   force =     0.00000000    0.00013931   -0.00020093
     atom   94 type  1   force =     0.00000000    0.00000000    0.00000000
     atom   95 type  1   force =     0.00000000    0.00000000    0.00001547
     atom   96 type  1   force =     0.00000000    0.00000000   -0.00001547
     atom   97 type  1   force =    -0.00000000   -0.00010941    0.00000000
     atom   98 type  1   force =     0.00000000   -0.00013931    0.00020093
     atom   99 type  1   force =    -0.00000000   -0.00013931   -0.00020093
     atom  100 type  1   force =    -0.00003160    0.00003160    0.00000000
     atom  101 type  1   force =    -0.00002409    0.00002409    0.00002555
     atom  102 type  1   force =    -0.00002409    0.00002409   -0.00002555
     atom  103 type  1   force =    -0.00010941    0.00000000   -0.00000000
     atom  104 type  1   force =    -0.00013931    0.00000000    0.00020093
     atom  105 type  1   force =    -0.00013931    0.00000000   -0.00020093
     atom  106 type  1   force =    -0.00003160   -0.00003160   -0.00000000
     atom  107 type  1   force =    -0.00002409   -0.00002409    0.00002555
     atom  108 type  1   force =    -0.00002409   -0.00002409   -0.00002555
     atom  109 type  2   force =     0.00000000    0.00001755    0.00000000
     atom  110 type  2   force =    -0.00000000    0.00004175    0.00002343
     atom  111 type  2   force =     0.00000000    0.00004175   -0.00002343
     atom  112 type  2   force =     0.00000000    0.00000000    0.00000000
     atom  113 type  2   force =     0.00000000    0.00000000    0.00008631
     atom  114 type  2   force =     0.00000000   -0.00000000   -0.00008631
     atom  115 type  2   force =     0.00000000   -0.00001755    0.00000000
     atom  116 type  2   force =     0.00000000   -0.00004175    0.00002343
     atom  117 type  2   force =    -0.00000000   -0.00004175   -0.00002343
     atom  118 type  2   force =     0.00002343    0.00004175    0.00000000
     atom  119 type  2   force =     0.00007868    0.00008872    0.00007868
     atom  120 type  2   force =     0.00007868    0.00008872   -0.00007868
     atom  121 type  2   force =     0.00008631    0.00000000    0.00000000
     atom  122 type  2   force =     0.00035565   -0.00000000    0.00035565
     atom  123 type  2   force =     0.00035565    0.00000000   -0.00035565
     atom  124 type  2   force =     0.00002343   -0.00004175   -0.00000000
     atom  125 type  2   force =     0.00007868   -0.00008872    0.00007868
     atom  126 type  2   force =     0.00007868   -0.00008872   -0.00007868
     atom  127 type  2   force =    -0.00002343    0.00004175    0.00000000
     atom  128 type  2   force =    -0.00007868    0.00008872    0.00007868
     atom  129 type  2   force =    -0.00007868    0.00008872   -0.00007868
     atom  130 type  2   force =    -0.00008631   -0.00000000    0.00000000
     atom  131 type  2   force =    -0.00035565   -0.00000000    0.00035565
     atom  132 type  2   force =    -0.00035565    0.00000000   -0.00035565
     atom  133 type  2   force =    -0.00002343   -0.00004175    0.00000000
     atom  134 type  2   force =    -0.00007868   -0.00008872    0.00007868
     atom  135 type  2   force =    -0.00007868   -0.00008872   -0.00007868
     atom  136 type  2   force =    -0.00000000    0.00000000    0.00001755
     atom  137 type  2   force =     0.00000000    0.00000000   -0.00000000
     atom  138 type  2   force =     0.00000000    0.00000000   -0.00001755
     atom  139 type  2   force =     0.00000000    0.00002343    0.00004175
     atom  140 type  2   force =    -0.00000000    0.00008631    0.00000000
     atom  141 type  2   force =     0.00000000    0.00002343   -0.00004175
     atom  142 type  2   force =    -0.00000000   -0.00002343    0.00004175
     atom  143 type  2   force =     0.00000000   -0.00008631    0.00000000
     atom  144 type  2   force =     0.00000000   -0.00002343   -0.00004175
     atom  145 type  2   force =     0.00002343   -0.00000000    0.00004175
     atom  146 type  2   force =     0.00008631   -0.00000000   -0.00000000
     atom  147 type  2   force =     0.00002343    0.00000000   -0.00004175
     atom  148 type  2   force =     0.00007868    0.00007868    0.00008872
     atom  149 type  2   force =     0.00035565    0.00035565   -0.00000000
     atom  150 type  2   force =     0.00007868    0.00007868   -0.00008872
     atom  151 type  2   force =     0.00007868   -0.00007868    0.00008872
     atom  152 type  2   force =     0.00035565   -0.00035565   -0.00000000
     atom  153 type  2   force =     0.00007868   -0.00007868   -0.00008872
     atom  154 type  2   force =    -0.00002343   -0.00000000    0.00004175
     atom  155 type  2   force =    -0.00008631    0.00000000    0.00000000
     atom  156 type  2   force =    -0.00002343    0.00000000   -0.00004175
     atom  157 type  2   force =    -0.00007868    0.00007868    0.00008872
     atom  158 type  2   force =    -0.00035565    0.00035565   -0.00000000
     atom  159 type  2   force =    -0.00007868    0.00007868   -0.00008872
     atom  160 type  2   force =    -0.00007868   -0.00007868    0.00008872
     atom  161 type  2   force =    -0.00035565   -0.00035565    0.00000000
     atom  162 type  2   force =    -0.00007868   -0.00007868   -0.00008872
     atom  163 type  2   force =     0.00002152    0.00002152    0.00002152
     atom  164 type  2   force =     0.00007720    0.00007720    0.00000000
     atom  165 type  2   force =     0.00002152    0.00002152   -0.00002152
     atom  166 type  2   force =     0.00007720   -0.00000000    0.00007720
     atom  167 type  2   force =     0.00013691   -0.00000000    0.00000000
     atom  168 type  2   force =     0.00007720    0.00000000   -0.00007720
     atom  169 type  2   force =     0.00002152   -0.00002152    0.00002152
     atom  170 type  2   force =     0.00007720   -0.00007720    0.00000000
     atom  171 type  2   force =     0.00002152   -0.00002152   -0.00002152
     atom  172 type  2   force =     0.00000000    0.00007720    0.00007720
     atom  173 type  2   force =     0.00000000    0.00013691    0.00000000
     atom  174 type  2   force =    -0.00000000    0.00007720   -0.00007720
     atom  175 type  2   force =     0.00000000    0.00000000    0.00013691
     atom  176 type  2   force =     0.00000000    0.00000000   -0.00013691
     atom  177 type  2   force =    -0.00000000   -0.00007720    0.00007720
     atom  178 type  2   force =     0.00000000   -0.00013691    0.00000000
     atom  179 type  2   force =     0.00000000   -0.00007720   -0.00007720
     atom  180 type  2   force =    -0.00002152    0.00002152    0.00002152
     atom  181 type  2   force =    -0.00007720    0.00007720   -0.00000000
     atom  182 type  2   force =    -0.00002152    0.00002152   -0.00002152
     atom  183 type  2   force =    -0.00007720    0.00000000    0.00007720
     atom  184 type  2   force =    -0.00013691    0.00000000    0.00000000
     atom  185 type  2   force =    -0.00007720   -0.00000000   -0.00007720
     atom  186 type  2   force =    -0.00002152   -0.00002152    0.00002152
     atom  187 type  2   force =    -0.00007720   -0.00007720    0.00000000
     atom  188 type  2   force =    -0.00002152   -0.00002152   -0.00002152
     atom  189 type  2   force =     0.00001755   -0.00000000    0.00000000
     atom  190 type  2   force =     0.00004175    0.00000000    0.00002343
     atom  191 type  2   force =     0.00004175    0.00000000   -0.00002343
     atom  192 type  2   force =     0.00004175    0.00002343   -0.00000000
     atom  193 type  2   force =     0.00008872    0.00007868    0.00007868
     atom  194 type  2   force =     0.00008872    0.00007868   -0.00007868
     atom  195 type  2   force =     0.00004175   -0.00002343   -0.00000000
     atom  196 type  2   force =     0.00008872   -0.00007868    0.00007868
     atom  197 type  2   force =     0.00008872   -0.00007868   -0.00007868
     atom  198 type  2   force =     0.00000000    0.00000000    0.00000000
     atom  199 type  2   force =     0.00000000    0.00000000    0.00008631
     atom  200 type  2   force =     0.00000000    0.00000000   -0.00008631
     atom  201 type  2   force =    -0.00000000    0.00008631    0.00000000
     atom  202 type  2   force =     0.00000000    0.00035565    0.00035565
     atom  203 type  2   force =     0.00000000    0.00035565   -0.00035565
     atom  204 type  2   force =     0.00000000   -0.00008631    0.00000000
     atom  205 type  2   force =     0.00000000   -0.00035565    0.00035565
     atom  206 type  2   force =     0.00000000   -0.00035565   -0.00035565
     atom  207 type  2   force =    -0.00001755   -0.00000000   -0.00000000
     atom  208 type  2   force =    -0.00004175    0.00000000    0.00002343
     atom  209 type  2   force =    -0.00004175    0.00000000   -0.00002343
     atom  210 type  2   force =    -0.00004175    0.00002343   -0.00000000
     atom  211 type  2   force =    -0.00008872    0.00007868    0.00007868
     atom  212 type  2   force =    -0.00008872    0.00007868   -0.00007868
     atom  213 type  2   force =    -0.00004175   -0.00002343    0.00000000
     atom  214 type  2   force =    -0.00008872   -0.00007868    0.00007868
     atom  215 type  2   force =    -0.00008872   -0.00007868   -0.00007868
     The non-local contrib.  to forces
     atom    1 type  1   force =     0.00000000   -0.00000000    0.00000000
     atom    2 type  1   force =     0.00000000   -0.00000000    0.00091982
     atom    3 type  1   force =     0.00000000    0.00000000   -0.00091982
     atom    4 type  1   force =     0.00000000    0.00091982    0.00000000
     atom    5 type  1   force =     0.00000000    0.00176045    0.00176045
     atom    6 type  1   force =     0.00000000    0.00176045   -0.00176045
     atom    7 type  1   force =    -0.00000000   -0.00091982   -0.00000000
     atom    8 type  1   force =     0.00000000   -0.00176045    0.00176045
     atom    9 type  1   force =    -0.00000000   -0.00176045   -0.00176045
     atom   10 type  1   force =     0.00091982    0.00000000    0.00000000
     atom   11 type  1   force =     0.00176045    0.00000000    0.00176045
     atom   12 type  1   force =     0.00176045   -0.00000000   -0.00176045
     atom   13 type  1   force =     0.00176045    0.00176045    0.00000000
     atom   14 type  1   force =     0.00054299    0.00054299    0.00054299
     atom   15 type  1   force =     0.00054299    0.00054299   -0.00054299
     atom   16 type  1   force =     0.00176045   -0.00176045    0.00000000
     atom   17 type  1   force =     0.00054299   -0.00054299    0.00054299
     atom   18 type  1   force =     0.00054299   -0.00054299   -0.00054299
     atom   19 type  1   force =    -0.00091982    0.00000000    0.00000000
     atom   20 type  1   force =    -0.00176045    0.00000000    0.00176045
     atom   21 type  1   force =    -0.00176045   -0.00000000   -0.00176045
     atom   22 type  1   force =    -0.00176045    0.00176045   -0.00000000
     atom   23 type  1   force =    -0.00054299    0.00054299    0.00054299
     atom   24 type  1   force =    -0.00054299    0.00054299   -0.00054299
     atom   25 type  1   force =    -0.00176045   -0.00176045    0.00000000
     atom   26 type  1   force =    -0.00054299   -0.00054299    0.00054299
     atom   27 type  1   force =    -0.00054299   -0.00054299   -0.00054299
     atom   28 type  1   force =    -0.00000000    0.00013968    0.00013968
     atom   29 type  1   force =     0.00000000    0.00249733    0.00000000
     atom   30 type  1   force =    -0.00000000    0.00013968   -0.00013968
     atom   31 type  1   force =     0.00000000    0.00000000    0.00249733
     atom   32 type  1   force =     0.00000000    0.00000000    0.00000000
     atom   33 type  1   force =    -0.00000000    0.00000000   -0.00249733
     atom   34 type  1   force =     0.00000000   -0.00013968    0.00013968
     atom   35 type  1   force =    -0.00000000   -0.00249733    0.00000000
     atom   36 type  1   force =     0.00000000   -0.00013968   -0.00013968
     atom   37 type  1   force =     0.00074239   -0.00006688   -0.00006688
     atom   38 type  1   force =     0.00438251   -0.00129236   -0.00000000
     atom   39 type  1   force =     0.00074239   -0.00006688    0.00006688
     atom   40 type  1   force =     0.00438251    0.00000000   -0.00129236
     atom   41 type  1   force =    -0.00402356    0.00000000    0.00000000
     atom   42 type  1   force =     0.00438251    0.00000000    0.00129236
     atom   43 type  1   force =     0.00074239    0.00006688   -0.00006688
     atom   44 type  1   force =     0.00438251    0.00129236    0.00000000
     atom   45 type  1   force =     0.00074239    0.00006688    0.00006688
     atom   46 type  1   force =    -0.00074239   -0.00006688   -0.00006688
     atom   47 type  1   force =    -0.00438251   -0.00129236    0.00000000
     atom   48 type  1   force =    -0.00074239   -0.00006688    0.00006688
     atom   49 type  1   force =    -0.00438251   -0.00000000   -0.00129236
     atom   50 type  1   force =     0.00402356    0.00000000    0.00000000
     atom   51 type  1   force =    -0.00438251    0.00000000    0.00129236
     atom   52 type  1   force =    -0.00074239    0.00006688   -0.00006688
     atom   53 type  1   force =    -0.00438251    0.00129236   -0.00000000
     atom   54 type  1   force =    -0.00074239    0.00006688    0.00006688
     atom   55 type  1   force =     0.00013968    0.00000000    0.00013968
     atom   56 type  1   force =     0.00249733    0.00000000    0.00000000
     atom   57 type  1   force =     0.00013968    0.00000000   -0.00013968
     atom   58 type  1   force =    -0.00006688    0.00074239   -0.00006688
     atom   59 type  1   force =    -0.00129236    0.00438251    0.00000000
     atom   60 type  1   force =    -0.00006688    0.00074239    0.00006688
     atom   61 type  1   force =    -0.00006688   -0.00074239   -0.00006688
     atom   62 type  1   force =    -0.00129236   -0.00438251   -0.00000000
     atom   63 type  1   force =    -0.00006688   -0.00074239    0.00006688
     atom   64 type  1   force =     0.00000000    0.00000000    0.00249733
     atom   65 type  1   force =     0.00000000    0.00000000    0.00000000
     atom   66 type  1   force =     0.00000000    0.00000000   -0.00249733
     atom   67 type  1   force =     0.00000000    0.00438251   -0.00129236
     atom   68 type  1   force =     0.00000000   -0.00402356    0.00000000
     atom   69 type  1   force =     0.00000000    0.00438251    0.00129236
     atom   70 type  1   force =     0.00000000   -0.00438251   -0.00129236
     atom   71 type  1   force =     0.00000000    0.00402356   -0.00000000
     atom   72 type  1   force =     0.00000000   -0.00438251    0.00129236
     atom   73 type  1   force =    -0.00013968    0.00000000    0.00013968
     atom   74 type  1   force =    -0.00249733   -0.00000000    0.00000000
     atom   75 type  1   force =    -0.00013968   -0.00000000   -0.00013968
     atom   76 type  1   force =     0.00006688    0.00074239   -0.00006688
     atom   77 type  1   force =     0.00129236    0.00438251    0.00000000
     atom   78 type  1   force =     0.00006688    0.00074239    0.00006688
     atom   79 type  1   force =     0.00006688   -0.00074239   -0.00006688
     atom   80 type  1   force =     0.00129236   -0.00438251   -0.00000000
     atom   81 type  1   force =     0.00006688   -0.00074239    0.00006688
     atom   82 type  1   force =     0.00013968    0.00013968   -0.00000000
     atom   83 type  1   force =    -0.00006688   -0.00006688    0.00074239
     atom   84 type  1   force =    -0.00006688   -0.00006688   -0.00074239
     atom   85 type  1   force =     0.00249733    0.00000000    0.00000000
     atom   86 type  1   force =    -0.00129236   -0.00000000    0.00438251
     atom   87 type  1   force =    -0.00129236    0.00000000   -0.00438251
     atom   88 type  1   force =     0.00013968   -0.00013968    0.00000000
     atom   89 type  1   force =    -0.00006688    0.00006688    0.00074239
     atom   90 type  1   force =    -0.00006688    0.00006688   -0.00074239
     atom   91 type  1   force =     0.00000000    0.00249733   -0.00000000
     atom   92 type  1   force =     0.00000000   -0.00129236    0.00438251
     atom   93 type  1   force =     0.00000000   -0.00129236   -0.00438251
     atom   94 type  1   force =     0.00000000    0.00000000    0.00000000
     atom   95 type  1   force =     0.00000000    0.00000000   -0.00402356
     atom   96 type  1   force =     0.00000000    0.00000000    0.00402356
     atom   97 type  1   force =     0.00000000   -0.00249733   -0.00000000
     atom   98 type  1   force =     0.00000000    0.00129236    0.00438251
     atom   99 type  1   force =     0.00000000    0.00129236   -0.00438251
     atom  100 type  1   force =    -0.00013968    0.00013968    0.00000000
     atom  101 type  1   force =     0.00006688   -0.00006688    0.00074239
     atom  102 type  1   force =     0.00006688   -0.00006688   -0.00074239
     atom  103 type  1   force =    -0.00249733    0.00000000   -0.00000000
     atom  104 type  1   force =     0.00129236    0.00000000    0.00438251
     atom  105 type  1   force =     0.00129236   -0.00000000   -0.00438251
     atom  106 type  1   force =    -0.00013968   -0.00013968    0.00000000
     atom  107 type  1   force =     0.00006688    0.00006688    0.00074239
     atom  108 type  1   force =     0.00006688    0.00006688   -0.00074239
     atom  109 type  2   force =     0.00000000   -0.00008270    0.00000000
     atom  110 type  2   force =     0.00000000   -0.00006314   -0.00087778
     atom  111 type  2   force =     0.00000000   -0.00006314    0.00087778
     atom  112 type  2   force =     0.00000000    0.00000000    0.00000000
     atom  113 type  2   force =    -0.00000000    0.00000000   -0.00051299
     atom  114 type  2   force =     0.00000000    0.00000000    0.00051299
     atom  115 type  2   force =    -0.00000000    0.00008270    0.00000000
     atom  116 type  2   force =     0.00000000    0.00006314   -0.00087778
     atom  117 type  2   force =     0.00000000    0.00006314    0.00087778
     atom  118 type  2   force =    -0.00087778   -0.00006314    0.00000000
     atom  119 type  2   force =    -0.00166375   -0.00439283   -0.00166375
     atom  120 type  2   force =    -0.00166375   -0.00439283    0.00166375
     atom  121 type  2   force =    -0.00051299   -0.00000000    0.00000000
     atom  122 type  2   force =    -0.01356351    0.00000000   -0.01356351
     atom  123 type  2   force =    -0.01356351    0.00000000    0.01356351
     atom  124 type  2   force =    -0.00087778    0.00006314    0.00000000
     atom  125 type  2   force =    -0.00166375    0.00439283   -0.00166375
     atom  126 type  2   force =    -0.00166375    0.00439283    0.00166375
     atom  127 type  2   force =     0.00087778   -0.00006314   -0.00000000
     atom  128 type  2   force =     0.00166375   -0.00439283   -0.00166375
     atom  129 type  2   force =     0.00166375   -0.00439283    0.00166375
     atom  130 type  2   force =     0.00051299   -0.00000000   -0.00000000
     atom  131 type  2   force =     0.01356351   -0.00000000   -0.01356351
     atom  132 type  2   force =     0.01356351    0.00000000    0.01356351
     atom  133 type  2   force =     0.00087778    0.00006314    0.00000000
     atom  134 type  2   force =     0.00166375    0.00439283   -0.00166375
     atom  135 type  2   force =     0.00166375    0.00439283    0.00166375
     atom  136 type  2   force =     0.00000000    0.00000000   -0.00008270
     atom  137 type  2   force =     0.00000000    0.00000000    0.00000000
     atom  138 type  2   force =     0.00000000   -0.00000000    0.00008270
     atom  139 type  2   force =     0.00000000   -0.00087778   -0.00006314
     atom  140 type  2   force =     0.00000000   -0.00051299    0.00000000
     atom  141 type  2   force =    -0.00000000   -0.00087778    0.00006314
     atom  142 type  2   force =    -0.00000000    0.00087778   -0.00006314
     atom  143 type  2   force =     0.00000000    0.00051299    0.00000000
     atom  144 type  2   force =    -0.00000000    0.00087778    0.00006314
     atom  145 type  2   force =    -0.00087778    0.00000000   -0.00006314
     atom  146 type  2   force =    -0.00051299    0.00000000   -0.00000000
     atom  147 type  2   force =    -0.00087778    0.00000000    0.00006314
     atom  148 type  2   force =    -0.00166375   -0.00166375   -0.00439283
     atom  149 type  2   force =    -0.01356351   -0.01356351   -0.00000000
     atom  150 type  2   force =    -0.00166375   -0.00166375    0.00439283
     atom  151 type  2   force =    -0.00166375    0.00166375   -0.00439283
     atom  152 type  2   force =    -0.01356351    0.01356351   -0.00000000
     atom  153 type  2   force =    -0.00166375    0.00166375    0.00439283
     atom  154 type  2   force =     0.00087778    0.00000000   -0.00006314
     atom  155 type  2   force =     0.00051299   -0.00000000   -0.00000000
     atom  156 type  2   force =     0.00087778   -0.00000000    0.00006314
     atom  157 type  2   force =     0.00166375   -0.00166375   -0.00439283
     atom  158 type  2   force =     0.01356351   -0.01356351   -0.00000000
     atom  159 type  2   force =     0.00166375   -0.00166375    0.00439283
     atom  160 type  2   force =     0.00166375    0.00166375   -0.00439283
     atom  161 type  2   force =     0.01356351    0.01356351   -0.00000000
     atom  162 type  2   force =     0.00166375    0.00166375    0.00439283
     atom  163 type  2   force =    -0.00025105   -0.00025105   -0.00025105
     atom  164 type  2   force =    -0.00196082   -0.00196082    0.00000000
     atom  165 type  2   force =    -0.00025105   -0.00025105    0.00025105
     atom  166 type  2   force =    -0.00196082    0.00000000   -0.00196082
     atom  167 type  2   force =     0.00787054    0.00000000    0.00000000
     atom  168 type  2   force =    -0.00196082   -0.00000000    0.00196082
     atom  169 type  2   force =    -0.00025105    0.00025105   -0.00025105
     atom  170 type  2   force =    -0.00196082    0.00196082   -0.00000000
     atom  171 type  2   force =    -0.00025105    0.00025105    0.00025105
     atom  172 type  2   force =     0.00000000   -0.00196082   -0.00196082
     atom  173 type  2   force =     0.00000000    0.00787054    0.00000000
     atom  174 type  2   force =    -0.00000000   -0.00196082    0.00196082
     atom  175 type  2   force =     0.00000000    0.00000000    0.00787054
     atom  176 type  2   force =     0.00000000    0.00000000   -0.00787054
     atom  177 type  2   force =     0.00000000    0.00196082   -0.00196082
     atom  178 type  2   force =     0.00000000   -0.00787054    0.00000000
     atom  179 type  2   force =     0.00000000    0.00196082    0.00196082
     atom  180 type  2   force =     0.00025105   -0.00025105   -0.00025105
     atom  181 type  2   force =     0.00196082   -0.00196082   -0.00000000
     atom  182 type  2   force =     0.00025105   -0.00025105    0.00025105
     atom  183 type  2   force =     0.00196082   -0.00000000   -0.00196082
     atom  184 type  2   force =    -0.00787054    0.00000000    0.00000000
     atom  185 type  2   force =     0.00196082    0.00000000    0.00196082
     atom  186 type  2   force =     0.00025105    0.00025105   -0.00025105
     atom  187 type  2   force =     0.00196082    0.00196082    0.00000000
     atom  188 type  2   force =     0.00025105    0.00025105    0.00025105
     atom  189 type  2   force =    -0.00008270   -0.00000000    0.00000000
     atom  190 type  2   force =    -0.00006314    0.00000000   -0.00087778
     atom  191 type  2   force =    -0.00006314   -0.00000000    0.00087778
     atom  192 type  2   force =    -0.00006314   -0.00087778    0.00000000
     atom  193 type  2   force =    -0.00439283   -0.00166375   -0.00166375
     atom  194 type  2   force =    -0.00439283   -0.00166375    0.00166375
     atom  195 type  2   force =    -0.00006314    0.00087778    0.00000000
     atom  196 type  2   force =    -0.00439283    0.00166375   -0.00166375
     atom  197 type  2   force =    -0.00439283    0.00166375    0.00166375
     atom  198 type  2   force =     0.00000000    0.00000000   -0.00000000
     atom  199 type  2   force =     0.00000000    0.00000000   -0.00051299
     atom  200 type  2   force =     0.00000000    0.00000000    0.00051299
     atom  201 type  2   force =     0.00000000   -0.00051299    0.00000000
     atom  202 type  2   force =     0.00000000   -0.01356351   -0.01356351
     atom  203 type  2   force =     0.00000000   -0.01356351    0.01356351
     atom  204 type  2   force =     0.00000000    0.00051299    0.00000000
     atom  205 type  2   force =    -0.00000000    0.01356351   -0.01356351
     atom  206 type  2   force =    -0.00000000    0.01356351    0.01356351
     atom  207 type  2   force =     0.00008270    0.00000000    0.00000000
     atom  208 type  2   force =     0.00006314    0.00000000   -0.00087778
     atom  209 type  2   force =     0.00006314    0.00000000    0.00087778
     atom  210 type  2   force =     0.00006314   -0.00087778   -0.00000000
     atom  211 type  2   force =     0.00439283   -0.00166375   -0.00166375
     atom  212 type  2   force =     0.00439283   -0.00166375    0.00166375
     atom  213 type  2   force =     0.00006314    0.00087778    0.00000000
     atom  214 type  2   force =     0.00439283    0.00166375   -0.00166375
     atom  215 type  2   force =     0.00439283    0.00166375    0.00166375
     The ionic contribution  to forces
     atom    1 type  1   force =     0.00000117    0.00000113    0.00000111
     atom    2 type  1   force =     0.00000181    0.00000160    0.13691636
     atom    3 type  1   force =     0.00000163    0.00000161   -0.13691861
     atom    4 type  1   force =     0.00000168    0.13691676    0.00000188
     atom    5 type  1   force =     0.00000290    0.30096653    0.30096650
     atom    6 type  1   force =     0.00000302    0.30096630   -0.30096907
     atom    7 type  1   force =     0.00000164   -0.13691914    0.00000160
     atom    8 type  1   force =     0.00000297   -0.30096939    0.30096628
     atom    9 type  1   force =     0.00000289   -0.30096882   -0.30096878
     atom   10 type  1   force =     0.13691671    0.00000191    0.00000174
     atom   11 type  1   force =     0.30096694    0.00000260    0.30096683
     atom   12 type  1   force =     0.30096658    0.00000283   -0.30096946
     atom   13 type  1   force =     0.30096663    0.30096655    0.00000264
     atom   14 type  1   force =     1.54298438    1.54298420    1.54298436
     atom   15 type  1   force =     1.54298494    1.54298464   -1.54298778
     atom   16 type  1   force =     0.30096638   -0.30096950    0.00000288
     atom   17 type  1   force =     1.54298509   -1.54298770    1.54298466
     atom   18 type  1   force =     1.54298576   -1.54298818   -1.54298843
     atom   19 type  1   force =    -0.13691899    0.00000160    0.00000160
     atom   20 type  1   force =    -0.30096955    0.00000288    0.30096637
     atom   21 type  1   force =    -0.30096929    0.00000286   -0.30096892
     atom   22 type  1   force =    -0.30096918    0.30096637    0.00000264
     atom   23 type  1   force =    -1.54298796    1.54298496    1.54298461
     atom   24 type  1   force =    -1.54298859    1.54298521   -1.54298819
     atom   25 type  1   force =    -0.30096889   -0.30096887    0.00000293
     atom   26 type  1   force =    -1.54298857   -1.54298849    1.54298544
     atom   27 type  1   force =    -1.54298912   -1.54298898   -1.54298902
     atom   28 type  1   force =     0.00000161    0.17959532    0.17959542
     atom   29 type  1   force =     0.00000281    0.33076391   -0.00000172
     atom   30 type  1   force =     0.00000142    0.17959490   -0.17959430
     atom   31 type  1   force =     0.00000267   -0.00000170    0.33076379
     atom   32 type  1   force =     0.00000338   -0.00000195   -0.00000205
     atom   33 type  1   force =     0.00000268   -0.00000162   -0.33076244
     atom   34 type  1   force =     0.00000158   -0.17959413    0.17959503
     atom   35 type  1   force =     0.00000265   -0.33076253   -0.00000163
     atom   36 type  1   force =     0.00000147   -0.17959383   -0.17959379
     atom   37 type  1   force =     0.26567663    0.41554024    0.41554021
     atom   38 type  1   force =     0.73455298    1.16601608   -0.00000228
     atom   39 type  1   force =     0.26567598    0.41553972   -0.41553848
     atom   40 type  1   force =     0.73455240   -0.00000223    1.16601612
     atom   41 type  1   force =     8.11244711   -0.00000011   -0.00000007
     atom   42 type  1   force =     0.73455308   -0.00000243   -1.16601147
     atom   43 type  1   force =     0.26567607   -0.41553868    0.41553983
     atom   44 type  1   force =     0.73455310   -1.16601145   -0.00000247
     atom   45 type  1   force =     0.26567528   -0.41553783   -0.41553806
     atom   46 type  1   force =    -0.26567910    0.41553976    0.41553989
     atom   47 type  1   force =    -0.73455645    1.16601443   -0.00000238
     atom   48 type  1   force =    -0.26567833    0.41553903   -0.41553803
     atom   49 type  1   force =    -0.73455640   -0.00000240    1.16601477
     atom   50 type  1   force =    -8.11245331    0.00000004   -0.00000045
     atom   51 type  1   force =    -0.73455650   -0.00000239   -1.16601022
     atom   52 type  1   force =    -0.26567852   -0.41553808    0.41553903
     atom   53 type  1   force =    -0.73455684   -1.16601026   -0.00000240
     atom   54 type  1   force =    -0.26567770   -0.41553710   -0.41553722
     atom   55 type  1   force =     0.17959527    0.00000163    0.17959547
     atom   56 type  1   force =     0.33076401    0.00000261   -0.00000168
     atom   57 type  1   force =     0.17959504    0.00000158   -0.17959432
     atom   58 type  1   force =     0.41554023    0.26567668    0.41554020
     atom   59 type  1   force =     1.16601616    0.73455251   -0.00000232
     atom   60 type  1   force =     0.41553970    0.26567587   -0.41553860
     atom   61 type  1   force =     0.41553984   -0.26567898    0.41553981
     atom   62 type  1   force =     1.16601455   -0.73455631   -0.00000244
     atom   63 type  1   force =     0.41553899   -0.26567795   -0.41553802
     atom   64 type  1   force =    -0.00000157    0.00000264    0.33076403
     atom   65 type  1   force =    -0.00000217    0.00000323   -0.00000199
     atom   66 type  1   force =    -0.00000154    0.00000253   -0.33076269
     atom   67 type  1   force =    -0.00000223    0.73455239    1.16601642
     atom   68 type  1   force =    -0.00000022    8.11244683   -0.00000021
     atom   69 type  1   force =    -0.00000248    0.73455276   -1.16601167
     atom   70 type  1   force =    -0.00000238   -0.73455634    1.16601479
     atom   71 type  1   force =    -0.00000007   -8.11245293   -0.00000031
     atom   72 type  1   force =    -0.00000239   -0.73455663   -1.16601033
     atom   73 type  1   force =    -0.17959425    0.00000156    0.17959503
     atom   74 type  1   force =    -0.33076291    0.00000262   -0.00000169
     atom   75 type  1   force =    -0.17959378    0.00000144   -0.17959375
     atom   76 type  1   force =    -0.41553869    0.26567600    0.41553958
     atom   77 type  1   force =    -1.16601171    0.73455278   -0.00000245
     atom   78 type  1   force =    -0.41553801    0.26567521   -0.41553775
     atom   79 type  1   force =    -0.41553817   -0.26567827    0.41553885
     atom   80 type  1   force =    -1.16601038   -0.73455655   -0.00000252
     atom   81 type  1   force =    -0.41553722   -0.26567762   -0.41553717
     atom   82 type  1   force =     0.17959543    0.17959526    0.00000148
     atom   83 type  1   force =     0.41554025    0.41554024    0.26567647
     atom   84 type  1   force =     0.41553989    0.41553980   -0.26567884
     atom   85 type  1   force =     0.33076392   -0.00000169    0.00000271
     atom   86 type  1   force =     1.16601620   -0.00000233    0.73455231
     atom   87 type  1   force =     1.16601456   -0.00000251   -0.73455638
     atom   88 type  1   force =     0.17959470   -0.17959433    0.00000139
     atom   89 type  1   force =     0.41553971   -0.41553857    0.26567578
     atom   90 type  1   force =     0.41553911   -0.41553806   -0.26567809
     atom   91 type  1   force =    -0.00000169    0.33076377    0.00000269
     atom   92 type  1   force =    -0.00000230    1.16601608    0.73455257
     atom   93 type  1   force =    -0.00000244    1.16601440   -0.73455632
     atom   94 type  1   force =    -0.00000205   -0.00000204    0.00000321
     atom   95 type  1   force =     0.00000012   -0.00000007    8.11244700
     atom   96 type  1   force =    -0.00000028   -0.00000007   -8.11245310
     atom   97 type  1   force =    -0.00000149   -0.33076246    0.00000264
     atom   98 type  1   force =    -0.00000237   -1.16601163    0.73455287
     atom   99 type  1   force =    -0.00000237   -1.16601009   -0.73455665
     atom  100 type  1   force =    -0.17959426    0.17959485    0.00000140
     atom  101 type  1   force =    -0.41553877    0.41553943    0.26567584
     atom  102 type  1   force =    -0.41553819    0.41553899   -0.26567801
     atom  103 type  1   force =    -0.33076253   -0.00000164    0.00000273
     atom  104 type  1   force =    -1.16601195   -0.00000232    0.73455287
     atom  105 type  1   force =    -1.16601028   -0.00000229   -0.73455634
     atom  106 type  1   force =    -0.17959392   -0.17959373    0.00000148
     atom  107 type  1   force =    -0.41553793   -0.41553781    0.26567532
     atom  108 type  1   force =    -0.41553726   -0.41553719   -0.26567738
     atom  109 type  2   force =     0.00000111    0.08371496    0.00000114
     atom  110 type  2   force =     0.00000159    0.15645283    0.11133676
     atom  111 type  2   force =     0.00000148    0.15645251   -0.11133732
     atom  112 type  2   force =     0.00000145   -0.00000033    0.00000151
     atom  113 type  2   force =     0.00000228   -0.00000062    0.22350010
     atom  114 type  2   force =     0.00000232   -0.00000069   -0.22350102
     atom  115 type  2   force =     0.00000120   -0.08371354    0.00000099
     atom  116 type  2   force =     0.00000150   -0.15645117    0.11133655
     atom  117 type  2   force =     0.00000147   -0.15645104   -0.11133711
     atom  118 type  2   force =     0.11133692    0.15645280    0.00000143
     atom  119 type  2   force =     0.31630753    0.53065895    0.31630745
     atom  120 type  2   force =     0.31630742    0.53065879   -0.31630848
     atom  121 type  2   force =     0.22350018   -0.00000064    0.00000220
     atom  122 type  2   force =     1.77145946   -0.00000186    1.77145943
     atom  123 type  2   force =     1.77146205   -0.00000190   -1.77146423
     atom  124 type  2   force =     0.11133674   -0.15645131    0.00000145
     atom  125 type  2   force =     0.31630754   -0.53065663    0.31630743
     atom  126 type  2   force =     0.31630737   -0.53065657   -0.31630834
     atom  127 type  2   force =    -0.11133748    0.15645248    0.00000143
     atom  128 type  2   force =    -0.31630848    0.53065869    0.31630726
     atom  129 type  2   force =    -0.31630836    0.53065856   -0.31630831
     atom  130 type  2   force =    -0.22350108   -0.00000071    0.00000227
     atom  131 type  2   force =    -1.77146426   -0.00000186    1.77146183
     atom  132 type  2   force =    -1.77146666   -0.00000173   -1.77146643
     atom  133 type  2   force =    -0.11133726   -0.15645102    0.00000147
     atom  134 type  2   force =    -0.31630861   -0.53065655    0.31630727
     atom  135 type  2   force =    -0.31630844   -0.53065634   -0.31630831
     atom  136 type  2   force =     0.00000115    0.00000110    0.08371526
     atom  137 type  2   force =     0.00000160    0.00000144   -0.00000041
     atom  138 type  2   force =     0.00000096    0.00000111   -0.08371386
     atom  139 type  2   force =     0.00000157    0.11133695    0.15645265
     atom  140 type  2   force =     0.00000233    0.22350015   -0.00000074
     atom  141 type  2   force =     0.00000147    0.11133661   -0.15645135
     atom  142 type  2   force =     0.00000147   -0.11133751    0.15645250
     atom  143 type  2   force =     0.00000227   -0.22350110   -0.00000071
     atom  144 type  2   force =     0.00000147   -0.11133720   -0.15645103
     atom  145 type  2   force =     0.11133701    0.00000157    0.15645277
     atom  146 type  2   force =     0.22350047    0.00000220   -0.00000072
     atom  147 type  2   force =     0.11133669    0.00000149   -0.15645134
     atom  148 type  2   force =     0.31630739    0.31630738    0.53065888
     atom  149 type  2   force =     1.77145972    1.77145936   -0.00000189
     atom  150 type  2   force =     0.31630743    0.31630734   -0.53065661
     atom  151 type  2   force =     0.31630734   -0.31630842    0.53065888
     atom  152 type  2   force =     1.77146215   -1.77146413   -0.00000184
     atom  153 type  2   force =     0.31630730   -0.31630841   -0.53065655
     atom  154 type  2   force =    -0.11133758    0.00000146    0.15645255
     atom  155 type  2   force =    -0.22350118    0.00000226   -0.00000071
     atom  156 type  2   force =    -0.11133731    0.00000144   -0.15645106
     atom  157 type  2   force =    -0.31630839    0.31630731    0.53065899
     atom  158 type  2   force =    -1.77146445    1.77146180   -0.00000195
     atom  159 type  2   force =    -0.31630834    0.31630723   -0.53065653
     atom  160 type  2   force =    -0.31630830   -0.31630825    0.53065866
     atom  161 type  2   force =    -1.77146679   -1.77146651   -0.00000198
     atom  162 type  2   force =    -0.31630832   -0.31630829   -0.53065640
     atom  163 type  2   force =     0.14742610    0.14742610    0.14742612
     atom  164 type  2   force =     0.30756901    0.30756900   -0.00000073
     atom  165 type  2   force =     0.14742602    0.14742599   -0.14742469
     atom  166 type  2   force =     0.30756903   -0.00000077    0.30756898
     atom  167 type  2   force =     0.96279117   -0.00000078   -0.00000066
     atom  168 type  2   force =     0.30756904   -0.00000087   -0.30756733
     atom  169 type  2   force =     0.14742583   -0.14742475    0.14742603
     atom  170 type  2   force =     0.30756922   -0.30756734   -0.00000072
     atom  171 type  2   force =     0.14742578   -0.14742469   -0.14742458
     atom  172 type  2   force =    -0.00000061    0.30756897    0.30756909
     atom  173 type  2   force =    -0.00000089    0.96279109   -0.00000076
     atom  174 type  2   force =    -0.00000077    0.30756912   -0.30756754
     atom  175 type  2   force =    -0.00000059   -0.00000060    0.96279114
     atom  176 type  2   force =    -0.00000089   -0.00000074   -0.96279005
     atom  177 type  2   force =    -0.00000059   -0.30756739    0.30756925
     atom  178 type  2   force =    -0.00000073   -0.96279011   -0.00000076
     atom  179 type  2   force =    -0.00000073   -0.30756740   -0.30756767
     atom  180 type  2   force =    -0.14742478    0.14742594    0.14742600
     atom  181 type  2   force =    -0.30756763    0.30756908   -0.00000086
     atom  182 type  2   force =    -0.14742448    0.14742577   -0.14742452
     atom  183 type  2   force =    -0.30756744   -0.00000077    0.30756901
     atom  184 type  2   force =    -0.96279023   -0.00000066   -0.00000094
     atom  185 type  2   force =    -0.30756761   -0.00000076   -0.30756752
     atom  186 type  2   force =    -0.14742450   -0.14742457    0.14742565
     atom  187 type  2   force =    -0.30756770   -0.30756759   -0.00000085
     atom  188 type  2   force =    -0.14742427   -0.14742422   -0.14742432
     atom  189 type  2   force =     0.08371506    0.00000128    0.00000115
     atom  190 type  2   force =     0.15645273    0.00000152    0.11133682
     atom  191 type  2   force =     0.15645259    0.00000144   -0.11133742
     atom  192 type  2   force =     0.15645279    0.11133694    0.00000155
     atom  193 type  2   force =     0.53065895    0.31630739    0.31630734
     atom  194 type  2   force =     0.53065880    0.31630725   -0.31630831
     atom  195 type  2   force =     0.15645252   -0.11133750    0.00000145
     atom  196 type  2   force =     0.53065880   -0.31630839    0.31630720
     atom  197 type  2   force =     0.53065855   -0.31630814   -0.31630816
     atom  198 type  2   force =    -0.00000027    0.00000148    0.00000148
     atom  199 type  2   force =    -0.00000072    0.00000218    0.22350024
     atom  200 type  2   force =    -0.00000062    0.00000225   -0.22350116
     atom  201 type  2   force =    -0.00000074    0.22350028    0.00000206
     atom  202 type  2   force =    -0.00000183    1.77145942    1.77145941
     atom  203 type  2   force =    -0.00000180    1.77146177   -1.77146412
     atom  204 type  2   force =    -0.00000070   -0.22350113    0.00000229
     atom  205 type  2   force =    -0.00000184   -1.77146406    1.77146188
     atom  206 type  2   force =    -0.00000198   -1.77146646   -1.77146657
     atom  207 type  2   force =    -0.08371381    0.00000108    0.00000096
     atom  208 type  2   force =    -0.15645138    0.00000156    0.11133658
     atom  209 type  2   force =    -0.15645104    0.00000145   -0.11133711
     atom  210 type  2   force =    -0.15645132    0.11133673    0.00000145
     atom  211 type  2   force =    -0.53065683    0.31630749    0.31630729
     atom  212 type  2   force =    -0.53065671    0.31630720   -0.31630829
     atom  213 type  2   force =    -0.15645108   -0.11133726    0.00000148
     atom  214 type  2   force =    -0.53065676   -0.31630849    0.31630736
     atom  215 type  2   force =    -0.53065644   -0.31630827   -0.31630824
     The local contribution  to forces
     atom    1 type  1   force =    -0.00000114   -0.00000110   -0.00000108
     atom    2 type  1   force =    -0.00000179   -0.00000157   -0.13778385
     atom    3 type  1   force =    -0.00000161   -0.00000160    0.13778618
     atom    4 type  1   force =    -0.00000166   -0.13778427   -0.00000187
     atom    5 type  1   force =    -0.00000295   -0.30264974   -0.30264972
     atom    6 type  1   force =    -0.00000307   -0.30264953    0.30265239
     atom    7 type  1   force =    -0.00000162    0.13778674   -0.00000159
     atom    8 type  1   force =    -0.00000303    0.30265271   -0.30264951
     atom    9 type  1   force =    -0.00000293    0.30265215    0.30265210
     atom   10 type  1   force =    -0.13778419   -0.00000188   -0.00000172
     atom   11 type  1   force =    -0.30265015   -0.00000264   -0.30265002
     atom   12 type  1   force =    -0.30264980   -0.00000287    0.30265276
     atom   13 type  1   force =    -0.30264985   -0.30264976   -0.00000269
     atom   14 type  1   force =    -1.54350082   -1.54350063   -1.54350079
     atom   15 type  1   force =    -1.54350140   -1.54350111    1.54350424
     atom   16 type  1   force =    -0.30264961    0.30265280   -0.00000292
     atom   17 type  1   force =    -1.54350156    1.54350417   -1.54350112
     atom   18 type  1   force =    -1.54350227    1.54350467    1.54350492
     atom   19 type  1   force =     0.13778656   -0.00000159   -0.00000158
     atom   20 type  1   force =     0.30265287   -0.00000293   -0.30264959
     atom   21 type  1   force =     0.30265260   -0.00000291    0.30265224
     atom   22 type  1   force =     0.30265250   -0.30264959   -0.00000268
     atom   23 type  1   force =     1.54350442   -1.54350143   -1.54350107
     atom   24 type  1   force =     1.54350508   -1.54350170    1.54350467
     atom   25 type  1   force =     0.30265222    0.30265219   -0.00000298
     atom   26 type  1   force =     1.54350504    1.54350498   -1.54350193
     atom   27 type  1   force =     1.54350564    1.54350551    1.54350553
     atom   28 type  1   force =    -0.00000159   -0.17970344   -0.17970356
     atom   29 type  1   force =    -0.00000286   -0.33315113    0.00000175
     atom   30 type  1   force =    -0.00000139   -0.17970301    0.17970247
     atom   31 type  1   force =    -0.00000271    0.00000173   -0.33315099
     atom   32 type  1   force =    -0.00000348    0.00000200    0.00000209
     atom   33 type  1   force =    -0.00000275    0.00000167    0.33314971
     atom   34 type  1   force =    -0.00000157    0.17970229   -0.17970316
     atom   35 type  1   force =    -0.00000270    0.33314981    0.00000167
     atom   36 type  1   force =    -0.00000144    0.17970199    0.17970195
     atom   37 type  1   force =    -0.26639348   -0.41544888   -0.41544886
     atom   38 type  1   force =    -0.73873248   -1.16458374    0.00000237
     atom   39 type  1   force =    -0.26639283   -0.41544835    0.41544715
     atom   40 type  1   force =    -0.73873190    0.00000231   -1.16458377
     atom   41 type  1   force =    -8.10839678   -0.00000004   -0.00000007
     atom   42 type  1   force =    -0.73873256    0.00000251    1.16457881
     atom   43 type  1   force =    -0.26639291    0.41544736   -0.41544846
     atom   44 type  1   force =    -0.73873258    1.16457878    0.00000255
     atom   45 type  1   force =    -0.26639212    0.41544650    0.41544673
     atom   46 type  1   force =     0.26639604   -0.41544840   -0.41544852
     atom   47 type  1   force =     0.73873606   -1.16458195    0.00000245
     atom   48 type  1   force =     0.26639526   -0.41544767    0.41544669
     atom   49 type  1   force =     0.73873602    0.00000248   -1.16458229
     atom   50 type  1   force =     8.10840293   -0.00000016    0.00000032
     atom   51 type  1   force =     0.73873610    0.00000247    1.16457745
     atom   52 type  1   force =     0.26639546    0.41544675   -0.41544767
     atom   53 type  1   force =     0.73873644    1.16457750    0.00000247
     atom   54 type  1   force =     0.26639462    0.41544576    0.41544588
     atom   55 type  1   force =    -0.17970340   -0.00000162   -0.17970361
     atom   56 type  1   force =    -0.33315119   -0.00000265    0.00000171
     atom   57 type  1   force =    -0.17970315   -0.00000156    0.17970250
     atom   58 type  1   force =    -0.41544887   -0.26639353   -0.41544884
     atom   59 type  1   force =    -1.16458378   -0.73873199    0.00000239
     atom   60 type  1   force =    -0.41544833   -0.26639273    0.41544727
     atom   61 type  1   force =    -0.41544847    0.26639591   -0.41544845
     atom   62 type  1   force =    -1.16458203    0.73873591    0.00000252
     atom   63 type  1   force =    -0.41544763    0.26639487    0.41544669
     atom   64 type  1   force =     0.00000161   -0.00000268   -0.33315123
     atom   65 type  1   force =     0.00000222   -0.00000333    0.00000204
     atom   66 type  1   force =     0.00000158   -0.00000257    0.33314995
     atom   67 type  1   force =     0.00000231   -0.73873188   -1.16458406
     atom   68 type  1   force =     0.00000008   -8.10839649    0.00000007
     atom   69 type  1   force =     0.00000256   -0.73873224    1.16457900
     atom   70 type  1   force =     0.00000246    0.73873597   -1.16458229
     atom   71 type  1   force =    -0.00000006    8.10840255    0.00000018
     atom   72 type  1   force =     0.00000247    0.73873625    1.16457755
     atom   73 type  1   force =     0.17970241   -0.00000155   -0.17970316
     atom   74 type  1   force =     0.33315018   -0.00000267    0.00000173
     atom   75 type  1   force =     0.17970193   -0.00000142    0.17970191
     atom   76 type  1   force =     0.41544737   -0.26639284   -0.41544822
     atom   77 type  1   force =     1.16457903   -0.73873223    0.00000252
     atom   78 type  1   force =     0.41544667   -0.26639204    0.41544642
     atom   79 type  1   force =     0.41544684    0.26639519   -0.41544748
     atom   80 type  1   force =     1.16457758    0.73873614    0.00000262
     atom   81 type  1   force =     0.41544588    0.26639454    0.41544583
     atom   82 type  1   force =    -0.17970355   -0.17970339   -0.00000147
     atom   83 type  1   force =    -0.41544889   -0.41544889   -0.26639330
     atom   84 type  1   force =    -0.41544850   -0.41544843    0.26639578
     atom   85 type  1   force =    -0.33315112    0.00000173   -0.00000274
     atom   86 type  1   force =    -1.16458383    0.00000240   -0.73873178
     atom   87 type  1   force =    -1.16458207    0.00000259    0.73873598
     atom   88 type  1   force =    -0.17970281    0.17970251   -0.00000138
     atom   89 type  1   force =    -0.41544833    0.41544724   -0.26639261
     atom   90 type  1   force =    -0.41544773    0.41544673    0.26639501
     atom   91 type  1   force =     0.00000172   -0.33315097   -0.00000274
     atom   92 type  1   force =     0.00000238   -1.16458373   -0.73873207
     atom   93 type  1   force =     0.00000252   -1.16458191    0.73873593
     atom   94 type  1   force =     0.00000209    0.00000209   -0.00000331
     atom   95 type  1   force =    -0.00000026   -0.00000006   -8.10839667
     atom   96 type  1   force =     0.00000015   -0.00000006    8.10840271
     atom   97 type  1   force =     0.00000153    0.33314973   -0.00000269
     atom   98 type  1   force =     0.00000244    1.16457897   -0.73873234
     atom   99 type  1   force =     0.00000245    1.16457732    0.73873625
     atom  100 type  1   force =     0.17970243   -0.17970298   -0.00000138
     atom  101 type  1   force =     0.41544745   -0.41544806   -0.26639268
     atom  102 type  1   force =     0.41544685   -0.41544762    0.26639493
     atom  103 type  1   force =     0.33314980    0.00000169   -0.00000279
     atom  104 type  1   force =     1.16457929    0.00000240   -0.73873234
     atom  105 type  1   force =     1.16457749    0.00000237    0.73873592
     atom  106 type  1   force =     0.17970208    0.17970189   -0.00000146
     atom  107 type  1   force =     0.41544658    0.41544647   -0.26639216
     atom  108 type  1   force =     0.41544592    0.41544584    0.26639428
     atom  109 type  2   force =    -0.00000109   -0.08361483   -0.00000112
     atom  110 type  2   force =    -0.00000158   -0.15634802   -0.11043585
     atom  111 type  2   force =    -0.00000148   -0.15634766    0.11043645
     atom  112 type  2   force =    -0.00000148    0.00000036   -0.00000153
     atom  113 type  2   force =    -0.00000224    0.00000064   -0.22290049
     atom  114 type  2   force =    -0.00000228    0.00000071    0.22290143
     atom  115 type  2   force =    -0.00000118    0.08361342   -0.00000099
     atom  116 type  2   force =    -0.00000151    0.15634634   -0.11043561
     atom  117 type  2   force =    -0.00000148    0.15634621    0.11043622
     atom  118 type  2   force =    -0.11043600   -0.15634799   -0.00000144
     atom  119 type  2   force =    -0.31456525   -0.52617781   -0.31456515
     atom  120 type  2   force =    -0.31456511   -0.52617760    0.31456617
     atom  121 type  2   force =    -0.22290059    0.00000067   -0.00000214
     atom  122 type  2   force =    -1.75754402    0.00000191   -1.75754395
     atom  123 type  2   force =    -1.75754666    0.00000196    1.75754900
     atom  124 type  2   force =    -0.11043581    0.15634648   -0.00000144
     atom  125 type  2   force =    -0.31456519    0.52617547   -0.31456507
     atom  126 type  2   force =    -0.31456498    0.52617536    0.31456596
     atom  127 type  2   force =     0.11043660   -0.15634764   -0.00000144
     atom  128 type  2   force =     0.31456619   -0.52617751   -0.31456495
     atom  129 type  2   force =     0.31456602   -0.52617731    0.31456600
     atom  130 type  2   force =     0.22290151    0.00000073   -0.00000224
     atom  131 type  2   force =     1.75754903    0.00000191   -1.75754642
     atom  132 type  2   force =     1.75755152    0.00000179    1.75755127
     atom  133 type  2   force =     0.11043635    0.15634618   -0.00000148
     atom  134 type  2   force =     0.31456625    0.52617536   -0.31456488
     atom  135 type  2   force =     0.31456604    0.52617507    0.31456590
     atom  136 type  2   force =    -0.00000112   -0.00000107   -0.08361512
     atom  137 type  2   force =    -0.00000161   -0.00000146    0.00000043
     atom  138 type  2   force =    -0.00000094   -0.00000112    0.08361374
     atom  139 type  2   force =    -0.00000156   -0.11043603   -0.15634783
     atom  140 type  2   force =    -0.00000229   -0.22290054    0.00000075
     atom  141 type  2   force =    -0.00000148   -0.11043568    0.15634651
     atom  142 type  2   force =    -0.00000147    0.11043662   -0.15634765
     atom  143 type  2   force =    -0.00000222    0.22290150    0.00000073
     atom  144 type  2   force =    -0.00000148    0.11043630    0.15634620
     atom  145 type  2   force =    -0.11043610   -0.00000158   -0.15634795
     atom  146 type  2   force =    -0.22290087   -0.00000214    0.00000074
     atom  147 type  2   force =    -0.11043577   -0.00000148    0.15634650
     atom  148 type  2   force =    -0.31456510   -0.31456510   -0.52617773
     atom  149 type  2   force =    -1.75754427   -1.75754388    0.00000194
     atom  150 type  2   force =    -0.31456509   -0.31456500    0.52617546
     atom  151 type  2   force =    -0.31456505    0.31456613   -0.52617767
     atom  152 type  2   force =    -1.75754678    1.75754891    0.00000190
     atom  153 type  2   force =    -0.31456492    0.31456605    0.52617534
     atom  154 type  2   force =     0.11043671   -0.00000146   -0.15634770
     atom  155 type  2   force =     0.22290158   -0.00000223    0.00000073
     atom  156 type  2   force =     0.11043641   -0.00000142    0.15634620
     atom  157 type  2   force =     0.31456610   -0.31456500   -0.52617778
     atom  158 type  2   force =     1.75754924   -1.75754641    0.00000200
     atom  159 type  2   force =     0.31456598   -0.31456484    0.52617532
     atom  160 type  2   force =     0.31456597    0.31456592   -0.52617740
     atom  161 type  2   force =     1.75755164    1.75755134    0.00000204
     atom  162 type  2   force =     0.31456593    0.31456590    0.52617513
     atom  163 type  2   force =    -0.14715361   -0.14715360   -0.14715362
     atom  164 type  2   force =    -0.30553202   -0.30553204    0.00000074
     atom  165 type  2   force =    -0.14715348   -0.14715348    0.14715217
     atom  166 type  2   force =    -0.30553207    0.00000080   -0.30553203
     atom  167 type  2   force =    -0.97052349    0.00000080    0.00000066
     atom  168 type  2   force =    -0.30553201    0.00000089    0.30553037
     atom  169 type  2   force =    -0.14715328    0.14715224   -0.14715351
     atom  170 type  2   force =    -0.30553218    0.30553038    0.00000074
     atom  171 type  2   force =    -0.14715325    0.14715218    0.14715205
     atom  172 type  2   force =     0.00000064   -0.30553202   -0.30553212
     atom  173 type  2   force =     0.00000090   -0.97052343    0.00000078
     atom  174 type  2   force =     0.00000080   -0.30553211    0.30553058
     atom  175 type  2   force =     0.00000060    0.00000062   -0.97052345
     atom  176 type  2   force =     0.00000091    0.00000076    0.97052240
     atom  177 type  2   force =     0.00000061    0.30553043   -0.30553222
     atom  178 type  2   force =     0.00000074    0.97052248    0.00000077
     atom  179 type  2   force =     0.00000076    0.30553038    0.30553063
     atom  180 type  2   force =     0.14715227   -0.14715342   -0.14715348
     atom  181 type  2   force =     0.30553066   -0.30553207    0.00000088
     atom  182 type  2   force =     0.14715194   -0.14715323    0.14715200
     atom  183 type  2   force =     0.30553048    0.00000080   -0.30553198
     atom  184 type  2   force =     0.97052257    0.00000067    0.00000097
     atom  185 type  2   force =     0.30553059    0.00000079    0.30553050
     atom  186 type  2   force =     0.14715196    0.14715205   -0.14715310
     atom  187 type  2   force =     0.30553064    0.30553056    0.00000087
     atom  188 type  2   force =     0.14715172    0.14715166    0.14715177
     atom  189 type  2   force =    -0.08361494   -0.00000126   -0.00000114
     atom  190 type  2   force =    -0.15634791   -0.00000151   -0.11043591
     atom  191 type  2   force =    -0.15634772   -0.00000144    0.11043656
     atom  192 type  2   force =    -0.15634795   -0.11043602   -0.00000154
     atom  193 type  2   force =    -0.52617780   -0.31456511   -0.31456505
     atom  194 type  2   force =    -0.52617760   -0.31456496    0.31456602
     atom  195 type  2   force =    -0.15634767    0.11043662   -0.00000144
     atom  196 type  2   force =    -0.52617760    0.31456610   -0.31456489
     atom  197 type  2   force =    -0.52617729    0.31456582    0.31456583
     atom  198 type  2   force =     0.00000029   -0.00000149   -0.00000150
     atom  199 type  2   force =     0.00000073   -0.00000211   -0.22290063
     atom  200 type  2   force =     0.00000065   -0.00000223    0.22290156
     atom  201 type  2   force =     0.00000076   -0.22290069   -0.00000202
     atom  202 type  2   force =     0.00000189   -1.75754395   -1.75754396
     atom  203 type  2   force =     0.00000186   -1.75754639    1.75754892
     atom  204 type  2   force =     0.00000071    0.22290155   -0.00000227
     atom  205 type  2   force =     0.00000190    1.75754885   -1.75754650
     atom  206 type  2   force =     0.00000204    1.75755131    1.75755143
     atom  207 type  2   force =     0.08361371   -0.00000106   -0.00000095
     atom  208 type  2   force =     0.15634652   -0.00000156   -0.11043566
     atom  209 type  2   force =     0.15634618   -0.00000146    0.11043622
     atom  210 type  2   force =     0.15634647   -0.11043579   -0.00000146
     atom  211 type  2   force =     0.52617566   -0.31456514   -0.31456495
     atom  212 type  2   force =     0.52617550   -0.31456481    0.31456594
     atom  213 type  2   force =     0.15634623    0.11043636   -0.00000149
     atom  214 type  2   force =     0.52617556    0.31456614   -0.31456498
     atom  215 type  2   force =     0.52617516    0.31456588    0.31456585
     The core correction contribution to forces
     atom    1 type  1   force =     0.00000000    0.00000000    0.00000000
     atom    2 type  1   force =     0.00000000    0.00000000    0.00000000
     atom    3 type  1   force =     0.00000000    0.00000000    0.00000000
     atom    4 type  1   force =     0.00000000    0.00000000    0.00000000
     atom    5 type  1   force =     0.00000000    0.00000000    0.00000000
     atom    6 type  1   force =     0.00000000    0.00000000    0.00000000
     atom    7 type  1   force =     0.00000000    0.00000000    0.00000000
     atom    8 type  1   force =     0.00000000    0.00000000    0.00000000
     atom    9 type  1   force =     0.00000000    0.00000000    0.00000000
     atom   10 type  1   force =     0.00000000    0.00000000    0.00000000
     atom   11 type  1   force =     0.00000000    0.00000000    0.00000000
     atom   12 type  1   force =     0.00000000    0.00000000    0.00000000
     atom   13 type  1   force =     0.00000000    0.00000000    0.00000000
     atom   14 type  1   force =     0.00000000    0.00000000    0.00000000
     atom   15 type  1   force =     0.00000000    0.00000000    0.00000000
     atom   16 type  1   force =     0.00000000    0.00000000    0.00000000
     atom   17 type  1   force =     0.00000000    0.00000000    0.00000000
     atom   18 type  1   force =     0.00000000    0.00000000    0.00000000
     atom   19 type  1   force =     0.00000000    0.00000000    0.00000000
     atom   20 type  1   force =     0.00000000    0.00000000    0.00000000
     atom   21 type  1   force =     0.00000000    0.00000000    0.00000000
     atom   22 type  1   force =     0.00000000    0.00000000    0.00000000
     atom   23 type  1   force =     0.00000000    0.00000000    0.00000000
     atom   24 type  1   force =     0.00000000    0.00000000    0.00000000
     atom   25 type  1   force =     0.00000000    0.00000000    0.00000000
     atom   26 type  1   force =     0.00000000    0.00000000    0.00000000
     atom   27 type  1   force =     0.00000000    0.00000000    0.00000000
     atom   28 type  1   force =     0.00000000    0.00000000    0.00000000
     atom   29 type  1   force =     0.00000000    0.00000000    0.00000000
     atom   30 type  1   force =     0.00000000    0.00000000    0.00000000
     atom   31 type  1   force =     0.00000000    0.00000000    0.00000000
     atom   32 type  1   force =     0.00000000    0.00000000    0.00000000
     atom   33 type  1   force =     0.00000000    0.00000000    0.00000000
     atom   34 type  1   force =     0.00000000    0.00000000    0.00000000
     atom   35 type  1   force =     0.00000000    0.00000000    0.00000000
     atom   36 type  1   force =     0.00000000    0.00000000    0.00000000
     atom   37 type  1   force =     0.00000000    0.00000000    0.00000000
     atom   38 type  1   force =     0.00000000    0.00000000    0.00000000
     atom   39 type  1   force =     0.00000000    0.00000000    0.00000000
     atom   40 type  1   force =     0.00000000    0.00000000    0.00000000
     atom   41 type  1   force =     0.00000000    0.00000000    0.00000000
     atom   42 type  1   force =     0.00000000    0.00000000    0.00000000
     atom   43 type  1   force =     0.00000000    0.00000000    0.00000000
     atom   44 type  1   force =     0.00000000    0.00000000    0.00000000
     atom   45 type  1   force =     0.00000000    0.00000000    0.00000000
     atom   46 type  1   force =     0.00000000    0.00000000    0.00000000
     atom   47 type  1   force =     0.00000000    0.00000000    0.00000000
     atom   48 type  1   force =     0.00000000    0.00000000    0.00000000
     atom   49 type  1   force =     0.00000000    0.00000000    0.00000000
     atom   50 type  1   force =     0.00000000    0.00000000    0.00000000
     atom   51 type  1   force =     0.00000000    0.00000000    0.00000000
     atom   52 type  1   force =     0.00000000    0.00000000    0.00000000
     atom   53 type  1   force =     0.00000000    0.00000000    0.00000000
     atom   54 type  1   force =     0.00000000    0.00000000    0.00000000
     atom   55 type  1   force =     0.00000000    0.00000000    0.00000000
     atom   56 type  1   force =     0.00000000    0.00000000    0.00000000
     atom   57 type  1   force =     0.00000000    0.00000000    0.00000000
     atom   58 type  1   force =     0.00000000    0.00000000    0.00000000
     atom   59 type  1   force =     0.00000000    0.00000000    0.00000000
     atom   60 type  1   force =     0.00000000    0.00000000    0.00000000
     atom   61 type  1   force =     0.00000000    0.00000000    0.00000000
     atom   62 type  1   force =     0.00000000    0.00000000    0.00000000
     atom   63 type  1   force =     0.00000000    0.00000000    0.00000000
     atom   64 type  1   force =     0.00000000    0.00000000    0.00000000
     atom   65 type  1   force =     0.00000000    0.00000000    0.00000000
     atom   66 type  1   force =     0.00000000    0.00000000    0.00000000
     atom   67 type  1   force =     0.00000000    0.00000000    0.00000000
     atom   68 type  1   force =     0.00000000    0.00000000    0.00000000
     atom   69 type  1   force =     0.00000000    0.00000000    0.00000000
     atom   70 type  1   force =     0.00000000    0.00000000    0.00000000
     atom   71 type  1   force =     0.00000000    0.00000000    0.00000000
     atom   72 type  1   force =     0.00000000    0.00000000    0.00000000
     atom   73 type  1   force =     0.00000000    0.00000000    0.00000000
     atom   74 type  1   force =     0.00000000    0.00000000    0.00000000
     atom   75 type  1   force =     0.00000000    0.00000000    0.00000000
     atom   76 type  1   force =     0.00000000    0.00000000    0.00000000
     atom   77 type  1   force =     0.00000000    0.00000000    0.00000000
     atom   78 type  1   force =     0.00000000    0.00000000    0.00000000
     atom   79 type  1   force =     0.00000000    0.00000000    0.00000000
     atom   80 type  1   force =     0.00000000    0.00000000    0.00000000
     atom   81 type  1   force =     0.00000000    0.00000000    0.00000000
     atom   82 type  1   force =     0.00000000    0.00000000    0.00000000
     atom   83 type  1   force =     0.00000000    0.00000000    0.00000000
     atom   84 type  1   force =     0.00000000    0.00000000    0.00000000
     atom   85 type  1   force =     0.00000000    0.00000000    0.00000000
     atom   86 type  1   force =     0.00000000    0.00000000    0.00000000
     atom   87 type  1   force =     0.00000000    0.00000000    0.00000000
     atom   88 type  1   force =     0.00000000    0.00000000    0.00000000
     atom   89 type  1   force =     0.00000000    0.00000000    0.00000000
     atom   90 type  1   force =     0.00000000    0.00000000    0.00000000
     atom   91 type  1   force =     0.00000000    0.00000000    0.00000000
     atom   92 type  1   force =     0.00000000    0.00000000    0.00000000
     atom   93 type  1   force =     0.00000000    0.00000000    0.00000000
     atom   94 type  1   force =     0.00000000    0.00000000    0.00000000
     atom   95 type  1   force =     0.00000000    0.00000000    0.00000000
     atom   96 type  1   force =     0.00000000    0.00000000    0.00000000
     atom   97 type  1   force =     0.00000000    0.00000000    0.00000000
     atom   98 type  1   force =     0.00000000    0.00000000    0.00000000
     atom   99 type  1   force =     0.00000000    0.00000000    0.00000000
     atom  100 type  1   force =     0.00000000    0.00000000    0.00000000
     atom  101 type  1   force =     0.00000000    0.00000000    0.00000000
     atom  102 type  1   force =     0.00000000    0.00000000    0.00000000
     atom  103 type  1   force =     0.00000000    0.00000000    0.00000000
     atom  104 type  1   force =     0.00000000    0.00000000    0.00000000
     atom  105 type  1   force =     0.00000000    0.00000000    0.00000000
     atom  106 type  1   force =     0.00000000    0.00000000    0.00000000
     atom  107 type  1   force =     0.00000000    0.00000000    0.00000000
     atom  108 type  1   force =     0.00000000    0.00000000    0.00000000
     atom  109 type  2   force =     0.00000000    0.00000000    0.00000000
     atom  110 type  2   force =     0.00000000    0.00000000    0.00000000
     atom  111 type  2   force =     0.00000000    0.00000000    0.00000000
     atom  112 type  2   force =     0.00000000    0.00000000    0.00000000
     atom  113 type  2   force =     0.00000000    0.00000000    0.00000000
     atom  114 type  2   force =     0.00000000    0.00000000    0.00000000
     atom  115 type  2   force =     0.00000000    0.00000000    0.00000000
     atom  116 type  2   force =     0.00000000    0.00000000    0.00000000
     atom  117 type  2   force =     0.00000000    0.00000000    0.00000000
     atom  118 type  2   force =     0.00000000    0.00000000    0.00000000
     atom  119 type  2   force =     0.00000000    0.00000000    0.00000000
     atom  120 type  2   force =     0.00000000    0.00000000    0.00000000
     atom  121 type  2   force =     0.00000000    0.00000000    0.00000000
     atom  122 type  2   force =     0.00000000    0.00000000    0.00000000
     atom  123 type  2   force =     0.00000000    0.00000000    0.00000000
     atom  124 type  2   force =     0.00000000    0.00000000    0.00000000
     atom  125 type  2   force =     0.00000000    0.00000000    0.00000000
     atom  126 type  2   force =     0.00000000    0.00000000    0.00000000
     atom  127 type  2   force =     0.00000000    0.00000000    0.00000000
     atom  128 type  2   force =     0.00000000    0.00000000    0.00000000
     atom  129 type  2   force =     0.00000000    0.00000000    0.00000000
     atom  130 type  2   force =     0.00000000    0.00000000    0.00000000
     atom  131 type  2   force =     0.00000000    0.00000000    0.00000000
     atom  132 type  2   force =     0.00000000    0.00000000    0.00000000
     atom  133 type  2   force =     0.00000000    0.00000000    0.00000000
     atom  134 type  2   force =     0.00000000    0.00000000    0.00000000
     atom  135 type  2   force =     0.00000000    0.00000000    0.00000000
     atom  136 type  2   force =     0.00000000    0.00000000    0.00000000
     atom  137 type  2   force =     0.00000000    0.00000000    0.00000000
     atom  138 type  2   force =     0.00000000    0.00000000    0.00000000
     atom  139 type  2   force =     0.00000000    0.00000000    0.00000000
     atom  140 type  2   force =     0.00000000    0.00000000    0.00000000
     atom  141 type  2   force =     0.00000000    0.00000000    0.00000000
     atom  142 type  2   force =     0.00000000    0.00000000    0.00000000
     atom  143 type  2   force =     0.00000000    0.00000000    0.00000000
     atom  144 type  2   force =     0.00000000    0.00000000    0.00000000
     atom  145 type  2   force =     0.00000000    0.00000000    0.00000000
     atom  146 type  2   force =     0.00000000    0.00000000    0.00000000
     atom  147 type  2   force =     0.00000000    0.00000000    0.00000000
     atom  148 type  2   force =     0.00000000    0.00000000    0.00000000
     atom  149 type  2   force =     0.00000000    0.00000000    0.00000000
     atom  150 type  2   force =     0.00000000    0.00000000    0.00000000
     atom  151 type  2   force =     0.00000000    0.00000000    0.00000000
     atom  152 type  2   force =     0.00000000    0.00000000    0.00000000
     atom  153 type  2   force =     0.00000000    0.00000000    0.00000000
     atom  154 type  2   force =     0.00000000    0.00000000    0.00000000
     atom  155 type  2   force =     0.00000000    0.00000000    0.00000000
     atom  156 type  2   force =     0.00000000    0.00000000    0.00000000
     atom  157 type  2   force =     0.00000000    0.00000000    0.00000000
     atom  158 type  2   force =     0.00000000    0.00000000    0.00000000
     atom  159 type  2   force =     0.00000000    0.00000000    0.00000000
     atom  160 type  2   force =     0.00000000    0.00000000    0.00000000
     atom  161 type  2   force =     0.00000000    0.00000000    0.00000000
     atom  162 type  2   force =     0.00000000    0.00000000    0.00000000
     atom  163 type  2   force =     0.00000000    0.00000000    0.00000000
     atom  164 type  2   force =     0.00000000    0.00000000    0.00000000
     atom  165 type  2   force =     0.00000000    0.00000000    0.00000000
     atom  166 type  2   force =     0.00000000    0.00000000    0.00000000
     atom  167 type  2   force =     0.00000000    0.00000000    0.00000000
     atom  168 type  2   force =     0.00000000    0.00000000    0.00000000
     atom  169 type  2   force =     0.00000000    0.00000000    0.00000000
     atom  170 type  2   force =     0.00000000    0.00000000    0.00000000
     atom  171 type  2   force =     0.00000000    0.00000000    0.00000000
     atom  172 type  2   force =     0.00000000    0.00000000    0.00000000
     atom  173 type  2   force =     0.00000000    0.00000000    0.00000000
     atom  174 type  2   force =     0.00000000    0.00000000    0.00000000
     atom  175 type  2   force =     0.00000000    0.00000000    0.00000000
     atom  176 type  2   force =     0.00000000    0.00000000    0.00000000
     atom  177 type  2   force =     0.00000000    0.00000000    0.00000000
     atom  178 type  2   force =     0.00000000    0.00000000    0.00000000
     atom  179 type  2   force =     0.00000000    0.00000000    0.00000000
     atom  180 type  2   force =     0.00000000    0.00000000    0.00000000
     atom  181 type  2   force =     0.00000000    0.00000000    0.00000000
     atom  182 type  2   force =     0.00000000    0.00000000    0.00000000
     atom  183 type  2   force =     0.00000000    0.00000000    0.00000000
     atom  184 type  2   force =     0.00000000    0.00000000    0.00000000
     atom  185 type  2   force =     0.00000000    0.00000000    0.00000000
     atom  186 type  2   force =     0.00000000    0.00000000    0.00000000
     atom  187 type  2   force =     0.00000000    0.00000000    0.00000000
     atom  188 type  2   force =     0.00000000    0.00000000    0.00000000
     atom  189 type  2   force =     0.00000000    0.00000000    0.00000000
     atom  190 type  2   force =     0.00000000    0.00000000    0.00000000
     atom  191 type  2   force =     0.00000000    0.00000000    0.00000000
     atom  192 type  2   force =     0.00000000    0.00000000    0.00000000
     atom  193 type  2   force =     0.00000000    0.00000000    0.00000000
     atom  194 type  2   force =     0.00000000    0.00000000    0.00000000
     atom  195 type  2   force =     0.00000000    0.00000000    0.00000000
     atom  196 type  2   force =     0.00000000    0.00000000    0.00000000
     atom  197 type  2   force =     0.00000000    0.00000000    0.00000000
     atom  198 type  2   force =     0.00000000    0.00000000    0.00000000
     atom  199 type  2   force =     0.00000000    0.00000000    0.00000000
     atom  200 type  2   force =     0.00000000    0.00000000    0.00000000
     atom  201 type  2   force =     0.00000000    0.00000000    0.00000000
     atom  202 type  2   force =     0.00000000    0.00000000    0.00000000
     atom  203 type  2   force =     0.00000000    0.00000000    0.00000000
     atom  204 type  2   force =     0.00000000    0.00000000    0.00000000
     atom  205 type  2   force =     0.00000000    0.00000000    0.00000000
     atom  206 type  2   force =     0.00000000    0.00000000    0.00000000
     atom  207 type  2   force =     0.00000000    0.00000000    0.00000000
     atom  208 type  2   force =     0.00000000    0.00000000    0.00000000
     atom  209 type  2   force =     0.00000000    0.00000000    0.00000000
     atom  210 type  2   force =     0.00000000    0.00000000    0.00000000
     atom  211 type  2   force =     0.00000000    0.00000000    0.00000000
     atom  212 type  2   force =     0.00000000    0.00000000    0.00000000
     atom  213 type  2   force =     0.00000000    0.00000000    0.00000000
     atom  214 type  2   force =     0.00000000    0.00000000    0.00000000
     atom  215 type  2   force =     0.00000000    0.00000000    0.00000000
     The Hubbard contrib.    to forces
     atom    1 type  1   force =     0.00000000    0.00000000    0.00000000
     atom    2 type  1   force =     0.00000000    0.00000000    0.00000000
     atom    3 type  1   force =     0.00000000    0.00000000    0.00000000
     atom    4 type  1   force =     0.00000000    0.00000000    0.00000000
     atom    5 type  1   force =     0.00000000    0.00000000    0.00000000
     atom    6 type  1   force =     0.00000000    0.00000000    0.00000000
     atom    7 type  1   force =     0.00000000    0.00000000    0.00000000
     atom    8 type  1   force =     0.00000000    0.00000000    0.00000000
     atom    9 type  1   force =     0.00000000    0.00000000    0.00000000
     atom   10 type  1   force =     0.00000000    0.00000000    0.00000000
     atom   11 type  1   force =     0.00000000    0.00000000    0.00000000
     atom   12 type  1   force =     0.00000000    0.00000000    0.00000000
     atom   13 type  1   force =     0.00000000    0.00000000    0.00000000
     atom   14 type  1   force =     0.00000000    0.00000000    0.00000000
     atom   15 type  1   force =     0.00000000    0.00000000    0.00000000
     atom   16 type  1   force =     0.00000000    0.00000000    0.00000000
     atom   17 type  1   force =     0.00000000    0.00000000    0.00000000
     atom   18 type  1   force =     0.00000000    0.00000000    0.00000000
     atom   19 type  1   force =     0.00000000    0.00000000    0.00000000
     atom   20 type  1   force =     0.00000000    0.00000000    0.00000000
     atom   21 type  1   force =     0.00000000    0.00000000    0.00000000
     atom   22 type  1   force =     0.00000000    0.00000000    0.00000000
     atom   23 type  1   force =     0.00000000    0.00000000    0.00000000
     atom   24 type  1   force =     0.00000000    0.00000000    0.00000000
     atom   25 type  1   force =     0.00000000    0.00000000    0.00000000
     atom   26 type  1   force =     0.00000000    0.00000000    0.00000000
     atom   27 type  1   force =     0.00000000    0.00000000    0.00000000
     atom   28 type  1   force =     0.00000000    0.00000000    0.00000000
     atom   29 type  1   force =     0.00000000    0.00000000    0.00000000
     atom   30 type  1   force =     0.00000000    0.00000000    0.00000000
     atom   31 type  1   force =     0.00000000    0.00000000    0.00000000
     atom   32 type  1   force =     0.00000000    0.00000000    0.00000000
     atom   33 type  1   force =     0.00000000    0.00000000    0.00000000
     atom   34 type  1   force =     0.00000000    0.00000000    0.00000000
     atom   35 type  1   force =     0.00000000    0.00000000    0.00000000
     atom   36 type  1   force =     0.00000000    0.00000000    0.00000000
     atom   37 type  1   force =     0.00000000    0.00000000    0.00000000
     atom   38 type  1   force =     0.00000000    0.00000000    0.00000000
     atom   39 type  1   force =     0.00000000    0.00000000    0.00000000
     atom   40 type  1   force =     0.00000000    0.00000000    0.00000000
     atom   41 type  1   force =     0.00000000    0.00000000    0.00000000
     atom   42 type  1   force =     0.00000000    0.00000000    0.00000000
     atom   43 type  1   force =     0.00000000    0.00000000    0.00000000
     atom   44 type  1   force =     0.00000000    0.00000000    0.00000000
     atom   45 type  1   force =     0.00000000    0.00000000    0.00000000
     atom   46 type  1   force =     0.00000000    0.00000000    0.00000000
     atom   47 type  1   force =     0.00000000    0.00000000    0.00000000
     atom   48 type  1   force =     0.00000000    0.00000000    0.00000000
     atom   49 type  1   force =     0.00000000    0.00000000    0.00000000
     atom   50 type  1   force =     0.00000000    0.00000000    0.00000000
     atom   51 type  1   force =     0.00000000    0.00000000    0.00000000
     atom   52 type  1   force =     0.00000000    0.00000000    0.00000000
     atom   53 type  1   force =     0.00000000    0.00000000    0.00000000
     atom   54 type  1   force =     0.00000000    0.00000000    0.00000000
     atom   55 type  1   force =     0.00000000    0.00000000    0.00000000
     atom   56 type  1   force =     0.00000000    0.00000000    0.00000000
     atom   57 type  1   force =     0.00000000    0.00000000    0.00000000
     atom   58 type  1   force =     0.00000000    0.00000000    0.00000000
     atom   59 type  1   force =     0.00000000    0.00000000    0.00000000
     atom   60 type  1   force =     0.00000000    0.00000000    0.00000000
     atom   61 type  1   force =     0.00000000    0.00000000    0.00000000
     atom   62 type  1   force =     0.00000000    0.00000000    0.00000000
     atom   63 type  1   force =     0.00000000    0.00000000    0.00000000
     atom   64 type  1   force =     0.00000000    0.00000000    0.00000000
     atom   65 type  1   force =     0.00000000    0.00000000    0.00000000
     atom   66 type  1   force =     0.00000000    0.00000000    0.00000000
     atom   67 type  1   force =     0.00000000    0.00000000    0.00000000
     atom   68 type  1   force =     0.00000000    0.00000000    0.00000000
     atom   69 type  1   force =     0.00000000    0.00000000    0.00000000
     atom   70 type  1   force =     0.00000000    0.00000000    0.00000000
     atom   71 type  1   force =     0.00000000    0.00000000    0.00000000
     atom   72 type  1   force =     0.00000000    0.00000000    0.00000000
     atom   73 type  1   force =     0.00000000    0.00000000    0.00000000
     atom   74 type  1   force =     0.00000000    0.00000000    0.00000000
     atom   75 type  1   force =     0.00000000    0.00000000    0.00000000
     atom   76 type  1   force =     0.00000000    0.00000000    0.00000000
     atom   77 type  1   force =     0.00000000    0.00000000    0.00000000
     atom   78 type  1   force =     0.00000000    0.00000000    0.00000000
     atom   79 type  1   force =     0.00000000    0.00000000    0.00000000
     atom   80 type  1   force =     0.00000000    0.00000000    0.00000000
     atom   81 type  1   force =     0.00000000    0.00000000    0.00000000
     atom   82 type  1   force =     0.00000000    0.00000000    0.00000000
     atom   83 type  1   force =     0.00000000    0.00000000    0.00000000
     atom   84 type  1   force =     0.00000000    0.00000000    0.00000000
     atom   85 type  1   force =     0.00000000    0.00000000    0.00000000
     atom   86 type  1   force =     0.00000000    0.00000000    0.00000000
     atom   87 type  1   force =     0.00000000    0.00000000    0.00000000
     atom   88 type  1   force =     0.00000000    0.00000000    0.00000000
     atom   89 type  1   force =     0.00000000    0.00000000    0.00000000
     atom   90 type  1   force =     0.00000000    0.00000000    0.00000000
     atom   91 type  1   force =     0.00000000    0.00000000    0.00000000
     atom   92 type  1   force =     0.00000000    0.00000000    0.00000000
     atom   93 type  1   force =     0.00000000    0.00000000    0.00000000
     atom   94 type  1   force =     0.00000000    0.00000000    0.00000000
     atom   95 type  1   force =     0.00000000    0.00000000    0.00000000
     atom   96 type  1   force =     0.00000000    0.00000000    0.00000000
     atom   97 type  1   force =     0.00000000    0.00000000    0.00000000
     atom   98 type  1   force =     0.00000000    0.00000000    0.00000000
     atom   99 type  1   force =     0.00000000    0.00000000    0.00000000
     atom  100 type  1   force =     0.00000000    0.00000000    0.00000000
     atom  101 type  1   force =     0.00000000    0.00000000    0.00000000
     atom  102 type  1   force =     0.00000000    0.00000000    0.00000000
     atom  103 type  1   force =     0.00000000    0.00000000    0.00000000
     atom  104 type  1   force =     0.00000000    0.00000000    0.00000000
     atom  105 type  1   force =     0.00000000    0.00000000    0.00000000
     atom  106 type  1   force =     0.00000000    0.00000000    0.00000000
     atom  107 type  1   force =     0.00000000    0.00000000    0.00000000
     atom  108 type  1   force =     0.00000000    0.00000000    0.00000000
     atom  109 type  2   force =     0.00000000    0.00000000    0.00000000
     atom  110 type  2   force =     0.00000000    0.00000000    0.00000000
     atom  111 type  2   force =     0.00000000    0.00000000    0.00000000
     atom  112 type  2   force =     0.00000000    0.00000000    0.00000000
     atom  113 type  2   force =     0.00000000    0.00000000    0.00000000
     atom  114 type  2   force =     0.00000000    0.00000000    0.00000000
     atom  115 type  2   force =     0.00000000    0.00000000    0.00000000
     atom  116 type  2   force =     0.00000000    0.00000000    0.00000000
     atom  117 type  2   force =     0.00000000    0.00000000    0.00000000
     atom  118 type  2   force =     0.00000000    0.00000000    0.00000000
     atom  119 type  2   force =     0.00000000    0.00000000    0.00000000
     atom  120 type  2   force =     0.00000000    0.00000000    0.00000000
     atom  121 type  2   force =     0.00000000    0.00000000    0.00000000
     atom  122 type  2   force =     0.00000000    0.00000000    0.00000000
     atom  123 type  2   force =     0.00000000    0.00000000    0.00000000
     atom  124 type  2   force =     0.00000000    0.00000000    0.00000000
     atom  125 type  2   force =     0.00000000    0.00000000    0.00000000
     atom  126 type  2   force =     0.00000000    0.00000000    0.00000000
     atom  127 type  2   force =     0.00000000    0.00000000    0.00000000
     atom  128 type  2   force =     0.00000000    0.00000000    0.00000000
     atom  129 type  2   force =     0.00000000    0.00000000    0.00000000
     atom  130 type  2   force =     0.00000000    0.00000000    0.00000000
     atom  131 type  2   force =     0.00000000    0.00000000    0.00000000
     atom  132 type  2   force =     0.00000000    0.00000000    0.00000000
     atom  133 type  2   force =     0.00000000    0.00000000    0.00000000
     atom  134 type  2   force =     0.00000000    0.00000000    0.00000000
     atom  135 type  2   force =     0.00000000    0.00000000    0.00000000
     atom  136 type  2   force =     0.00000000    0.00000000    0.00000000
     atom  137 type  2   force =     0.00000000    0.00000000    0.00000000
     atom  138 type  2   force =     0.00000000    0.00000000    0.00000000
     atom  139 type  2   force =     0.00000000    0.00000000    0.00000000
     atom  140 type  2   force =     0.00000000    0.00000000    0.00000000
     atom  141 type  2   force =     0.00000000    0.00000000    0.00000000
     atom  142 type  2   force =     0.00000000    0.00000000    0.00000000
     atom  143 type  2   force =     0.00000000    0.00000000    0.00000000
     atom  144 type  2   force =     0.00000000    0.00000000    0.00000000
     atom  145 type  2   force =     0.00000000    0.00000000    0.00000000
     atom  146 type  2   force =     0.00000000    0.00000000    0.00000000
     atom  147 type  2   force =     0.00000000    0.00000000    0.00000000
     atom  148 type  2   force =     0.00000000    0.00000000    0.00000000
     atom  149 type  2   force =     0.00000000    0.00000000    0.00000000
     atom  150 type  2   force =     0.00000000    0.00000000    0.00000000
     atom  151 type  2   force =     0.00000000    0.00000000    0.00000000
     atom  152 type  2   force =     0.00000000    0.00000000    0.00000000
     atom  153 type  2   force =     0.00000000    0.00000000    0.00000000
     atom  154 type  2   force =     0.00000000    0.00000000    0.00000000
     atom  155 type  2   force =     0.00000000    0.00000000    0.00000000
     atom  156 type  2   force =     0.00000000    0.00000000    0.00000000
     atom  157 type  2   force =     0.00000000    0.00000000    0.00000000
     atom  158 type  2   force =     0.00000000    0.00000000    0.00000000
     atom  159 type  2   force =     0.00000000    0.00000000    0.00000000
     atom  160 type  2   force =     0.00000000    0.00000000    0.00000000
     atom  161 type  2   force =     0.00000000    0.00000000    0.00000000
     atom  162 type  2   force =     0.00000000    0.00000000    0.00000000
     atom  163 type  2   force =     0.00000000    0.00000000    0.00000000
     atom  164 type  2   force =     0.00000000    0.00000000    0.00000000
     atom  165 type  2   force =     0.00000000    0.00000000    0.00000000
     atom  166 type  2   force =     0.00000000    0.00000000    0.00000000
     atom  167 type  2   force =     0.00000000    0.00000000    0.00000000
     atom  168 type  2   force =     0.00000000    0.00000000    0.00000000
     atom  169 type  2   force =     0.00000000    0.00000000    0.00000000
     atom  170 type  2   force =     0.00000000    0.00000000    0.00000000
     atom  171 type  2   force =     0.00000000    0.00000000    0.00000000
     atom  172 type  2   force =     0.00000000    0.00000000    0.00000000
     atom  173 type  2   force =     0.00000000    0.00000000    0.00000000
     atom  174 type  2   force =     0.00000000    0.00000000    0.00000000
     atom  175 type  2   force =     0.00000000    0.00000000    0.00000000
     atom  176 type  2   force =     0.00000000    0.00000000    0.00000000
     atom  177 type  2   force =     0.00000000    0.00000000    0.00000000
     atom  178 type  2   force =     0.00000000    0.00000000    0.00000000
     atom  179 type  2   force =     0.00000000    0.00000000    0.00000000
     atom  180 type  2   force =     0.00000000    0.00000000    0.00000000
     atom  181 type  2   force =     0.00000000    0.00000000    0.00000000
     atom  182 type  2   force =     0.00000000    0.00000000    0.00000000
     atom  183 type  2   force =     0.00000000    0.00000000    0.00000000
     atom  184 type  2   force =     0.00000000    0.00000000    0.00000000
     atom  185 type  2   force =     0.00000000    0.00000000    0.00000000
     atom  186 type  2   force =     0.00000000    0.00000000    0.00000000
     atom  187 type  2   force =     0.00000000    0.00000000    0.00000000
     atom  188 type  2   force =     0.00000000    0.00000000    0.00000000
     atom  189 type  2   force =     0.00000000    0.00000000    0.00000000
     atom  190 type  2   force =     0.00000000    0.00000000    0.00000000
     atom  191 type  2   force =     0.00000000    0.00000000    0.00000000
     atom  192 type  2   force =     0.00000000    0.00000000    0.00000000
     atom  193 type  2   force =     0.00000000    0.00000000    0.00000000
     atom  194 type  2   force =     0.00000000    0.00000000    0.00000000
     atom  195 type  2   force =     0.00000000    0.00000000    0.00000000
     atom  196 type  2   force =     0.00000000    0.00000000    0.00000000
     atom  197 type  2   force =     0.00000000    0.00000000    0.00000000
     atom  198 type  2   force =     0.00000000    0.00000000    0.00000000
     atom  199 type  2   force =     0.00000000    0.00000000    0.00000000
     atom  200 type  2   force =     0.00000000    0.00000000    0.00000000
     atom  201 type  2   force =     0.00000000    0.00000000    0.00000000
     atom  202 type  2   force =     0.00000000    0.00000000    0.00000000
     atom  203 type  2   force =     0.00000000    0.00000000    0.00000000
     atom  204 type  2   force =     0.00000000    0.00000000    0.00000000
     atom  205 type  2   force =     0.00000000    0.00000000    0.00000000
     atom  206 type  2   force =     0.00000000    0.00000000    0.00000000
     atom  207 type  2   force =     0.00000000    0.00000000    0.00000000
     atom  208 type  2   force =     0.00000000    0.00000000    0.00000000
     atom  209 type  2   force =     0.00000000    0.00000000    0.00000000
     atom  210 type  2   force =     0.00000000    0.00000000    0.00000000
     atom  211 type  2   force =     0.00000000    0.00000000    0.00000000
     atom  212 type  2   force =     0.00000000    0.00000000    0.00000000
     atom  213 type  2   force =     0.00000000    0.00000000    0.00000000
     atom  214 type  2   force =     0.00000000    0.00000000    0.00000000
     atom  215 type  2   force =     0.00000000    0.00000000    0.00000000
     The SCF correction term to forces
     atom    1 type  1   force =    -0.00000000    0.00000000    0.00000000
     atom    2 type  1   force =     0.00000000   -0.00000001    0.00000019
     atom    3 type  1   force =    -0.00000000    0.00000001   -0.00000019
     atom    4 type  1   force =    -0.00000000    0.00000019   -0.00000001
     atom    5 type  1   force =    -0.00000000   -0.00000038   -0.00000038
     atom    6 type  1   force =    -0.00000001   -0.00000039    0.00000038
     atom    7 type  1   force =     0.00000000   -0.00000019    0.00000001
     atom    8 type  1   force =     0.00000001    0.00000039   -0.00000038
     atom    9 type  1   force =     0.00000000    0.00000038    0.00000038
     atom   10 type  1   force =     0.00000019   -0.00000000    0.00000000
     atom   11 type  1   force =    -0.00000039   -0.00000001   -0.00000040
     atom   12 type  1   force =    -0.00000039   -0.00000001    0.00000040
     atom   13 type  1   force =    -0.00000038   -0.00000039   -0.00000000
     atom   14 type  1   force =    -0.00000319   -0.00000318   -0.00000319
     atom   15 type  1   force =    -0.00000319   -0.00000318    0.00000319
     atom   16 type  1   force =    -0.00000038    0.00000039    0.00000000
     atom   17 type  1   force =    -0.00000320    0.00000318   -0.00000319
     atom   18 type  1   force =    -0.00000320    0.00000318    0.00000319
     atom   19 type  1   force =    -0.00000019    0.00000000   -0.00000000
     atom   20 type  1   force =     0.00000039    0.00000001   -0.00000040
     atom   21 type  1   force =     0.00000039    0.00000001    0.00000040
     atom   22 type  1   force =     0.00000038   -0.00000039   -0.00000000
     atom   23 type  1   force =     0.00000320   -0.00000318   -0.00000319
     atom   24 type  1   force =     0.00000320   -0.00000318    0.00000319
     atom   25 type  1   force =     0.00000038    0.00000039    0.00000000
     atom   26 type  1   force =     0.00000319    0.00000318   -0.00000319
     atom   27 type  1   force =     0.00000319    0.00000318    0.00000319
     atom   28 type  1   force =    -0.00000000    0.00000007    0.00000008
     atom   29 type  1   force =    -0.00000000   -0.00000067    0.00000001
     atom   30 type  1   force =    -0.00000000    0.00000007   -0.00000008
     atom   31 type  1   force =    -0.00000000    0.00000001   -0.00000067
     atom   32 type  1   force =    -0.00000000   -0.00000000    0.00000000
     atom   33 type  1   force =     0.00000000   -0.00000001    0.00000067
     atom   34 type  1   force =     0.00000000   -0.00000007    0.00000008
     atom   35 type  1   force =     0.00000000    0.00000067   -0.00000001
     atom   36 type  1   force =     0.00000000   -0.00000007   -0.00000008
     atom   37 type  1   force =     0.00000005   -0.00000038   -0.00000038
     atom   38 type  1   force =    -0.00000204   -0.00000088   -0.00000000
     atom   39 type  1   force =     0.00000005   -0.00000038    0.00000038
     atom   40 type  1   force =    -0.00000205    0.00000001   -0.00000089
     atom   41 type  1   force =    -0.00001131    0.00000000    0.00000000
     atom   42 type  1   force =    -0.00000205   -0.00000000    0.00000089
     atom   43 type  1   force =     0.00000004    0.00000037   -0.00000038
     atom   44 type  1   force =    -0.00000204    0.00000089   -0.00000001
     atom   45 type  1   force =     0.00000004    0.00000037    0.00000038
     atom   46 type  1   force =    -0.00000004   -0.00000037   -0.00000038
     atom   47 type  1   force =     0.00000204   -0.00000089    0.00000001
     atom   48 type  1   force =    -0.00000004   -0.00000037    0.00000038
     atom   49 type  1   force =     0.00000205    0.00000000   -0.00000089
     atom   50 type  1   force =     0.00001131   -0.00000000   -0.00000000
     atom   51 type  1   force =     0.00000205   -0.00000001    0.00000089
     atom   52 type  1   force =    -0.00000005    0.00000038   -0.00000038
     atom   53 type  1   force =     0.00000204    0.00000088    0.00000000
     atom   54 type  1   force =    -0.00000005    0.00000038    0.00000038
     atom   55 type  1   force =     0.00000006    0.00000000    0.00000008
     atom   56 type  1   force =    -0.00000069   -0.00000000   -0.00000000
     atom   57 type  1   force =     0.00000006   -0.00000000   -0.00000008
     atom   58 type  1   force =    -0.00000038    0.00000006   -0.00000037
     atom   59 type  1   force =    -0.00000091   -0.00000205    0.00000001
     atom   60 type  1   force =    -0.00000039    0.00000005    0.00000037
     atom   61 type  1   force =    -0.00000038   -0.00000005   -0.00000037
     atom   62 type  1   force =    -0.00000092    0.00000205   -0.00000001
     atom   63 type  1   force =    -0.00000037   -0.00000005    0.00000037
     atom   64 type  1   force =    -0.00000000    0.00000000   -0.00000069
     atom   65 type  1   force =    -0.00000000   -0.00000000   -0.00000000
     atom   66 type  1   force =     0.00000000   -0.00000000    0.00000069
     atom   67 type  1   force =     0.00000000   -0.00000204   -0.00000091
     atom   68 type  1   force =     0.00000000   -0.00001132    0.00000000
     atom   69 type  1   force =     0.00000000   -0.00000204    0.00000092
     atom   70 type  1   force =    -0.00000000    0.00000204   -0.00000092
     atom   71 type  1   force =    -0.00000000    0.00001132   -0.00000000
     atom   72 type  1   force =    -0.00000000    0.00000204    0.00000091
     atom   73 type  1   force =    -0.00000006    0.00000000    0.00000008
     atom   74 type  1   force =     0.00000069    0.00000000    0.00000000
     atom   75 type  1   force =    -0.00000006   -0.00000000   -0.00000008
     atom   76 type  1   force =     0.00000037    0.00000005   -0.00000037
     atom   77 type  1   force =     0.00000092   -0.00000205    0.00000001
     atom   78 type  1   force =     0.00000038    0.00000005    0.00000037
     atom   79 type  1   force =     0.00000039   -0.00000005   -0.00000037
     atom   80 type  1   force =     0.00000091    0.00000205   -0.00000001
     atom   81 type  1   force =     0.00000038   -0.00000006    0.00000037
     atom   82 type  1   force =     0.00000006    0.00000007   -0.00000000
     atom   83 type  1   force =    -0.00000039   -0.00000039    0.00000004
     atom   84 type  1   force =    -0.00000039   -0.00000038   -0.00000004
     atom   85 type  1   force =    -0.00000068    0.00000000   -0.00000000
     atom   86 type  1   force =    -0.00000091    0.00000001   -0.00000206
     atom   87 type  1   force =    -0.00000090   -0.00000000    0.00000206
     atom   88 type  1   force =     0.00000007   -0.00000008    0.00000000
     atom   89 type  1   force =    -0.00000039    0.00000038    0.00000004
     atom   90 type  1   force =    -0.00000038    0.00000038   -0.00000004
     atom   91 type  1   force =     0.00000000   -0.00000067   -0.00000000
     atom   92 type  1   force =     0.00000000   -0.00000090   -0.00000204
     atom   93 type  1   force =     0.00000001   -0.00000090    0.00000203
     atom   94 type  1   force =    -0.00000000    0.00000000    0.00000000
     atom   95 type  1   force =     0.00000000    0.00000000   -0.00001132
     atom   96 type  1   force =    -0.00000000   -0.00000000    0.00001132
     atom   97 type  1   force =    -0.00000000    0.00000067    0.00000000
     atom   98 type  1   force =    -0.00000001    0.00000090   -0.00000203
     atom   99 type  1   force =    -0.00000000    0.00000090    0.00000204
     atom  100 type  1   force =    -0.00000007    0.00000008   -0.00000000
     atom  101 type  1   force =     0.00000038   -0.00000038    0.00000004
     atom  102 type  1   force =     0.00000039   -0.00000038   -0.00000004
     atom  103 type  1   force =     0.00000068   -0.00000000    0.00000000
     atom  104 type  1   force =     0.00000090    0.00000000   -0.00000206
     atom  105 type  1   force =     0.00000091   -0.00000001    0.00000206
     atom  106 type  1   force =    -0.00000006   -0.00000007    0.00000000
     atom  107 type  1   force =     0.00000039    0.00000038    0.00000004
     atom  108 type  1   force =     0.00000039    0.00000039   -0.00000004
     atom  109 type  2   force =     0.00000000    0.00000012   -0.00000001
     atom  110 type  2   force =    -0.00000000    0.00000006    0.00000031
     atom  111 type  2   force =    -0.00000001    0.00000006   -0.00000031
     atom  112 type  2   force =    -0.00000000    0.00000000   -0.00000000
     atom  113 type  2   force =    -0.00000000    0.00000001   -0.00000030
     atom  114 type  2   force =     0.00000000   -0.00000001    0.00000030
     atom  115 type  2   force =    -0.00000000   -0.00000012    0.00000001
     atom  116 type  2   force =     0.00000001   -0.00000006    0.00000031
     atom  117 type  2   force =     0.00000000   -0.00000006   -0.00000031
     atom  118 type  2   force =     0.00000031    0.00000006    0.00000000
     atom  119 type  2   force =     0.00000010    0.00000033    0.00000008
     atom  120 type  2   force =     0.00000010    0.00000035   -0.00000009
     atom  121 type  2   force =    -0.00000028    0.00000000   -0.00000000
     atom  122 type  2   force =     0.00000386    0.00000001    0.00000385
     atom  123 type  2   force =     0.00000385   -0.00000000   -0.00000384
     atom  124 type  2   force =     0.00000032   -0.00000006   -0.00000000
     atom  125 type  2   force =     0.00000010   -0.00000034    0.00000010
     atom  126 type  2   force =     0.00000009   -0.00000034   -0.00000009
     atom  127 type  2   force =    -0.00000032    0.00000006    0.00000000
     atom  128 type  2   force =    -0.00000009    0.00000034    0.00000009
     atom  129 type  2   force =    -0.00000010    0.00000034   -0.00000010
     atom  130 type  2   force =     0.00000028   -0.00000000    0.00000000
     atom  131 type  2   force =    -0.00000385    0.00000000    0.00000384
     atom  132 type  2   force =    -0.00000386   -0.00000001   -0.00000385
     atom  133 type  2   force =    -0.00000031   -0.00000006   -0.00000000
     atom  134 type  2   force =    -0.00000010   -0.00000035    0.00000009
     atom  135 type  2   force =    -0.00000010   -0.00000033   -0.00000008
     atom  136 type  2   force =     0.00000000   -0.00000001    0.00000013
     atom  137 type  2   force =    -0.00000000    0.00000000    0.00000000
     atom  138 type  2   force =    -0.00000000    0.00000001   -0.00000013
     atom  139 type  2   force =    -0.00000001    0.00000032    0.00000007
     atom  140 type  2   force =    -0.00000001   -0.00000030    0.00000001
     atom  141 type  2   force =     0.00000001    0.00000031   -0.00000006
     atom  142 type  2   force =    -0.00000001   -0.00000031    0.00000006
     atom  143 type  2   force =     0.00000001    0.00000030   -0.00000001
     atom  144 type  2   force =     0.00000001   -0.00000032   -0.00000007
     atom  145 type  2   force =     0.00000031    0.00000001    0.00000006
     atom  146 type  2   force =    -0.00000029   -0.00000001   -0.00000000
     atom  147 type  2   force =     0.00000032   -0.00000000   -0.00000006
     atom  148 type  2   force =     0.00000009    0.00000009    0.00000033
     atom  149 type  2   force =     0.00000386    0.00000385    0.00000001
     atom  150 type  2   force =     0.00000009    0.00000011   -0.00000034
     atom  151 type  2   force =     0.00000010   -0.00000010    0.00000034
     atom  152 type  2   force =     0.00000386   -0.00000385    0.00000000
     atom  153 type  2   force =     0.00000009   -0.00000010   -0.00000034
     atom  154 type  2   force =    -0.00000032    0.00000000    0.00000006
     atom  155 type  2   force =     0.00000029    0.00000001    0.00000000
     atom  156 type  2   force =    -0.00000031   -0.00000001   -0.00000006
     atom  157 type  2   force =    -0.00000009    0.00000010    0.00000034
     atom  158 type  2   force =    -0.00000386    0.00000385   -0.00000000
     atom  159 type  2   force =    -0.00000010    0.00000010   -0.00000034
     atom  160 type  2   force =    -0.00000009   -0.00000011    0.00000034
     atom  161 type  2   force =    -0.00000386   -0.00000385   -0.00000001
     atom  162 type  2   force =    -0.00000009   -0.00000009   -0.00000033
     atom  163 type  2   force =     0.00000005    0.00000004    0.00000005
     atom  164 type  2   force =     0.00000100    0.00000102    0.00000000
     atom  165 type  2   force =     0.00000003    0.00000005   -0.00000005
     atom  166 type  2   force =     0.00000102    0.00000000    0.00000103
     atom  167 type  2   force =    -0.00000131    0.00000001    0.00000000
     atom  168 type  2   force =     0.00000103   -0.00000000   -0.00000103
     atom  169 type  2   force =     0.00000004   -0.00000005    0.00000006
     atom  170 type  2   force =     0.00000100   -0.00000103   -0.00000001
     atom  171 type  2   force =     0.00000005   -0.00000005   -0.00000006
     atom  172 type  2   force =    -0.00000000    0.00000103    0.00000101
     atom  173 type  2   force =     0.00000001   -0.00000128    0.00000000
     atom  174 type  2   force =    -0.00000000    0.00000102   -0.00000100
     atom  175 type  2   force =     0.00000000    0.00000000   -0.00000131
     atom  176 type  2   force =    -0.00000000   -0.00000000    0.00000131
     atom  177 type  2   force =     0.00000000   -0.00000102    0.00000100
     atom  178 type  2   force =    -0.00000001    0.00000128   -0.00000000
     atom  179 type  2   force =     0.00000000   -0.00000103   -0.00000101
     atom  180 type  2   force =    -0.00000005    0.00000005    0.00000006
     atom  181 type  2   force =    -0.00000100    0.00000103    0.00000001
     atom  182 type  2   force =    -0.00000004    0.00000005   -0.00000006
     atom  183 type  2   force =    -0.00000103    0.00000000    0.00000103
     atom  184 type  2   force =     0.00000131   -0.00000001   -0.00000000
     atom  185 type  2   force =    -0.00000102   -0.00000000   -0.00000103
     atom  186 type  2   force =    -0.00000003   -0.00000005    0.00000005
     atom  187 type  2   force =    -0.00000100   -0.00000102   -0.00000000
     atom  188 type  2   force =    -0.00000005   -0.00000004   -0.00000005
     atom  189 type  2   force =     0.00000013    0.00000000   -0.00000000
     atom  190 type  2   force =     0.00000004   -0.00000000    0.00000030
     atom  191 type  2   force =     0.00000005   -0.00000000   -0.00000031
     atom  192 type  2   force =     0.00000005    0.00000031   -0.00000001
     atom  193 type  2   force =     0.00000033    0.00000011    0.00000009
     atom  194 type  2   force =     0.00000034    0.00000011   -0.00000009
     atom  195 type  2   force =     0.00000005   -0.00000031   -0.00000000
     atom  196 type  2   force =     0.00000033   -0.00000010    0.00000010
     atom  197 type  2   force =     0.00000034   -0.00000011   -0.00000009
     atom  198 type  2   force =    -0.00000000    0.00000000    0.00000000
     atom  199 type  2   force =     0.00000000   -0.00000001   -0.00000030
     atom  200 type  2   force =    -0.00000000    0.00000001    0.00000030
     atom  201 type  2   force =     0.00000000   -0.00000029   -0.00000001
     atom  202 type  2   force =     0.00000001    0.00000386    0.00000387
     atom  203 type  2   force =    -0.00000000    0.00000386   -0.00000386
     atom  204 type  2   force =    -0.00000000    0.00000029    0.00000001
     atom  205 type  2   force =     0.00000000   -0.00000386    0.00000386
     atom  206 type  2   force =    -0.00000001   -0.00000386   -0.00000387
     atom  207 type  2   force =    -0.00000013   -0.00000000    0.00000000
     atom  208 type  2   force =    -0.00000005    0.00000000    0.00000031
     atom  209 type  2   force =    -0.00000004    0.00000000   -0.00000030
     atom  210 type  2   force =    -0.00000005    0.00000031    0.00000000
     atom  211 type  2   force =    -0.00000034    0.00000011    0.00000009
     atom  212 type  2   force =    -0.00000033    0.00000010   -0.00000010
     atom  213 type  2   force =    -0.00000005   -0.00000031    0.00000001
     atom  214 type  2   force =    -0.00000034   -0.00000011    0.00000009
     atom  215 type  2   force =    -0.00000033   -0.00000011   -0.00000009

     Total force =     0.002399     Total SCF correction =     0.000039

     Writing output data file pwscf.save
 
     init_run     :      3.57s CPU      3.98s WALL (       1 calls)
     electrons    :  36177.41s CPU  36484.24s WALL (       6 calls)
     forces       :      1.06s CPU      1.09s WALL (       1 calls)

     Called by init_run:
     wfcinit      :      3.06s CPU      3.35s WALL (       1 calls)
     wfcinit:atom :      0.00s CPU      0.00s WALL (       2 calls)
     wfcinit:wfcr :      3.02s CPU      3.28s WALL (       2 calls)
     potinit      :      0.08s CPU      0.08s WALL (       1 calls)

     Called by electrons:
     c_bands      :  36153.64s CPU  36459.12s WALL (      32 calls)
     sum_band     :     21.23s CPU     21.79s WALL (      32 calls)
     v_of_rho     :      1.34s CPU      1.36s WALL (      34 calls)
     v_h          :      0.07s CPU      0.07s WALL (      34 calls)
     v_xc         :      1.28s CPU      1.29s WALL (      34 calls)
     mix_rho      :      0.12s CPU      0.13s WALL (      32 calls)

     Called by c_bands:
     init_us_2    :      0.96s CPU      1.39s WALL (     154 calls)
     regterg      :  36151.43s CPU  36456.61s WALL (      72 calls)

     Called by sum_band:

     Called by *egterg:
     h_psi        :  35252.97s CPU  35537.41s WALL (     709 calls)
     g_psi        :      0.31s CPU      0.31s WALL (     635 calls)
     rdiaghg      :    785.03s CPU    801.53s WALL (     689 calls)
     regterg:over :     49.45s CPU     50.46s WALL (     635 calls)
     regterg:upda :     34.42s CPU     35.21s WALL (     635 calls)
     regterg:last :     17.61s CPU     17.89s WALL (      84 calls)
     rdiaghg:chol :     20.66s CPU     21.47s WALL (     689 calls)
     rdiaghg:inve :     21.38s CPU     21.47s WALL (     689 calls)
     rdiaghg:para :     46.86s CPU     50.03s WALL (    1378 calls)

     Called by h_psi:
     h_psi:pot    :    175.86s CPU    180.17s WALL (     709 calls)
     h_psi:calbec :     22.59s CPU     23.17s WALL (     709 calls)
     vloc_psi     :    134.64s CPU    137.78s WALL (     709 calls)
     add_vuspsi   :     18.63s CPU     19.21s WALL (     709 calls)

     General routines
     calbec       :     25.29s CPU     25.91s WALL (     739 calls)
     fft          :      1.22s CPU      1.33s WALL (     697 calls)
     fftw         :    150.91s CPU    154.50s WALL (  256286 calls)
     fftc         :  23762.69s CPU  23918.46s WALL (24463814 calls)
     fftcw        :    784.50s CPU    791.04s WALL ( 1180644 calls)
 
     Parallel routines
     fft_scatter  :  15051.21s CPU  15170.25s WALL (25901441 calls)

     EXX routines
     exx_grid     :      0.00s CPU      0.00s WALL (       1 calls)
     exxinit      :      8.24s CPU      8.55s WALL (       6 calls)
     vexx         :  35076.39s CPU  35356.34s WALL (     562 calls)
     exxenergy    :   2700.03s CPU   2718.45s WALL (      11 calls)
 
     PWSCF        :    10h48m CPU       10h53m WALL

 
   This run was terminated on:  11:44:23   1Mar2023            

=------------------------------------------------------------------------------=
   JOB DONE.
=------------------------------------------------------------------------------=
