MPI startup(): shm:dapl fabric is unknown or has been removed from the product, please use ofi or shm:ofi instead.

     Program PWSCF v.7.2 starts on 24Aug2023 at  2:58:14 

     This program is part of the open-source Quantum ESPRESSO suite
     for quantum simulation of materials; please cite
         "P. Giannozzi et al., J. Phys.:Condens. Matter 21 395502 (2009);
         "P. Giannozzi et al., J. Phys.:Condens. Matter 29 465901 (2017);
         "P. Giannozzi et al., J. Chem. Phys. 152 154105 (2020);
          URL http://www.quantum-espresso.org", 
     in publications or presentations arising from this work. More details at
     http://www.quantum-espresso.org/quote

     Parallel version (MPI & OpenMP), running on     112 processor cores
     Number of MPI processes:               112
     Threads/MPI process:                     1

     MPI processes distributed on     4 nodes
     49523 MiB available memory on the printing compute node when the environment starts
 
     Reading input from pw.in

     Current dimensions of program PWSCF are:
     Max number of different atomic species (ntypx) = 10
     Max number of k-points (npk) =  40000
     Max angular momentum in pseudopotentials (lmaxx) =  4

     IMPORTANT: XC functional enforced from input :
     Exchange-correlation= PBE0
                           (   6   4   8   4   0   0   0)
     EXX-fraction              =        0.25
     Any further DFT definition will be discarded
     Please, verify this is what you really want

     EXX fraction changed:   0.18

     gamma-point specific algorithms are used
     Message from routine setup:
     using ibrav=0 with symmetry is DISCOURAGED, use correct ibrav instead
 
     K-points division:     npool     =       2
     band groups division:  nbgrp     =       4
     R & G space division:  proc/nbgrp/npool/nimage =      14
     Subspace diagonalization in iterative solution of the eigenvalue problem:
     one sub-group per band group will be used
     scalapack distributed-memory algorithm (size of sub-group:  3*  3 procs)

     EXX: q-point mesh:     1    1    1
     EXX: grid of k+q points same as grid of k-points
 
     Parallelization info
     --------------------
     sticks:   dense  smooth     PW     G-vecs:    dense   smooth      PW
     Min         550     550    137                36562    36562    4569
     Max         552     552    140                36572    36572    4576
     Sum        7721    7721   1933               511971   511971   63989
 
     Using Slab Decomposition
 


     bravais-lattice index     =            0
     lattice parameter (alat)  =      20.1256  a.u.
     unit-cell volume          =    8151.6481 (a.u.)^3
     number of atoms/cell      =          215
     number of atomic types    =            2
     number of electrons       =       862.00 (up: 432.00, down: 430.00)
     number of Kohn-Sham states=          864
     kinetic-energy cutoff     =      60.0000  Ry
     charge density cutoff     =     240.0000  Ry
     cutoff for Fock operator  =     120.0000  Ry
     scf convergence threshold =      1.0E-08
     mixing beta               =       0.3000
     number of iterations used =            8  plain     mixing
     Exchange-correlation= PBE0
                           (   6   4   8   4   0   0   0)
     EXX-fraction              =        0.18

     celldm(1)=  20.125583  celldm(2)=   0.000000  celldm(3)=   0.000000
     celldm(4)=   0.000000  celldm(5)=   0.000000  celldm(6)=   0.000000

     crystal axes: (cart. coord. in units of alat)
               a(1) = (   1.000000   0.000000   0.000000 )  
               a(2) = (   0.000000   1.000000   0.000000 )  
               a(3) = (   0.000000   0.000000   1.000000 )  

     reciprocal axes: (cart. coord. in units 2 pi/alat)
               b(1) = (  1.000000  0.000000  0.000000 )  
               b(2) = (  0.000000  1.000000  0.000000 )  
               b(3) = (  0.000000  0.000000  1.000000 )  


     PseudoPot. # 1 for C  read from file:
     ./C_ONCV_PBE-1.0.upf
     MD5 check sum: 40f8c33130f0afa4272e9dcc1c4fb0df
     Pseudo is Norm-conserving, Zval =  4.0
     Generated using ONCVPSP code by D. R. Hamann
     Using radial grid of  602 points,  4 beta functions with: 
                l(1) =   0
                l(2) =   0
                l(3) =   1
                l(4) =   1

     PseudoPot. # 2 for N  read from file:
     ./N_ONCV_PBE-1.0.upf
     MD5 check sum: e7391ac1e3da9302b4611eea0a09cd4a
     Pseudo is Norm-conserving, Zval =  5.0
     Generated using ONCVPSP code by D. R. Hamann
     Using radial grid of  602 points,  4 beta functions with: 
                l(1) =   0
                l(2) =   0
                l(3) =   1
                l(4) =   1

     atomic species   valence    mass     pseudopotential
        C              4.00    12.01100     C ( 1.00)
        N              5.00    14.00700     N ( 1.00)

     Starting magnetic structure 
     atomic species   magnetization
        C            0.000
        N            0.000

      6 Sym. Ops. (no inversion) found ( 4 have fractional translation)


                                    s                        frac. trans.

      isym =  1     identity                                     

 cryst.   s( 1) = (     1          0          0      )
                  (     0          1          0      )
                  (     0          0          1      )

 cart.    s( 1) = (  1.0000000  0.0000000  0.0000000 )
                  (  0.0000000  1.0000000  0.0000000 )
                  (  0.0000000  0.0000000  1.0000000 )


      isym =  2     120 deg rotation - cart. axis [-1,-1,-1]     

 cryst.   s( 2) = (     0          0          1      )    f =( -0.1666667 )
                  (     1          0          0      )       (  0.0000001 )
                  (     0          1          0      )       (  0.1666668 )

 cart.    s( 2) = (  0.0000000  1.0000000  0.0000000 )    f =( -0.1666667 )
                  (  0.0000000  0.0000000  1.0000000 )       (  0.0000001 )
                  (  1.0000000  0.0000000  0.0000000 )       (  0.1666668 )


      isym =  3     120 deg rotation - cart. axis [1,1,1]        

 cryst.   s( 3) = (     0          1          0      )    f =( -0.1666667 )
                  (     0          0          1      )       (  0.1666668 )
                  (     1          0          0      )       (  0.0000000 )

 cart.    s( 3) = (  0.0000000  0.0000000  1.0000000 )    f =( -0.1666667 )
                  (  1.0000000  0.0000000  0.0000000 )       (  0.1666668 )
                  (  0.0000000  1.0000000  0.0000000 )       (  0.0000000 )


      isym =  4     inv. 180 deg rotation - cart. axis [1,-1,0]  

 cryst.   s( 4) = (     0          1          0      )    f =( -0.1666667 )
                  (     1          0          0      )       (  0.1666668 )
                  (     0          0          1      )       (  0.0000001 )

 cart.    s( 4) = (  0.0000000  1.0000000  0.0000000 )    f =( -0.1666667 )
                  (  1.0000000  0.0000000  0.0000000 )       (  0.1666668 )
                  (  0.0000000  0.0000000  1.0000000 )       (  0.0000001 )


      isym =  5     inv. 180 deg rotation - cart. axis [-1,0,1]  

 cryst.   s( 5) = (     0          0          1      )    f =( -0.1666667 )
                  (     0          1          0      )       (  0.0000000 )
                  (     1          0          0      )       (  0.1666668 )

 cart.    s( 5) = (  0.0000000  0.0000000  1.0000000 )    f =( -0.1666667 )
                  (  0.0000000  1.0000000  0.0000000 )       (  0.0000000 )
                  (  1.0000000  0.0000000  0.0000000 )       (  0.1666668 )


      isym =  6     inv. 180 deg rotation - cart. axis [0,1,-1]  

 cryst.   s( 6) = (     1          0          0      )
                  (     0          0          1      )
                  (     0          1          0      )

 cart.    s( 6) = (  1.0000000  0.0000000  0.0000000 )
                  (  0.0000000  0.0000000  1.0000000 )
                  (  0.0000000  1.0000000  0.0000000 )


   Cartesian axes

     site n.     atom                  positions (alat units)
         1           C   tau(   1) = (   0.0000203   0.0000589   0.0000589  )
         2           C   tau(   2) = (   0.0832892   0.0833956   0.0833957  )
         3           C   tau(   3) = (  -0.0001393   0.1667855   0.1667856  )
         4           C   tau(   4) = (   0.0829358   0.2501809   0.2501809  )
         5           C   tau(   5) = (   0.1666353  -0.0000313   0.1667287  )
         6           C   tau(   6) = (   0.2498918   0.0832251   0.2500175  )
         7           C   tau(   7) = (   0.1666353   0.1667287  -0.0000313  )
         8           C   tau(   8) = (   0.2498918   0.2500175   0.0832251  )
         9           C   tau(   9) = (  -0.0000703   0.0001190   0.3334553  )
        10           C   tau(  10) = (   0.0830900   0.0835623   0.4167203  )
        11           C   tau(  11) = (  -0.0004639   0.1671835   0.5001628  )
        12           C   tau(  12) = (   0.0833988   0.2500024   0.5834269  )
        13           C   tau(  13) = (   0.1669310   0.0002644   0.5001408  )
        14           C   tau(  14) = (   0.2500204   0.0833539   0.5833045  )
        15           C   tau(  15) = (   0.1663600   0.1667067   0.3333648  )
        16           C   tau(  16) = (   0.2496267   0.2498974   0.4165709  )
        17           C   tau(  17) = (   0.0001037   0.0002257   0.6667432  )
        18           C   tau(  18) = (   0.0833868   0.0834832   0.7500508  )
        19           C   tau(  19) = (   0.0000249   0.1668087   0.8333584  )
        20           C   tau(  20) = (   0.0833061   0.2501741   0.9166396  )
        21           C   tau(  21) = (   0.1667258   0.0000590   0.8333536  )
        22           C   tau(  22) = (   0.2500624   0.0833957   0.9166226  )
        23           C   tau(  23) = (   0.1668036   0.1666723   0.6666143  )
        24           C   tau(  24) = (   0.2501140   0.2501431   0.7499272  )
        25           C   tau(  25) = (  -0.0000703   0.3334555   0.0001191  )
        26           C   tau(  26) = (   0.0830900   0.4167203   0.0835624  )
        27           C   tau(  27) = (  -0.0004639   0.5001630   0.1671836  )
        28           C   tau(  28) = (   0.0833988   0.5834270   0.2500024  )
        29           C   tau(  29) = (   0.1663600   0.3333648   0.1667067  )
        30           C   tau(  30) = (   0.2496267   0.4165709   0.2498974  )
        31           C   tau(  31) = (   0.1669310   0.5001408   0.0002645  )
        32           C   tau(  32) = (   0.2500204   0.5833046   0.0833540  )
        33           C   tau(  33) = (  -0.0006051   0.3337692   0.3337692  )
        34           C   tau(  34) = (   0.0826611   0.4171501   0.4171500  )
        35           C   tau(  35) = (  -0.0008161   0.5006532   0.5006532  )
        36           C   tau(  36) = (   0.0829632   0.5835475   0.5835475  )
        37           C   tau(  37) = (   0.1664136   0.3334421   0.5000315  )
        38           C   tau(  38) = (   0.2499215   0.4167521   0.5832906  )
        39           C   tau(  39) = (   0.1664136   0.5000315   0.3334421  )
        40           C   tau(  40) = (   0.2499215   0.5832907   0.4167521  )
        41           C   tau(  41) = (   0.0003758   0.3331166   0.6665721  )
        42           C   tau(  42) = (   0.0833681   0.4168886   0.7500696  )
        43           C   tau(  43) = (   0.0010401   0.5004505   0.8343736  )
        44           C   tau(  44) = (   0.0839077   0.5833712   0.9172411  )
        45           C   tau(  45) = (   0.1667856   0.3334554   0.8332631  )
        46           C   tau(  46) = (   0.2502289   0.4167203   0.9164233  )
        47           C   tau(  47) = (   0.1666826   0.5001362   0.6666626  )
        48           C   tau(  48) = (   0.2502206   0.5833914   0.7498795  )
        49           C   tau(  49) = (   0.0001037   0.6667433   0.0002257  )
        50           C   tau(  50) = (   0.0833868   0.7500508   0.0834833  )
        51           C   tau(  51) = (   0.0000249   0.8333583   0.1668086  )
        52           C   tau(  52) = (   0.0833061   0.9166396   0.2501741  )
        53           C   tau(  53) = (   0.1668036   0.6666144   0.1666724  )
        54           C   tau(  54) = (   0.2501141   0.7499271   0.2501432  )
        55           C   tau(  55) = (   0.1667258   0.8333536   0.0000590  )
        56           C   tau(  56) = (   0.2500624   0.9166226   0.0833957  )
        57           C   tau(  57) = (   0.0003757   0.6665721   0.3331166  )
        58           C   tau(  58) = (   0.0833681   0.7500696   0.4168886  )
        59           C   tau(  59) = (   0.0010401   0.8343736   0.5004504  )
        60           C   tau(  60) = (   0.0839077   0.9172410   0.5833710  )
        61           C   tau(  61) = (   0.1666826   0.6666627   0.5001362  )
        62           C   tau(  62) = (   0.2502206   0.7498795   0.5833913  )
        63           C   tau(  63) = (   0.1667855   0.8332631   0.3334553  )
        64           C   tau(  64) = (   0.2502290   0.9164233   0.4167202  )
        65           C   tau(  65) = (  -0.0001356   0.6666782   0.6666782  )
        66           C   tau(  66) = (   0.0832899   0.7499252   0.7499252  )
        67           C   tau(  67) = (   0.0000343   0.8333675   0.8333675  )
        68           C   tau(  68) = (   0.0833689   0.9167022   0.9167022  )
        69           C   tau(  69) = (   0.1668924   0.6667432   0.8334369  )
        70           C   tau(  70) = (   0.2501498   0.7500507   0.9167201  )
        71           C   tau(  71) = (   0.1668924   0.8334369   0.6667431  )
        72           C   tau(  72) = (   0.2501498   0.9167201   0.7500507  )
        73           C   tau(  73) = (   0.3333954  -0.0000313  -0.0000313  )
        74           C   tau(  74) = (   0.4166842   0.0832251   0.0832252  )
        75           C   tau(  75) = (   0.3331950   0.1665283   0.1665283  )
        76           C   tau(  76) = (   0.4163973   0.2497309   0.2497309  )
        77           C   tau(  77) = (   0.5000315  -0.0003067   0.1667068  )
        78           C   tau(  78) = (   0.5832375   0.0829602   0.2498974  )
        79           C   tau(  79) = (   0.5000315   0.1667067  -0.0003067  )
        80           C   tau(  80) = (   0.5832375   0.2498974   0.0829603  )
        81           C   tau(  81) = (   0.3333734  -0.0003068   0.3333648  )
        82           C   tau(  82) = (   0.4165640   0.0829602   0.4165709  )
        83           C   tau(  83) = (   0.3329986   0.1663321   0.4998806  )
        84           C   tau(  84) = (   0.4160818   0.2494152   0.5829718  )
        85           C   tau(  85) = (   0.5001087  -0.0002529   0.5000315  )
        86           C   tau(  86) = (   0.5834188   0.0832548   0.5832906  )
        87           C   tau(  87) = (   0.4996846   0.1661028   0.3330182  )
        88           C   tau(  88) = (   0.5827777   0.2491680   0.4161111  )
        89           C   tau(  89) = (   0.3333389   0.0001370   0.6666143  )
        90           C   tau(  90) = (   0.4168098   0.0834474   0.7499271  )
        91           C   tau(  91) = (   0.3334523   0.1667856   0.8331940  )
        92           C   tau(  92) = (   0.4168477   0.2501810   0.9162691  )
        93           C   tau(  93) = (   0.5001221   0.0001189   0.8332631  )
        94           C   tau(  94) = (   0.5833870   0.0835622   0.9164234  )
        95           C   tau(  95) = (   0.5000649   0.1668194   0.6663797  )
        96           C   tau(  96) = (   0.5836475   0.2510852   0.7489697  )
        97           C   tau(  97) = (   0.3333734   0.3333648  -0.0003067  )
        98           C   tau(  98) = (   0.4165639   0.4165709   0.0829603  )
        99           C   tau(  99) = (   0.3329986   0.4998807   0.1663322  )
       100           C   tau( 100) = (   0.4160818   0.5829719   0.2494152  )
       101           C   tau( 101) = (   0.4996846   0.3330182   0.1661029  )
       102           C   tau( 102) = (   0.5827777   0.4161112   0.2491681  )
       103           C   tau( 103) = (   0.5001087   0.5000315  -0.0002528  )
       104           C   tau( 104) = (   0.5834188   0.5832907   0.0832549  )
       105           C   tau( 105) = (   0.3327693   0.3330181   0.3330181  )
       106           C   tau( 106) = (   0.4158346   0.4161112   0.4161111  )
       107           C   tau( 107) = (   0.3332586   0.4998690   0.4998690  )
       108           C   tau( 108) = (   0.4172023   0.5831931   0.5831930  )
       109           C   tau( 109) = (   0.4986166   0.3319499   0.4994587  )
       110           C   tau( 110) = (   0.5834287   0.4167620   0.5790802  )
       111           C   tau( 111) = (   0.4986166   0.4994588   0.3319499  )
       112           C   tau( 112) = (   0.5834287   0.5790802   0.4167619  )
       113           C   tau( 113) = (   0.3334861   0.3333982   0.6663797  )
       114           C   tau( 114) = (   0.4177520   0.4169808   0.7489696  )
       115           C   tau( 115) = (   0.3338503   0.5001629   0.8328694  )
       116           C   tau( 116) = (   0.4166690   0.5834270   0.9167323  )
       117           C   tau( 117) = (   0.5004360   0.3337692   0.8327282  )
       118           C   tau( 118) = (   0.5838166   0.4171501   0.9159946  )
       119           C   tau( 119) = (   0.5017564   0.5007645   0.6649034  )
       120           C   tau( 120) = (   0.5856892   0.5844311   0.7482064  )
       121           C   tau( 121) = (   0.3333389   0.6666143   0.0001370  )
       122           C   tau( 122) = (   0.4168098   0.7499271   0.0834475  )
       123           C   tau( 123) = (   0.3334523   0.8331940   0.1667856  )
       124           C   tau( 124) = (   0.4168477   0.9162690   0.2501810  )
       125           C   tau( 125) = (   0.5000649   0.6663797   0.1668194  )
       126           C   tau( 126) = (   0.5836475   0.7489697   0.2510852  )
       127           C   tau( 127) = (   0.5001221   0.8332631   0.0001190  )
       128           C   tau( 128) = (   0.5833870   0.9164233   0.0835623  )
       129           C   tau( 129) = (   0.3334861   0.6663797   0.3333983  )
       130           C   tau( 130) = (   0.4177521   0.7489696   0.4169808  )
       131           C   tau( 131) = (   0.3338503   0.8328694   0.5001628  )
       132           C   tau( 132) = (   0.4166690   0.9167323   0.5834268  )
       133           C   tau( 133) = (   0.5017564   0.6649035   0.5007644  )
       134           C   tau( 134) = (   0.5856892   0.7482064   0.5844310  )
       135           C   tau( 135) = (   0.5004360   0.8327282   0.3337692  )
       136           C   tau( 136) = (   0.5838167   0.9159946   0.4171500  )
       137           C   tau( 137) = (   0.3336561   0.6666044   0.6666044  )
       138           C   tau( 138) = (   0.4169384   0.7499721   0.7499721  )
       139           C   tau( 139) = (   0.3334753   0.8333582   0.8333583  )
       140           C   tau( 140) = (   0.4168408   0.9166395   0.9166395  )
       141           C   tau( 141) = (   0.4997832   0.6665720   0.8337093  )
       142           C   tau( 142) = (   0.5835553   0.7500695   0.9167015  )
       143           C   tau( 143) = (   0.4997832   0.8337092   0.6665720  )
       144           C   tau( 144) = (   0.5835553   0.9167015   0.7500695  )
       145           C   tau( 145) = (   0.6668075   0.0002643   0.0002644  )
       146           C   tau( 146) = (   0.7499711   0.0833538   0.0833540  )
       147           C   tau( 147) = (   0.6665472   0.1663321   0.1663322  )
       148           C   tau( 148) = (   0.7496383   0.2494152   0.2494152  )
       149           C   tau( 149) = (   0.8332809   0.0001371   0.1666722  )
       150           C   tau( 150) = (   0.9165937   0.0834475   0.2501431  )
       151           C   tau( 151) = (   0.8332809   0.1666722   0.0001371  )
       152           C   tau( 152) = (   0.9165937   0.2501431   0.0834475  )
       153           C   tau( 153) = (   0.6666981  -0.0002528   0.3334421  )
       154           C   tau( 154) = (   0.7499573   0.0832549   0.4167521  )
       155           C   tau( 155) = (   0.6665356   0.1665920   0.4998690  )
       156           C   tau( 156) = (   0.7498598   0.2505354   0.5831931  )
       157           C   tau( 157) = (   0.8333292   0.0000161   0.5001363  )
       158           C   tau( 158) = (   0.9165462   0.0835539   0.5833914  )
       159           C   tau( 159) = (   0.8330463   0.1668195   0.3333982  )
       160           C   tau( 160) = (   0.9156364   0.2510852   0.4169808  )
       161           C   tau( 161) = (   0.6668030   0.0000160   0.6666626  )
       162           C   tau( 162) = (   0.7500582   0.0835538   0.7498796  )
       163           C   tau( 163) = (   0.6668296   0.1671833   0.8328695  )
       164           C   tau( 164) = (   0.7500934   0.2500022   0.9167325  )
       165           C   tau( 165) = (   0.8334101   0.0002255   0.8334369  )
       166           C   tau( 166) = (   0.9167174   0.0834831   0.9167201  )
       167           C   tau( 167) = (   0.8332712   0.1669893   0.6666045  )
       168           C   tau( 168) = (   0.9166386   0.2502717   0.7499722  )
       169           C   tau( 169) = (   0.6666981   0.3334421  -0.0002527  )
       170           C   tau( 170) = (   0.7499573   0.4167521   0.0832550  )
       171           C   tau( 171) = (   0.6665356   0.4998690   0.1665920  )
       172           C   tau( 172) = (   0.7498598   0.5831933   0.2505354  )
       173           C   tau( 173) = (   0.8330463   0.3333982   0.1668195  )
       174           C   tau( 174) = (   0.9156363   0.4169808   0.2510852  )
       175           C   tau( 175) = (   0.8333292   0.5001363   0.0000162  )
       176           C   tau( 176) = (   0.9165462   0.5833915   0.0835540  )
       177           C   tau( 177) = (   0.6661253   0.3319499   0.3319499  )
       178           C   tau( 178) = (   0.7457469   0.4167620   0.4167619  )
       179           C   tau( 179) = (   0.8315701   0.3350896   0.5007644  )
       180           C   tau( 180) = (   0.9148729   0.4190224   0.5844310  )
       181           C   tau( 181) = (   0.8315701   0.5007645   0.3350895  )
       182           C   tau( 182) = (   0.9148729   0.5844311   0.4190224  )
       183           C   tau( 183) = (   0.6674312   0.3350896   0.6649034  )
       184           C   tau( 184) = (   0.7510975   0.4190223   0.7482066  )
       185           C   tau( 185) = (   0.6673199   0.5006532   0.8325175  )
       186           C   tau( 186) = (   0.7502143   0.5835476   0.9162967  )
       187           C   tau( 187) = (   0.8332386   0.3331165   0.8337094  )
       188           C   tau( 188) = (   0.9167361   0.4168885   0.9167017  )
       189           C   tau( 189) = (   0.8395160   0.4966359   0.6728494  )
       190           C   tau( 190) = (   0.9161931   0.5828723   0.7495265  )
       191           C   tau( 191) = (   0.6668030   0.6666627   0.0000160  )
       192           C   tau( 192) = (   0.7500582   0.7498796   0.0835538  )
       193           C   tau( 193) = (   0.6668297   0.8328695   0.1671835  )
       194           C   tau( 194) = (   0.7500934   0.9167324   0.2500023  )
       195           C   tau( 195) = (   0.8332712   0.6666046   0.1669893  )
       196           C   tau( 196) = (   0.9166386   0.7499722   0.2502717  )
       197           C   tau( 197) = (   0.8334101   0.8334369   0.0002256  )
       198           C   tau( 198) = (   0.9167174   0.9167201   0.0834832  )
       199           C   tau( 199) = (   0.6674312   0.6649036   0.3350895  )
       200           C   tau( 200) = (   0.7510975   0.7482066   0.4190223  )
       201           C   tau( 201) = (   0.6673199   0.8325175   0.5006532  )
       202           C   tau( 202) = (   0.7502143   0.9162967   0.5835475  )
       203           C   tau( 203) = (   0.8395160   0.6728496   0.4966358  )
       204           C   tau( 204) = (   0.9161931   0.7495265   0.5828722  )
       205           C   tau( 205) = (   0.8332386   0.8337094   0.3331165  )
       206           C   tau( 206) = (   0.9167361   0.9167017   0.4168885  )
       207           C   tau( 207) = (   0.6633028   0.6728494   0.6728494  )
       208           C   tau( 208) = (   0.7495391   0.7495265   0.7495265  )
       209           C   tau( 209) = (   0.6671173   0.8343735   0.8343735  )
       210           C   tau( 210) = (   0.7500379   0.9172410   0.9172410  )
       211           C   tau( 211) = (   0.8333450   0.6666783   0.8331978  )
       212           C   tau( 212) = (   0.9165921   0.7499253   0.9166232  )
       213           C   tau( 213) = (   0.8333450   0.8331978   0.6666782  )
       214           C   tau( 214) = (   0.9165921   0.9166232   0.7499252  )
       215           N   tau( 215) = (   0.6583484   0.4916816   0.4916815  )

   Crystallographic axes

     site n.     atom                  positions (cryst. coord.)
         1           C   tau(   1) = (  0.0000203  0.0000589  0.0000589  )
         2           C   tau(   2) = (  0.0832892  0.0833956  0.0833957  )
         3           C   tau(   3) = ( -0.0001393  0.1667855  0.1667856  )
         4           C   tau(   4) = (  0.0829358  0.2501809  0.2501809  )
         5           C   tau(   5) = (  0.1666353 -0.0000313  0.1667287  )
         6           C   tau(   6) = (  0.2498918  0.0832251  0.2500175  )
         7           C   tau(   7) = (  0.1666353  0.1667287 -0.0000313  )
         8           C   tau(   8) = (  0.2498918  0.2500175  0.0832251  )
         9           C   tau(   9) = ( -0.0000703  0.0001190  0.3334553  )
        10           C   tau(  10) = (  0.0830900  0.0835623  0.4167203  )
        11           C   tau(  11) = ( -0.0004639  0.1671835  0.5001628  )
        12           C   tau(  12) = (  0.0833988  0.2500024  0.5834269  )
        13           C   tau(  13) = (  0.1669310  0.0002644  0.5001408  )
        14           C   tau(  14) = (  0.2500204  0.0833539  0.5833045  )
        15           C   tau(  15) = (  0.1663600  0.1667067  0.3333648  )
        16           C   tau(  16) = (  0.2496267  0.2498974  0.4165709  )
        17           C   tau(  17) = (  0.0001037  0.0002257  0.6667432  )
        18           C   tau(  18) = (  0.0833868  0.0834832  0.7500508  )
        19           C   tau(  19) = (  0.0000249  0.1668087  0.8333584  )
        20           C   tau(  20) = (  0.0833061  0.2501741  0.9166396  )
        21           C   tau(  21) = (  0.1667258  0.0000590  0.8333536  )
        22           C   tau(  22) = (  0.2500624  0.0833957  0.9166226  )
        23           C   tau(  23) = (  0.1668036  0.1666723  0.6666143  )
        24           C   tau(  24) = (  0.2501140  0.2501431  0.7499272  )
        25           C   tau(  25) = ( -0.0000703  0.3334555  0.0001191  )
        26           C   tau(  26) = (  0.0830900  0.4167203  0.0835624  )
        27           C   tau(  27) = ( -0.0004639  0.5001630  0.1671836  )
        28           C   tau(  28) = (  0.0833988  0.5834270  0.2500024  )
        29           C   tau(  29) = (  0.1663600  0.3333648  0.1667067  )
        30           C   tau(  30) = (  0.2496267  0.4165709  0.2498974  )
        31           C   tau(  31) = (  0.1669310  0.5001408  0.0002645  )
        32           C   tau(  32) = (  0.2500204  0.5833046  0.0833540  )
        33           C   tau(  33) = ( -0.0006051  0.3337692  0.3337692  )
        34           C   tau(  34) = (  0.0826611  0.4171501  0.4171500  )
        35           C   tau(  35) = ( -0.0008161  0.5006532  0.5006532  )
        36           C   tau(  36) = (  0.0829632  0.5835475  0.5835475  )
        37           C   tau(  37) = (  0.1664136  0.3334421  0.5000315  )
        38           C   tau(  38) = (  0.2499215  0.4167521  0.5832906  )
        39           C   tau(  39) = (  0.1664136  0.5000315  0.3334421  )
        40           C   tau(  40) = (  0.2499215  0.5832907  0.4167521  )
        41           C   tau(  41) = (  0.0003758  0.3331166  0.6665721  )
        42           C   tau(  42) = (  0.0833681  0.4168886  0.7500696  )
        43           C   tau(  43) = (  0.0010401  0.5004505  0.8343736  )
        44           C   tau(  44) = (  0.0839077  0.5833712  0.9172411  )
        45           C   tau(  45) = (  0.1667856  0.3334554  0.8332631  )
        46           C   tau(  46) = (  0.2502289  0.4167203  0.9164233  )
        47           C   tau(  47) = (  0.1666826  0.5001362  0.6666626  )
        48           C   tau(  48) = (  0.2502206  0.5833914  0.7498795  )
        49           C   tau(  49) = (  0.0001037  0.6667433  0.0002257  )
        50           C   tau(  50) = (  0.0833868  0.7500508  0.0834833  )
        51           C   tau(  51) = (  0.0000249  0.8333583  0.1668086  )
        52           C   tau(  52) = (  0.0833061  0.9166396  0.2501741  )
        53           C   tau(  53) = (  0.1668036  0.6666144  0.1666724  )
        54           C   tau(  54) = (  0.2501141  0.7499271  0.2501432  )
        55           C   tau(  55) = (  0.1667258  0.8333536  0.0000590  )
        56           C   tau(  56) = (  0.2500624  0.9166226  0.0833957  )
        57           C   tau(  57) = (  0.0003757  0.6665721  0.3331166  )
        58           C   tau(  58) = (  0.0833681  0.7500696  0.4168886  )
        59           C   tau(  59) = (  0.0010401  0.8343736  0.5004504  )
        60           C   tau(  60) = (  0.0839077  0.9172410  0.5833710  )
        61           C   tau(  61) = (  0.1666826  0.6666627  0.5001362  )
        62           C   tau(  62) = (  0.2502206  0.7498795  0.5833913  )
        63           C   tau(  63) = (  0.1667855  0.8332631  0.3334553  )
        64           C   tau(  64) = (  0.2502290  0.9164233  0.4167202  )
        65           C   tau(  65) = ( -0.0001356  0.6666782  0.6666782  )
        66           C   tau(  66) = (  0.0832899  0.7499252  0.7499252  )
        67           C   tau(  67) = (  0.0000343  0.8333675  0.8333675  )
        68           C   tau(  68) = (  0.0833689  0.9167022  0.9167022  )
        69           C   tau(  69) = (  0.1668924  0.6667432  0.8334369  )
        70           C   tau(  70) = (  0.2501498  0.7500507  0.9167201  )
        71           C   tau(  71) = (  0.1668924  0.8334369  0.6667431  )
        72           C   tau(  72) = (  0.2501498  0.9167201  0.7500507  )
        73           C   tau(  73) = (  0.3333954 -0.0000313 -0.0000313  )
        74           C   tau(  74) = (  0.4166842  0.0832251  0.0832252  )
        75           C   tau(  75) = (  0.3331950  0.1665283  0.1665283  )
        76           C   tau(  76) = (  0.4163973  0.2497309  0.2497309  )
        77           C   tau(  77) = (  0.5000315 -0.0003067  0.1667068  )
        78           C   tau(  78) = (  0.5832375  0.0829602  0.2498974  )
        79           C   tau(  79) = (  0.5000315  0.1667067 -0.0003067  )
        80           C   tau(  80) = (  0.5832375  0.2498974  0.0829603  )
        81           C   tau(  81) = (  0.3333734 -0.0003068  0.3333648  )
        82           C   tau(  82) = (  0.4165640  0.0829602  0.4165709  )
        83           C   tau(  83) = (  0.3329986  0.1663321  0.4998806  )
        84           C   tau(  84) = (  0.4160818  0.2494152  0.5829718  )
        85           C   tau(  85) = (  0.5001087 -0.0002529  0.5000315  )
        86           C   tau(  86) = (  0.5834188  0.0832548  0.5832906  )
        87           C   tau(  87) = (  0.4996846  0.1661028  0.3330182  )
        88           C   tau(  88) = (  0.5827777  0.2491680  0.4161111  )
        89           C   tau(  89) = (  0.3333389  0.0001370  0.6666143  )
        90           C   tau(  90) = (  0.4168098  0.0834474  0.7499271  )
        91           C   tau(  91) = (  0.3334523  0.1667856  0.8331940  )
        92           C   tau(  92) = (  0.4168477  0.2501810  0.9162691  )
        93           C   tau(  93) = (  0.5001221  0.0001189  0.8332631  )
        94           C   tau(  94) = (  0.5833870  0.0835622  0.9164234  )
        95           C   tau(  95) = (  0.5000649  0.1668194  0.6663797  )
        96           C   tau(  96) = (  0.5836475  0.2510852  0.7489697  )
        97           C   tau(  97) = (  0.3333734  0.3333648 -0.0003067  )
        98           C   tau(  98) = (  0.4165639  0.4165709  0.0829603  )
        99           C   tau(  99) = (  0.3329986  0.4998807  0.1663322  )
       100           C   tau( 100) = (  0.4160818  0.5829719  0.2494152  )
       101           C   tau( 101) = (  0.4996846  0.3330182  0.1661029  )
       102           C   tau( 102) = (  0.5827777  0.4161112  0.2491681  )
       103           C   tau( 103) = (  0.5001087  0.5000315 -0.0002528  )
       104           C   tau( 104) = (  0.5834188  0.5832907  0.0832549  )
       105           C   tau( 105) = (  0.3327693  0.3330181  0.3330181  )
       106           C   tau( 106) = (  0.4158346  0.4161112  0.4161111  )
       107           C   tau( 107) = (  0.3332586  0.4998690  0.4998690  )
       108           C   tau( 108) = (  0.4172023  0.5831931  0.5831930  )
       109           C   tau( 109) = (  0.4986166  0.3319499  0.4994587  )
       110           C   tau( 110) = (  0.5834287  0.4167620  0.5790802  )
       111           C   tau( 111) = (  0.4986166  0.4994588  0.3319499  )
       112           C   tau( 112) = (  0.5834287  0.5790802  0.4167619  )
       113           C   tau( 113) = (  0.3334861  0.3333982  0.6663797  )
       114           C   tau( 114) = (  0.4177520  0.4169808  0.7489696  )
       115           C   tau( 115) = (  0.3338503  0.5001629  0.8328694  )
       116           C   tau( 116) = (  0.4166690  0.5834270  0.9167323  )
       117           C   tau( 117) = (  0.5004360  0.3337692  0.8327282  )
       118           C   tau( 118) = (  0.5838166  0.4171501  0.9159946  )
       119           C   tau( 119) = (  0.5017564  0.5007645  0.6649034  )
       120           C   tau( 120) = (  0.5856892  0.5844311  0.7482064  )
       121           C   tau( 121) = (  0.3333389  0.6666143  0.0001370  )
       122           C   tau( 122) = (  0.4168098  0.7499271  0.0834475  )
       123           C   tau( 123) = (  0.3334523  0.8331940  0.1667856  )
       124           C   tau( 124) = (  0.4168477  0.9162690  0.2501810  )
       125           C   tau( 125) = (  0.5000649  0.6663797  0.1668194  )
       126           C   tau( 126) = (  0.5836475  0.7489697  0.2510852  )
       127           C   tau( 127) = (  0.5001221  0.8332631  0.0001190  )
       128           C   tau( 128) = (  0.5833870  0.9164233  0.0835623  )
       129           C   tau( 129) = (  0.3334861  0.6663797  0.3333983  )
       130           C   tau( 130) = (  0.4177521  0.7489696  0.4169808  )
       131           C   tau( 131) = (  0.3338503  0.8328694  0.5001628  )
       132           C   tau( 132) = (  0.4166690  0.9167323  0.5834268  )
       133           C   tau( 133) = (  0.5017564  0.6649035  0.5007644  )
       134           C   tau( 134) = (  0.5856892  0.7482064  0.5844310  )
       135           C   tau( 135) = (  0.5004360  0.8327282  0.3337692  )
       136           C   tau( 136) = (  0.5838167  0.9159946  0.4171500  )
       137           C   tau( 137) = (  0.3336561  0.6666044  0.6666044  )
       138           C   tau( 138) = (  0.4169384  0.7499721  0.7499721  )
       139           C   tau( 139) = (  0.3334753  0.8333582  0.8333583  )
       140           C   tau( 140) = (  0.4168408  0.9166395  0.9166395  )
       141           C   tau( 141) = (  0.4997832  0.6665720  0.8337093  )
       142           C   tau( 142) = (  0.5835553  0.7500695  0.9167015  )
       143           C   tau( 143) = (  0.4997832  0.8337092  0.6665720  )
       144           C   tau( 144) = (  0.5835553  0.9167015  0.7500695  )
       145           C   tau( 145) = (  0.6668075  0.0002643  0.0002644  )
       146           C   tau( 146) = (  0.7499711  0.0833538  0.0833540  )
       147           C   tau( 147) = (  0.6665472  0.1663321  0.1663322  )
       148           C   tau( 148) = (  0.7496383  0.2494152  0.2494152  )
       149           C   tau( 149) = (  0.8332809  0.0001371  0.1666722  )
       150           C   tau( 150) = (  0.9165937  0.0834475  0.2501431  )
       151           C   tau( 151) = (  0.8332809  0.1666722  0.0001371  )
       152           C   tau( 152) = (  0.9165937  0.2501431  0.0834475  )
       153           C   tau( 153) = (  0.6666981 -0.0002528  0.3334421  )
       154           C   tau( 154) = (  0.7499573  0.0832549  0.4167521  )
       155           C   tau( 155) = (  0.6665356  0.1665920  0.4998690  )
       156           C   tau( 156) = (  0.7498598  0.2505354  0.5831931  )
       157           C   tau( 157) = (  0.8333292  0.0000161  0.5001363  )
       158           C   tau( 158) = (  0.9165462  0.0835539  0.5833914  )
       159           C   tau( 159) = (  0.8330463  0.1668195  0.3333982  )
       160           C   tau( 160) = (  0.9156364  0.2510852  0.4169808  )
       161           C   tau( 161) = (  0.6668030  0.0000160  0.6666626  )
       162           C   tau( 162) = (  0.7500582  0.0835538  0.7498796  )
       163           C   tau( 163) = (  0.6668296  0.1671833  0.8328695  )
       164           C   tau( 164) = (  0.7500934  0.2500022  0.9167325  )
       165           C   tau( 165) = (  0.8334101  0.0002255  0.8334369  )
       166           C   tau( 166) = (  0.9167174  0.0834831  0.9167201  )
       167           C   tau( 167) = (  0.8332712  0.1669893  0.6666045  )
       168           C   tau( 168) = (  0.9166386  0.2502717  0.7499722  )
       169           C   tau( 169) = (  0.6666981  0.3334421 -0.0002527  )
       170           C   tau( 170) = (  0.7499573  0.4167521  0.0832550  )
       171           C   tau( 171) = (  0.6665356  0.4998690  0.1665920  )
       172           C   tau( 172) = (  0.7498598  0.5831933  0.2505354  )
       173           C   tau( 173) = (  0.8330463  0.3333982  0.1668195  )
       174           C   tau( 174) = (  0.9156363  0.4169808  0.2510852  )
       175           C   tau( 175) = (  0.8333292  0.5001363  0.0000162  )
       176           C   tau( 176) = (  0.9165462  0.5833915  0.0835540  )
       177           C   tau( 177) = (  0.6661253  0.3319499  0.3319499  )
       178           C   tau( 178) = (  0.7457469  0.4167620  0.4167619  )
       179           C   tau( 179) = (  0.8315701  0.3350896  0.5007644  )
       180           C   tau( 180) = (  0.9148729  0.4190224  0.5844310  )
       181           C   tau( 181) = (  0.8315701  0.5007645  0.3350895  )
       182           C   tau( 182) = (  0.9148729  0.5844311  0.4190224  )
       183           C   tau( 183) = (  0.6674312  0.3350896  0.6649034  )
       184           C   tau( 184) = (  0.7510975  0.4190223  0.7482066  )
       185           C   tau( 185) = (  0.6673199  0.5006532  0.8325175  )
       186           C   tau( 186) = (  0.7502143  0.5835476  0.9162967  )
       187           C   tau( 187) = (  0.8332386  0.3331165  0.8337094  )
       188           C   tau( 188) = (  0.9167361  0.4168885  0.9167017  )
       189           C   tau( 189) = (  0.8395160  0.4966359  0.6728494  )
       190           C   tau( 190) = (  0.9161931  0.5828723  0.7495265  )
       191           C   tau( 191) = (  0.6668030  0.6666627  0.0000160  )
       192           C   tau( 192) = (  0.7500582  0.7498796  0.0835538  )
       193           C   tau( 193) = (  0.6668297  0.8328695  0.1671835  )
       194           C   tau( 194) = (  0.7500934  0.9167324  0.2500023  )
       195           C   tau( 195) = (  0.8332712  0.6666046  0.1669893  )
       196           C   tau( 196) = (  0.9166386  0.7499722  0.2502717  )
       197           C   tau( 197) = (  0.8334101  0.8334369  0.0002256  )
       198           C   tau( 198) = (  0.9167174  0.9167201  0.0834832  )
       199           C   tau( 199) = (  0.6674312  0.6649036  0.3350895  )
       200           C   tau( 200) = (  0.7510975  0.7482066  0.4190223  )
       201           C   tau( 201) = (  0.6673199  0.8325175  0.5006532  )
       202           C   tau( 202) = (  0.7502143  0.9162967  0.5835475  )
       203           C   tau( 203) = (  0.8395160  0.6728496  0.4966358  )
       204           C   tau( 204) = (  0.9161931  0.7495265  0.5828722  )
       205           C   tau( 205) = (  0.8332386  0.8337094  0.3331165  )
       206           C   tau( 206) = (  0.9167361  0.9167017  0.4168885  )
       207           C   tau( 207) = (  0.6633028  0.6728494  0.6728494  )
       208           C   tau( 208) = (  0.7495391  0.7495265  0.7495265  )
       209           C   tau( 209) = (  0.6671173  0.8343735  0.8343735  )
       210           C   tau( 210) = (  0.7500379  0.9172410  0.9172410  )
       211           C   tau( 211) = (  0.8333450  0.6666783  0.8331978  )
       212           C   tau( 212) = (  0.9165921  0.7499253  0.9166232  )
       213           C   tau( 213) = (  0.8333450  0.8331978  0.6666782  )
       214           C   tau( 214) = (  0.9165921  0.9166232  0.7499252  )
       215           N   tau( 215) = (  0.6583484  0.4916816  0.4916815  )

     number of k points=     1
                       cart. coord. in units 2pi/alat
        k(    1) = (   0.0000000   0.0000000   0.0000000), wk =   1.0000000

                       cryst. coord.
        k(    1) = (   0.0000000   0.0000000   0.0000000), wk =   1.0000000

     Dense  grid:   255986 G-vectors     FFT dimensions: ( 108, 108, 108)

     Dynamical RAM for                 wfc:      30.11 MB

     Dynamical RAM for     wfc (w. buffer):      30.11 MB

     Dynamical RAM for                 EXX:     127.14 MB

     Dynamical RAM for           str. fact:       0.56 MB

     Dynamical RAM for           local pot:       0.00 MB

     Dynamical RAM for          nlocal pot:      59.94 MB

     Dynamical RAM for                qrad:       0.71 MB

     Dynamical RAM for          rho,v,vnew:       5.95 MB

     Dynamical RAM for               rhoin:       1.98 MB

     Dynamical RAM for            rho*nmix:       8.93 MB

     Dynamical RAM for           G-vectors:       1.19 MB

     Dynamical RAM for          h,s,v(r/c):       7.59 MB

     Dynamical RAM for          <psi|beta>:      11.34 MB

     Dynamical RAM for                 psi:      60.22 MB

     Dynamical RAM for                hpsi:      60.22 MB

     Dynamical RAM for      wfcinit/wfcrot:      77.32 MB

     Estimated static dynamical RAM per process >     232.69 MB

     Estimated max dynamical RAM per process >     381.00 MB

     Estimated total dynamical RAM >      41.18 GB
     EXX: ACE will be initialized later
     Generating pointlists ...
     new r_m :   0.0567 (alat units)  1.1402 (a.u.) for type    1
     new r_m :   0.0567 (alat units)  1.1402 (a.u.) for type    2

     Initial potential from superposition of free atoms

     starting charge     859.5066, renormalised to     862.0000
     Starting wfcs are random

     total cpu time spent up to now is        2.2 secs

     Self-consistent Calculation

     iteration #  1     ecut=    60.00 Ry     beta= 0.30
     Davidson diagonalization with overlap

---- Real-time Memory Report at c_bands before calling an iterative solver
           376 MiB given to the printing process from OS
             0 MiB allocation reported by mallinfo(arena+hblkhd)
         43711 MiB available memory on the node where the printing process lives
------------------
     ethr =  1.00E-02,  avg # of iterations = 11.0

     total cpu time spent up to now is       27.2 secs

     total energy              =   -2457.40564746 Ry
     estimated scf accuracy    <      12.87060691 Ry

     total magnetization       =     2.00 Bohr mag/cell
     absolute magnetization    =     2.00 Bohr mag/cell

     iteration #  2     ecut=    60.00 Ry     beta= 0.30
     Davidson diagonalization with overlap

---- Real-time Memory Report at c_bands before calling an iterative solver
           570 MiB given to the printing process from OS
             0 MiB allocation reported by mallinfo(arena+hblkhd)
         44264 MiB available memory on the node where the printing process lives
------------------
     ethr =  1.49E-03,  avg # of iterations =  5.0

     total cpu time spent up to now is       32.9 secs

     total energy              =   -2455.64223077 Ry
     estimated scf accuracy    <       5.05084688 Ry

     total magnetization       =     2.00 Bohr mag/cell
     absolute magnetization    =     2.02 Bohr mag/cell

     iteration #  3     ecut=    60.00 Ry     beta= 0.30
     Davidson diagonalization with overlap

---- Real-time Memory Report at c_bands before calling an iterative solver
           644 MiB given to the printing process from OS
             0 MiB allocation reported by mallinfo(arena+hblkhd)
         40831 MiB available memory on the node where the printing process lives
------------------
     ethr =  5.86E-04,  avg # of iterations =  6.0

     total cpu time spent up to now is       40.8 secs

     total energy              =   -2456.00913952 Ry
     estimated scf accuracy    <       0.17671413 Ry

     total magnetization       =     2.00 Bohr mag/cell
     absolute magnetization    =     2.12 Bohr mag/cell

     iteration #  4     ecut=    60.00 Ry     beta= 0.30
     Davidson diagonalization with overlap

---- Real-time Memory Report at c_bands before calling an iterative solver
           682 MiB given to the printing process from OS
             0 MiB allocation reported by mallinfo(arena+hblkhd)
         40891 MiB available memory on the node where the printing process lives
------------------
     ethr =  2.05E-05,  avg # of iterations = 18.5

     total cpu time spent up to now is       53.4 secs

     total energy              =   -2456.04322840 Ry
     estimated scf accuracy    <       0.02474211 Ry

     total magnetization       =     2.00 Bohr mag/cell
     absolute magnetization    =     2.16 Bohr mag/cell

     iteration #  5     ecut=    60.00 Ry     beta= 0.30
     Davidson diagonalization with overlap

---- Real-time Memory Report at c_bands before calling an iterative solver
           695 MiB given to the printing process from OS
             0 MiB allocation reported by mallinfo(arena+hblkhd)
         40198 MiB available memory on the node where the printing process lives
------------------
     ethr =  2.87E-06,  avg # of iterations = 13.0

     total cpu time spent up to now is       61.7 secs

     total energy              =   -2456.04625766 Ry
     estimated scf accuracy    <       0.00945372 Ry

     total magnetization       =     2.00 Bohr mag/cell
     absolute magnetization    =     2.19 Bohr mag/cell

     iteration #  6     ecut=    60.00 Ry     beta= 0.30
     Davidson diagonalization with overlap

---- Real-time Memory Report at c_bands before calling an iterative solver
           716 MiB given to the printing process from OS
             0 MiB allocation reported by mallinfo(arena+hblkhd)
         40768 MiB available memory on the node where the printing process lives
------------------
     ethr =  1.10E-06,  avg # of iterations = 12.5

     total cpu time spent up to now is       70.4 secs

     total energy              =   -2456.04696519 Ry
     estimated scf accuracy    <       0.00045431 Ry

     total magnetization       =     2.00 Bohr mag/cell
     absolute magnetization    =     2.23 Bohr mag/cell

     iteration #  7     ecut=    60.00 Ry     beta= 0.30
     Davidson diagonalization with overlap

---- Real-time Memory Report at c_bands before calling an iterative solver
           734 MiB given to the printing process from OS
             0 MiB allocation reported by mallinfo(arena+hblkhd)
         39625 MiB available memory on the node where the printing process lives
------------------
     ethr =  5.27E-08,  avg # of iterations = 10.0

     total cpu time spent up to now is       81.6 secs

     total energy              =   -2456.04707485 Ry
     estimated scf accuracy    <       0.00005077 Ry

     total magnetization       =     2.00 Bohr mag/cell
     absolute magnetization    =     2.25 Bohr mag/cell

     iteration #  8     ecut=    60.00 Ry     beta= 0.30
     Davidson diagonalization with overlap

---- Real-time Memory Report at c_bands before calling an iterative solver
           752 MiB given to the printing process from OS
             0 MiB allocation reported by mallinfo(arena+hblkhd)
         39413 MiB available memory on the node where the printing process lives
------------------
     ethr =  5.89E-09,  avg # of iterations = 12.0

     total cpu time spent up to now is       91.8 secs

     total energy              =   -2456.04710462 Ry
     estimated scf accuracy    <       0.00001270 Ry

     total magnetization       =     2.00 Bohr mag/cell
     absolute magnetization    =     2.26 Bohr mag/cell

     iteration #  9     ecut=    60.00 Ry     beta= 0.30
     Davidson diagonalization with overlap

---- Real-time Memory Report at c_bands before calling an iterative solver
           759 MiB given to the printing process from OS
             0 MiB allocation reported by mallinfo(arena+hblkhd)
         39384 MiB available memory on the node where the printing process lives
------------------
     ethr =  1.47E-09,  avg # of iterations = 11.0

     total cpu time spent up to now is      102.3 secs

     total energy              =   -2456.04711668 Ry
     estimated scf accuracy    <       0.00000433 Ry

     total magnetization       =     2.00 Bohr mag/cell
     absolute magnetization    =     2.26 Bohr mag/cell

     iteration # 10     ecut=    60.00 Ry     beta= 0.30
     Davidson diagonalization with overlap

---- Real-time Memory Report at c_bands before calling an iterative solver
           775 MiB given to the printing process from OS
             0 MiB allocation reported by mallinfo(arena+hblkhd)
         39184 MiB available memory on the node where the printing process lives
------------------
     ethr =  5.03E-10,  avg # of iterations =  9.5

     total cpu time spent up to now is      112.5 secs

     total energy              =   -2456.04712068 Ry
     estimated scf accuracy    <       0.00000099 Ry

     total magnetization       =     2.00 Bohr mag/cell
     absolute magnetization    =     2.27 Bohr mag/cell

     iteration # 11     ecut=    60.00 Ry     beta= 0.30
     Davidson diagonalization with overlap

---- Real-time Memory Report at c_bands before calling an iterative solver
           784 MiB given to the printing process from OS
             0 MiB allocation reported by mallinfo(arena+hblkhd)
         39196 MiB available memory on the node where the printing process lives
------------------
     ethr =  1.15E-10,  avg # of iterations = 11.0

     total cpu time spent up to now is      125.8 secs

     total energy              =   -2456.04712163 Ry
     estimated scf accuracy    <       0.00000016 Ry

     total magnetization       =     2.00 Bohr mag/cell
     absolute magnetization    =     2.28 Bohr mag/cell

     iteration # 12     ecut=    60.00 Ry     beta= 0.30
     Davidson diagonalization with overlap

---- Real-time Memory Report at c_bands before calling an iterative solver
           790 MiB given to the printing process from OS
             0 MiB allocation reported by mallinfo(arena+hblkhd)
         39030 MiB available memory on the node where the printing process lives
------------------
     ethr =  1.90E-11,  avg # of iterations =  8.5

     total cpu time spent up to now is      137.3 secs

     total energy              =   -2456.04712179 Ry
     estimated scf accuracy    <       0.00000004 Ry

     total magnetization       =     2.00 Bohr mag/cell
     absolute magnetization    =     2.28 Bohr mag/cell

     iteration # 13     ecut=    60.00 Ry     beta= 0.30
     Davidson diagonalization with overlap

---- Real-time Memory Report at c_bands before calling an iterative solver
           803 MiB given to the printing process from OS
             0 MiB allocation reported by mallinfo(arena+hblkhd)
         39025 MiB available memory on the node where the printing process lives
------------------
     ethr =  4.27E-12,  avg # of iterations =  9.0
 
     Magnetic moment per site  (integrated on atomic sphere of radius R)
     atom   1 (R=0.057)  charge=  1.7890  magn=  0.0001
     atom   2 (R=0.057)  charge=  1.7886  magn= -0.0000
     atom   3 (R=0.057)  charge=  1.7895  magn=  0.0002
     atom   4 (R=0.057)  charge=  1.7884  magn=  0.0001
     atom   5 (R=0.057)  charge=  1.7891  magn=  0.0005
     atom   6 (R=0.057)  charge=  1.7881  magn=  0.0000
     atom   7 (R=0.057)  charge=  1.7891  magn=  0.0005
     atom   8 (R=0.057)  charge=  1.7881  magn=  0.0000
     atom   9 (R=0.057)  charge=  1.7895  magn=  0.0012
     atom  10 (R=0.057)  charge=  1.7880  magn= -0.0001
     atom  11 (R=0.057)  charge=  1.7868  magn=  0.0002
     atom  12 (R=0.057)  charge=  1.7913  magn=  0.0030
     atom  13 (R=0.057)  charge=  1.7905  magn=  0.0012
     atom  14 (R=0.057)  charge=  1.7929  magn=  0.0013
     atom  15 (R=0.057)  charge=  1.7899  magn=  0.0001
     atom  16 (R=0.057)  charge=  1.7902  magn= -0.0000
     atom  17 (R=0.057)  charge=  1.7884  magn=  0.0002
     atom  18 (R=0.057)  charge=  1.7896  magn= -0.0001
     atom  19 (R=0.057)  charge=  1.7892  magn=  0.0012
     atom  20 (R=0.057)  charge=  1.7888  magn= -0.0001
     atom  21 (R=0.057)  charge=  1.7890  magn=  0.0001
     atom  22 (R=0.057)  charge=  1.7886  magn= -0.0000
     atom  23 (R=0.057)  charge=  1.7897  magn=  0.0016
     atom  24 (R=0.057)  charge=  1.7890  magn= -0.0001
     atom  25 (R=0.057)  charge=  1.7895  magn=  0.0012
     atom  26 (R=0.057)  charge=  1.7880  magn= -0.0001
     atom  27 (R=0.057)  charge=  1.7868  magn=  0.0002
     atom  28 (R=0.057)  charge=  1.7913  magn=  0.0030
     atom  29 (R=0.057)  charge=  1.7899  magn=  0.0001
     atom  30 (R=0.057)  charge=  1.7902  magn= -0.0000
     atom  31 (R=0.057)  charge=  1.7905  magn=  0.0012
     atom  32 (R=0.057)  charge=  1.7929  magn=  0.0013
     atom  33 (R=0.057)  charge=  1.7898  magn=  0.0004
     atom  34 (R=0.057)  charge=  1.7875  magn= -0.0007
     atom  35 (R=0.057)  charge=  1.7900  magn=  0.0060
     atom  36 (R=0.057)  charge=  1.7905  magn= -0.0010
     atom  37 (R=0.057)  charge=  1.7885  magn=  0.0001
     atom  38 (R=0.057)  charge=  1.7893  magn= -0.0001
     atom  39 (R=0.057)  charge=  1.7885  magn=  0.0001
     atom  40 (R=0.057)  charge=  1.7893  magn= -0.0001
     atom  41 (R=0.057)  charge=  1.7849  magn=  0.0180
     atom  42 (R=0.057)  charge=  1.7883  magn= -0.0011
     atom  43 (R=0.057)  charge=  1.7896  magn=  0.0172
     atom  44 (R=0.057)  charge=  1.7940  magn=  0.0016
     atom  45 (R=0.057)  charge=  1.7895  magn=  0.0012
     atom  46 (R=0.057)  charge=  1.7880  magn= -0.0001
     atom  47 (R=0.057)  charge=  1.7889  magn=  0.0016
     atom  48 (R=0.057)  charge=  1.7894  magn= -0.0001
     atom  49 (R=0.057)  charge=  1.7884  magn=  0.0002
     atom  50 (R=0.057)  charge=  1.7896  magn= -0.0001
     atom  51 (R=0.057)  charge=  1.7892  magn=  0.0012
     atom  52 (R=0.057)  charge=  1.7888  magn= -0.0001
     atom  53 (R=0.057)  charge=  1.7897  magn=  0.0016
     atom  54 (R=0.057)  charge=  1.7890  magn= -0.0001
     atom  55 (R=0.057)  charge=  1.7890  magn=  0.0001
     atom  56 (R=0.057)  charge=  1.7886  magn= -0.0000
     atom  57 (R=0.057)  charge=  1.7849  magn=  0.0180
     atom  58 (R=0.057)  charge=  1.7883  magn= -0.0011
     atom  59 (R=0.057)  charge=  1.7896  magn=  0.0172
     atom  60 (R=0.057)  charge=  1.7940  magn=  0.0016
     atom  61 (R=0.057)  charge=  1.7889  magn=  0.0016
     atom  62 (R=0.057)  charge=  1.7894  magn= -0.0001
     atom  63 (R=0.057)  charge=  1.7895  magn=  0.0012
     atom  64 (R=0.057)  charge=  1.7880  magn= -0.0001
     atom  65 (R=0.057)  charge=  1.7880  magn=  0.0072
     atom  66 (R=0.057)  charge=  1.7877  magn= -0.0004
     atom  67 (R=0.057)  charge=  1.7881  magn=  0.0002
     atom  68 (R=0.057)  charge=  1.7890  magn= -0.0001
     atom  69 (R=0.057)  charge=  1.7884  magn=  0.0002
     atom  70 (R=0.057)  charge=  1.7896  magn= -0.0001
     atom  71 (R=0.057)  charge=  1.7884  magn=  0.0002
     atom  72 (R=0.057)  charge=  1.7896  magn= -0.0001
     atom  73 (R=0.057)  charge=  1.7891  magn=  0.0005
     atom  74 (R=0.057)  charge=  1.7881  magn=  0.0000
     atom  75 (R=0.057)  charge=  1.7899  magn=  0.0001
     atom  76 (R=0.057)  charge=  1.7898  magn=  0.0000
     atom  77 (R=0.057)  charge=  1.7899  magn=  0.0001
     atom  78 (R=0.057)  charge=  1.7902  magn= -0.0000
     atom  79 (R=0.057)  charge=  1.7899  magn=  0.0001
     atom  80 (R=0.057)  charge=  1.7902  magn= -0.0000
     atom  81 (R=0.057)  charge=  1.7899  magn=  0.0001
     atom  82 (R=0.057)  charge=  1.7902  magn= -0.0000
     atom  83 (R=0.057)  charge=  1.7921  magn=  0.0002
     atom  84 (R=0.057)  charge=  1.7949  magn=  0.0002
     atom  85 (R=0.057)  charge=  1.7885  magn=  0.0001
     atom  86 (R=0.057)  charge=  1.7893  magn= -0.0001
     atom  87 (R=0.057)  charge=  1.7924  magn=  0.0000
     atom  88 (R=0.057)  charge=  1.7912  magn= -0.0001
     atom  89 (R=0.057)  charge=  1.7897  magn=  0.0016
     atom  90 (R=0.057)  charge=  1.7890  magn= -0.0001
     atom  91 (R=0.057)  charge=  1.7895  magn=  0.0002
     atom  92 (R=0.057)  charge=  1.7884  magn=  0.0001
     atom  93 (R=0.057)  charge=  1.7895  magn=  0.0012
     atom  94 (R=0.057)  charge=  1.7880  magn= -0.0001
     atom  95 (R=0.057)  charge=  1.7884  magn=  0.0002
     atom  96 (R=0.057)  charge=  1.7836  magn= -0.0002
     atom  97 (R=0.057)  charge=  1.7899  magn=  0.0001
     atom  98 (R=0.057)  charge=  1.7902  magn= -0.0000
     atom  99 (R=0.057)  charge=  1.7921  magn=  0.0002
     atom 100 (R=0.057)  charge=  1.7949  magn=  0.0002
     atom 101 (R=0.057)  charge=  1.7924  magn=  0.0000
     atom 102 (R=0.057)  charge=  1.7912  magn= -0.0001
     atom 103 (R=0.057)  charge=  1.7885  magn=  0.0001
     atom 104 (R=0.057)  charge=  1.7893  magn= -0.0001
     atom 105 (R=0.057)  charge=  1.7924  magn=  0.0000
     atom 106 (R=0.057)  charge=  1.7912  magn= -0.0001
     atom 107 (R=0.057)  charge=  1.7890  magn=  0.0008
     atom 108 (R=0.057)  charge=  1.7929  magn= -0.0006
     atom 109 (R=0.057)  charge=  1.7993  magn=  0.0002
     atom 110 (R=0.057)  charge=  1.7705  magn=  0.0006
     atom 111 (R=0.057)  charge=  1.7993  magn=  0.0002
     atom 112 (R=0.057)  charge=  1.7705  magn=  0.0006
     atom 113 (R=0.057)  charge=  1.7884  magn=  0.0002
     atom 114 (R=0.057)  charge=  1.7836  magn= -0.0002
     atom 115 (R=0.057)  charge=  1.7868  magn=  0.0002
     atom 116 (R=0.057)  charge=  1.7913  magn=  0.0030
     atom 117 (R=0.057)  charge=  1.7898  magn=  0.0004
     atom 118 (R=0.057)  charge=  1.7875  magn= -0.0007
     atom 119 (R=0.057)  charge=  1.7846  magn=  0.0038
     atom 120 (R=0.057)  charge=  1.7902  magn= -0.0040
     atom 121 (R=0.057)  charge=  1.7897  magn=  0.0016
     atom 122 (R=0.057)  charge=  1.7890  magn= -0.0001
     atom 123 (R=0.057)  charge=  1.7895  magn=  0.0002
     atom 124 (R=0.057)  charge=  1.7884  magn=  0.0001
     atom 125 (R=0.057)  charge=  1.7884  magn=  0.0002
     atom 126 (R=0.057)  charge=  1.7836  magn= -0.0002
     atom 127 (R=0.057)  charge=  1.7895  magn=  0.0012
     atom 128 (R=0.057)  charge=  1.7880  magn= -0.0001
     atom 129 (R=0.057)  charge=  1.7884  magn=  0.0002
     atom 130 (R=0.057)  charge=  1.7836  magn= -0.0002
     atom 131 (R=0.057)  charge=  1.7868  magn=  0.0002
     atom 132 (R=0.057)  charge=  1.7913  magn=  0.0030
     atom 133 (R=0.057)  charge=  1.7846  magn=  0.0038
     atom 134 (R=0.057)  charge=  1.7902  magn= -0.0040
     atom 135 (R=0.057)  charge=  1.7898  magn=  0.0004
     atom 136 (R=0.057)  charge=  1.7875  magn= -0.0007
     atom 137 (R=0.057)  charge=  1.7892  magn=  0.0009
     atom 138 (R=0.057)  charge=  1.7889  magn= -0.0011
     atom 139 (R=0.057)  charge=  1.7892  magn=  0.0012
     atom 140 (R=0.057)  charge=  1.7888  magn= -0.0001
     atom 141 (R=0.057)  charge=  1.7849  magn=  0.0180
     atom 142 (R=0.057)  charge=  1.7883  magn= -0.0011
     atom 143 (R=0.057)  charge=  1.7849  magn=  0.0180
     atom 144 (R=0.057)  charge=  1.7883  magn= -0.0011
     atom 145 (R=0.057)  charge=  1.7905  magn=  0.0012
     atom 146 (R=0.057)  charge=  1.7929  magn=  0.0013
     atom 147 (R=0.057)  charge=  1.7921  magn=  0.0002
     atom 148 (R=0.057)  charge=  1.7949  magn=  0.0002
     atom 149 (R=0.057)  charge=  1.7897  magn=  0.0016
     atom 150 (R=0.057)  charge=  1.7890  magn= -0.0001
     atom 151 (R=0.057)  charge=  1.7897  magn=  0.0016
     atom 152 (R=0.057)  charge=  1.7890  magn= -0.0001
     atom 153 (R=0.057)  charge=  1.7885  magn=  0.0001
     atom 154 (R=0.057)  charge=  1.7893  magn= -0.0001
     atom 155 (R=0.057)  charge=  1.7890  magn=  0.0008
     atom 156 (R=0.057)  charge=  1.7929  magn= -0.0006
     atom 157 (R=0.057)  charge=  1.7889  magn=  0.0016
     atom 158 (R=0.057)  charge=  1.7894  magn= -0.0001
     atom 159 (R=0.057)  charge=  1.7884  magn=  0.0002
     atom 160 (R=0.057)  charge=  1.7836  magn= -0.0002
     atom 161 (R=0.057)  charge=  1.7889  magn=  0.0016
     atom 162 (R=0.057)  charge=  1.7894  magn= -0.0001
     atom 163 (R=0.057)  charge=  1.7868  magn=  0.0002
     atom 164 (R=0.057)  charge=  1.7913  magn=  0.0030
     atom 165 (R=0.057)  charge=  1.7884  magn=  0.0002
     atom 166 (R=0.057)  charge=  1.7896  magn= -0.0001
     atom 167 (R=0.057)  charge=  1.7892  magn=  0.0009
     atom 168 (R=0.057)  charge=  1.7889  magn= -0.0011
     atom 169 (R=0.057)  charge=  1.7885  magn=  0.0001
     atom 170 (R=0.057)  charge=  1.7893  magn= -0.0001
     atom 171 (R=0.057)  charge=  1.7890  magn=  0.0008
     atom 172 (R=0.057)  charge=  1.7929  magn= -0.0006
     atom 173 (R=0.057)  charge=  1.7884  magn=  0.0002
     atom 174 (R=0.057)  charge=  1.7836  magn= -0.0002
     atom 175 (R=0.057)  charge=  1.7889  magn=  0.0016
     atom 176 (R=0.057)  charge=  1.7894  magn= -0.0001
     atom 177 (R=0.057)  charge=  1.7993  magn=  0.0002
     atom 178 (R=0.057)  charge=  1.7705  magn=  0.0006
     atom 179 (R=0.057)  charge=  1.7846  magn=  0.0038
     atom 180 (R=0.057)  charge=  1.7902  magn= -0.0040
     atom 181 (R=0.057)  charge=  1.7846  magn=  0.0038
     atom 182 (R=0.057)  charge=  1.7902  magn= -0.0040
     atom 183 (R=0.057)  charge=  1.7846  magn=  0.0038
     atom 184 (R=0.057)  charge=  1.7902  magn= -0.0040
     atom 185 (R=0.057)  charge=  1.7900  magn=  0.0060
     atom 186 (R=0.057)  charge=  1.7905  magn= -0.0010
     atom 187 (R=0.057)  charge=  1.7849  magn=  0.0180
     atom 188 (R=0.057)  charge=  1.7883  magn= -0.0011
     atom 189 (R=0.057)  charge=  1.7964  magn=  0.2457
     atom 190 (R=0.057)  charge=  1.7972  magn= -0.0082
     atom 191 (R=0.057)  charge=  1.7889  magn=  0.0016
     atom 192 (R=0.057)  charge=  1.7894  magn= -0.0001
     atom 193 (R=0.057)  charge=  1.7868  magn=  0.0002
     atom 194 (R=0.057)  charge=  1.7913  magn=  0.0030
     atom 195 (R=0.057)  charge=  1.7892  magn=  0.0009
     atom 196 (R=0.057)  charge=  1.7889  magn= -0.0011
     atom 197 (R=0.057)  charge=  1.7884  magn=  0.0002
     atom 198 (R=0.057)  charge=  1.7896  magn= -0.0001
     atom 199 (R=0.057)  charge=  1.7846  magn=  0.0038
     atom 200 (R=0.057)  charge=  1.7902  magn= -0.0040
     atom 201 (R=0.057)  charge=  1.7900  magn=  0.0060
     atom 202 (R=0.057)  charge=  1.7905  magn= -0.0010
     atom 203 (R=0.057)  charge=  1.7964  magn=  0.2457
     atom 204 (R=0.057)  charge=  1.7972  magn= -0.0082
     atom 205 (R=0.057)  charge=  1.7849  magn=  0.0180
     atom 206 (R=0.057)  charge=  1.7883  magn= -0.0011
     atom 207 (R=0.057)  charge=  1.7964  magn=  0.2457
     atom 208 (R=0.057)  charge=  1.7972  magn= -0.0082
     atom 209 (R=0.057)  charge=  1.7896  magn=  0.0172
     atom 210 (R=0.057)  charge=  1.7940  magn=  0.0016
     atom 211 (R=0.057)  charge=  1.7880  magn=  0.0072
     atom 212 (R=0.057)  charge=  1.7877  magn= -0.0004
     atom 213 (R=0.057)  charge=  1.7880  magn=  0.0072
     atom 214 (R=0.057)  charge=  1.7877  magn= -0.0004
     atom 215 (R=0.057)  charge=  2.8770  magn= -0.0007

     total cpu time spent up to now is      148.3 secs

     End of self-consistent calculation

 ------ SPIN UP ------------


          k = 0.0000 0.0000 0.0000 ( 31995 PWs)   bands (ev):

    -8.2016  -7.3767  -7.1812  -7.1812  -7.1365  -7.1365  -7.0543  -6.5248
    -6.1696  -6.1696  -6.1604  -6.1604  -6.1452  -6.1210  -6.1210  -6.1085
    -6.0657  -6.0657  -5.8966  -5.3926  -5.1318  -5.1239  -5.1239  -5.1023
    -5.1023  -5.0984  -4.9407  -4.3226  -4.1277  -4.1277  -4.1089  -4.1089
    -4.0513  -3.7243  -3.2291  -3.2291  -3.2190  -3.2179  -3.2179  -3.2041
    -3.2031  -3.2031  -3.1924  -3.1853  -3.1853  -3.1784  -3.1784  -3.1767
    -3.1504  -3.1504  -3.1337  -3.1337  -3.1306  -3.1106  -3.0537  -3.0537
    -2.8705  -2.6653  -2.4382  -2.4382  -2.4033  -2.4023  -2.4023  -2.3898
    -2.3842  -2.3842  -2.3799  -2.3737  -2.3737  -2.3524  -2.3474  -2.3474
    -2.3296  -2.3296  -2.2930  -2.2918  -2.2918  -2.2556  -2.1627  -2.1626
    -1.4835  -0.8744  -0.7060  -0.7060  -0.6648  -0.6648  -0.6588  -0.6578
    -0.6578  -0.6448  -0.6091  -0.6091  -0.2647   0.5431   0.5968   0.5968
     0.6206   0.6206   0.6594   0.8772   1.0556   1.0556   1.1106   1.1172
     1.1172   1.1283   1.1283   1.1308   1.1314   1.1493   1.1493   1.1575
     1.1575   1.1783   1.2165   1.2243   1.2243   1.2368   1.2368   1.2505
     1.2612   1.2612   1.2624   1.2857   1.2857   1.2900   1.2999   1.3015
     1.3015   1.3065   1.3133   1.3133   1.3228   1.3338   1.3338   1.3533
     1.3533   1.3587   1.3624   1.3624   1.3670   1.3670   1.3821   1.5950
     1.7226   1.7226   2.1437   2.4086   2.4086   2.4103   2.4534   2.4561
     2.4561   2.4649   2.4854   2.4854   2.6095   2.6095   3.5658   3.8814
     3.8814   3.9107   3.9556   3.9610   3.9610   3.9675   3.9675   3.9689
     3.9727   3.9849   3.9997   3.9997   4.0184   4.0237   4.0237   4.1415
     4.1415   4.1516   4.2034   4.5879   4.5879   4.6102   4.6927   4.6979
     4.6995   4.6995   4.7027   4.7027   4.7131   4.7131   4.7153   4.7232
     4.7232   4.7281   4.7343   4.7343   4.7490   4.7591   4.7630   4.7630
     4.9487   4.9487   5.4268   5.4268   5.4397   5.4907   5.4911   5.4911
     5.4946   5.5018   5.5018   5.5133   5.5133   5.5212   5.5323   5.5323
     5.5841   5.5841   5.5902   5.6009   5.6124   5.6398   5.6399   5.7116
     5.7277   5.7277   5.8128   5.9370   5.9370   6.0362   6.0362   6.0399
     6.0501   6.0530   6.0530   6.0596   6.0596   6.0607   6.0666   6.0791
     6.0838   6.0838   6.1004   6.1004   6.1153   6.1363   6.1363   6.1377
     6.1906   6.2056   6.2056   6.2764   6.2764   6.5074   6.5539   6.5539
     7.0510   7.0510   7.1120   7.1337   7.1445   7.1445   7.2791   7.6210
     7.6210   7.7017   7.7123   7.7123   7.7277   7.7285   7.7285   7.7498
     7.8027   7.8027   7.9449   7.9449   8.0629   8.0852   8.0889   8.0889
     8.0912   8.0917   8.0917   8.1224   8.1530   8.1530   8.1564   8.3072
     8.3072   8.3390   8.3663   8.3709   8.3709   8.3831   8.3881   8.3881
     8.3908   8.3908   8.3985   8.3988   8.4043   8.4043   8.4341   8.4341
     8.4423   8.4423   8.4529   8.4540   8.4540   8.4581   8.5077   8.5077
     8.5272   8.5483   8.5590   8.5625   8.5625   8.5656   8.5696   8.5696
     8.5703   8.5703   8.5761   8.5791   8.5864   8.5864   8.5909   8.5909
     8.5921   8.5948   8.5948   8.6046   8.6054   8.6065   8.6065   8.6164
     8.6164   8.6285   8.6419   8.6419   8.6536   8.6606   8.6606   8.6820
     8.6820   8.7064   8.7064   8.7205   8.7346   8.7668   8.7668   8.7722
     8.7850   8.8715   8.8715   9.1497   9.1573   9.1573   9.3305   9.3305
     9.3970   9.3970   9.3984   9.4054   9.4282   9.4333   9.4333   9.4353
     9.4543   9.4543   9.4639   9.4639   9.4682   9.4721   9.4721   9.4987
     9.5403   9.5403   9.6115  10.2727  10.3912  10.3912  10.7390  10.7828
    10.7828  10.8366  10.8366  10.8380  10.8556  10.8567  10.8567  10.8581
    10.9349  10.9349  10.9451  11.0358  11.0358  11.0961  11.1017  11.1017
    11.1064  11.1064  11.1144  11.1144  11.1254  11.1422  11.1422  11.1745
    11.1939  11.1964  11.1964  11.2323  11.2323  11.7744  11.7963  11.7963
    12.0274  12.0274  12.0381  12.0657  12.0657  12.0657  12.0939  12.1075
    12.1267  12.1267  13.2058  13.3028  13.3028  14.1559  15.2885  15.2886
    17.6719  17.6719  17.6906  17.7245  17.7245  17.7498  18.2461  18.3146
    18.3146  18.3311  18.3311  18.3883  18.4501  18.4501  18.5041  18.5489
    18.5489  18.5689  19.1711  19.1711  19.1971  19.7888  19.8621  19.8621
    19.8745  19.9111  19.9111  19.9200  19.9200  19.9285  19.9389  19.9389
    19.9795  20.4218  20.5802  20.5802  20.6153  20.6156  20.6156  20.6216
    20.6216  20.6235  20.6270  20.6270  20.6427  20.6517  20.6603  20.6603
    20.6802  20.6802  20.6809  20.7257  20.7257  20.7405  20.7669  20.7700
    20.7700  21.0583  21.0641  21.0641  21.1009  21.1060  21.1235  21.1235
    21.1282  21.1296  21.1296  21.1449  21.1449  21.1705  21.1895  21.1895
    21.2167  21.2206  21.2206  21.2368  21.2368  21.2386  21.2386  21.2604
    21.2604  21.2615  21.2741  21.2741  21.2797  21.2797  21.3037  21.3037
    21.3097  21.3226  21.3226  21.3368  21.3576  21.4243  21.4243  21.4252
    21.4827  21.4827  21.4980  21.6223  21.6946  21.6946  21.7135  21.7403
    21.7403  21.7465  21.7525  21.7525  21.7557  21.7594  21.7594  21.7709
    21.7709  21.7806  21.7975  21.7975  21.8044  21.8044  21.8048  21.8055
    21.8313  21.8313  21.8363  21.8363  21.8504  21.8509  21.8509  21.8719
    21.8719  21.8757  21.8821  21.9081  21.9081  21.9658  22.0762  22.0762
    22.0936  22.1178  22.1178  22.1354  22.1467  22.1561  22.1561  22.1610
    22.1788  22.1788  22.2025  22.2025  22.2067  22.2183  22.2752  22.2768
    22.2768  22.3937  22.4009  22.4009  22.4206  22.4206  22.5368  22.5368
    22.5395  22.5959  22.5959  22.6151  22.6240  22.6240  22.6256  22.7720
    22.7760  22.7760  22.8597  22.9037  22.9037  22.9202  22.9320  22.9320
    23.1080  23.1080  23.1088  23.2574  23.3722  23.3722  23.3854  23.4924
    23.4924  23.5007  23.5080  23.5080  23.5147  23.5147  23.5301  23.5347
    23.5352  23.5352  23.5453  23.5736  23.6001  23.6001  23.6228  23.6612
    23.6938  23.6939  23.7574  23.7574  23.8421  23.8615  23.8615  24.2147
    24.2235  24.2235  24.2269  24.2399  24.2418  24.2418  24.2642  24.2642
    24.2680  24.2891  24.2891  24.2994  24.2994  24.3294  24.3379  24.3793
    24.4029  24.4138  24.4138  24.5816  24.5816  24.6995  24.6995  24.7756
    24.7808  24.7808  24.7982  24.8340  24.8340  24.8380  24.8380  24.8389
    24.8553  24.8915  24.8915  24.8919  24.9296  24.9296  24.9325  24.9325
    24.9510  24.9510  24.9563  24.9814  24.9972  25.0217  25.0217  25.0245
    25.0309  25.0309  25.0409  25.0525  25.0660  25.0660  25.0732  25.0975
    25.0975  25.1139  25.1139  25.1438  25.1494  25.1748  25.1748  25.2992
    25.2992  25.3794  25.3794  25.9567  26.0046  26.0046  26.1818  26.3538
    26.3650  26.3650  26.3762  26.3762  26.4662  26.4817  26.4887  26.4887
    26.5508  26.5509  26.6029  26.6304  26.6304  26.6696  26.7429  26.7687
    26.7687  27.0864  27.1089  27.1089  27.1427  27.1604  27.1666  27.1711
    27.1711  27.2026  27.2026  27.2223  27.2223  27.2350  27.3180  27.3358
    27.3358  27.3436  27.3700  27.3700  27.4040  27.4040  27.4225  27.4845
    27.4845  27.5851  27.5851  27.6129  27.6179  27.6253  27.6254  27.6265
    27.6455  27.6455  27.6456  27.6500  27.6500  27.6755  27.6755  27.6995
    27.7155  27.7398  27.7398  27.7635  27.7705  27.7705  27.7821  27.7821
    27.7889  27.7943  27.7943  27.7973  27.8125  27.8149  27.8149  27.8192
    27.8228  27.8228  27.8304  27.8408  27.8408  27.8578  27.8641  27.8641
    27.8753  27.8766  27.8766  27.8828  27.8965  27.8965  27.9308  27.9389
    27.9561  27.9561  27.9770  27.9788  27.9788  28.0060  28.0060  28.0499
    28.0599  28.0599  28.0742  28.0788  28.0788  28.0855  28.1055  28.1196
    28.1196  28.1262  28.1297  28.1297  28.1515  28.1515  28.1582  28.2052
    28.2052  28.2296  28.2491  28.2491  28.2654  28.3459  28.3459  28.4499
    28.4762  28.4780  28.4780  28.5443  28.6240  28.6240  28.6597  28.6597
    28.6948  28.7219  28.7219  28.8364  28.8374  28.8374  28.8655  28.8856
    28.8938  28.8938  29.0593  29.0967  29.1053  29.1053  30.2391  30.3463
    30.3463  30.3851  30.4902  30.4902  30.5201  30.5535  30.5535  30.5719

     occupation numbers 
     1.0000   1.0000   1.0000   1.0000   1.0000   1.0000   1.0000   1.0000
     1.0000   1.0000   1.0000   1.0000   1.0000   1.0000   1.0000   1.0000
     1.0000   1.0000   1.0000   1.0000   1.0000   1.0000   1.0000   1.0000
     1.0000   1.0000   1.0000   1.0000   1.0000   1.0000   1.0000   1.0000
     1.0000   1.0000   1.0000   1.0000   1.0000   1.0000   1.0000   1.0000
     1.0000   1.0000   1.0000   1.0000   1.0000   1.0000   1.0000   1.0000
     1.0000   1.0000   1.0000   1.0000   1.0000   1.0000   1.0000   1.0000
     1.0000   1.0000   1.0000   1.0000   1.0000   1.0000   1.0000   1.0000
     1.0000   1.0000   1.0000   1.0000   1.0000   1.0000   1.0000   1.0000
     1.0000   1.0000   1.0000   1.0000   1.0000   1.0000   1.0000   1.0000
     1.0000   1.0000   1.0000   1.0000   1.0000   1.0000   1.0000   1.0000
     1.0000   1.0000   1.0000   1.0000   1.0000   1.0000   1.0000   1.0000
     1.0000   1.0000   1.0000   1.0000   1.0000   1.0000   1.0000   1.0000
     1.0000   1.0000   1.0000   1.0000   1.0000   1.0000   1.0000   1.0000
     1.0000   1.0000   1.0000   1.0000   1.0000   1.0000   1.0000   1.0000
     1.0000   1.0000   1.0000   1.0000   1.0000   1.0000   1.0000   1.0000
     1.0000   1.0000   1.0000   1.0000   1.0000   1.0000   1.0000   1.0000
     1.0000   1.0000   1.0000   1.0000   1.0000   1.0000   1.0000   1.0000
     1.0000   1.0000   1.0000   1.0000   1.0000   1.0000   1.0000   1.0000
     1.0000   1.0000   1.0000   1.0000   1.0000   1.0000   1.0000   1.0000
     1.0000   1.0000   1.0000   1.0000   1.0000   1.0000   1.0000   1.0000
     1.0000   1.0000   1.0000   1.0000   1.0000   1.0000   1.0000   1.0000
     1.0000   1.0000   1.0000   1.0000   1.0000   1.0000   1.0000   1.0000
     1.0000   1.0000   1.0000   1.0000   1.0000   1.0000   1.0000   1.0000
     1.0000   1.0000   1.0000   1.0000   1.0000   1.0000   1.0000   1.0000
     1.0000   1.0000   1.0000   1.0000   1.0000   1.0000   1.0000   1.0000
     1.0000   1.0000   1.0000   1.0000   1.0000   1.0000   1.0000   1.0000
     1.0000   1.0000   1.0000   1.0000   1.0000   1.0000   1.0000   1.0000
     1.0000   1.0000   1.0000   1.0000   1.0000   1.0000   1.0000   1.0000
     1.0000   1.0000   1.0000   1.0000   1.0000   1.0000   1.0000   1.0000
     1.0000   1.0000   1.0000   1.0000   1.0000   1.0000   1.0000   1.0000
     1.0000   1.0000   1.0000   1.0000   1.0000   1.0000   1.0000   1.0000
     1.0000   1.0000   1.0000   1.0000   1.0000   1.0000   1.0000   1.0000
     1.0000   1.0000   1.0000   1.0000   1.0000   1.0000   1.0000   1.0000
     1.0000   1.0000   1.0000   1.0000   1.0000   1.0000   1.0000   1.0000
     1.0000   1.0000   1.0000   1.0000   1.0000   1.0000   1.0000   1.0000
     1.0000   1.0000   1.0000   1.0000   1.0000   1.0000   1.0000   1.0000
     1.0000   1.0000   1.0000   1.0000   1.0000   1.0000   1.0000   1.0000
     1.0000   1.0000   1.0000   1.0000   1.0000   1.0000   1.0000   1.0000
     1.0000   1.0000   1.0000   1.0000   1.0000   1.0000   1.0000   1.0000
     1.0000   1.0000   1.0000   1.0000   1.0000   1.0000   1.0000   1.0000
     1.0000   1.0000   1.0000   1.0000   1.0000   1.0000   1.0000   1.0000
     1.0000   1.0000   1.0000   1.0000   1.0000   1.0000   1.0000   1.0000
     1.0000   1.0000   1.0000   1.0000   1.0000   1.0000   1.0000   1.0000
     1.0000   1.0000   1.0000   1.0000   1.0000   1.0000   1.0000   1.0000
     1.0000   1.0000   1.0000   1.0000   1.0000   1.0000   1.0000   1.0000
     1.0000   1.0000   1.0000   1.0000   1.0000   1.0000   1.0000   1.0000
     1.0000   1.0000   1.0000   1.0000   1.0000   1.0000   1.0000   1.0000
     1.0000   1.0000   1.0000   1.0000   1.0000   1.0000   1.0000   1.0000
     1.0000   1.0000   1.0000   1.0000   1.0000   1.0000   1.0000   1.0000
     1.0000   1.0000   1.0000   1.0000   1.0000   1.0000   1.0000   1.0000
     1.0000   1.0000   1.0000   1.0000   1.0000   1.0000   1.0000   1.0000
     1.0000   1.0000   1.0000   1.0000   1.0000   1.0000   1.0000   1.0000
     1.0000   1.0000   1.0000   1.0000   1.0000   1.0000   1.0000   1.0000
     0.0000   0.0000   0.0000   0.0000   0.0000   0.0000   0.0000   0.0000
     0.0000   0.0000   0.0000   0.0000   0.0000   0.0000   0.0000   0.0000
     0.0000   0.0000   0.0000   0.0000   0.0000   0.0000   0.0000   0.0000
     0.0000   0.0000   0.0000   0.0000   0.0000   0.0000   0.0000   0.0000
     0.0000   0.0000   0.0000   0.0000   0.0000   0.0000   0.0000   0.0000
     0.0000   0.0000   0.0000   0.0000   0.0000   0.0000   0.0000   0.0000
     0.0000   0.0000   0.0000   0.0000   0.0000   0.0000   0.0000   0.0000
     0.0000   0.0000   0.0000   0.0000   0.0000   0.0000   0.0000   0.0000
     0.0000   0.0000   0.0000   0.0000   0.0000   0.0000   0.0000   0.0000
     0.0000   0.0000   0.0000   0.0000   0.0000   0.0000   0.0000   0.0000
     0.0000   0.0000   0.0000   0.0000   0.0000   0.0000   0.0000   0.0000
     0.0000   0.0000   0.0000   0.0000   0.0000   0.0000   0.0000   0.0000
     0.0000   0.0000   0.0000   0.0000   0.0000   0.0000   0.0000   0.0000
     0.0000   0.0000   0.0000   0.0000   0.0000   0.0000   0.0000   0.0000
     0.0000   0.0000   0.0000   0.0000   0.0000   0.0000   0.0000   0.0000
     0.0000   0.0000   0.0000   0.0000   0.0000   0.0000   0.0000   0.0000
     0.0000   0.0000   0.0000   0.0000   0.0000   0.0000   0.0000   0.0000
     0.0000   0.0000   0.0000   0.0000   0.0000   0.0000   0.0000   0.0000
     0.0000   0.0000   0.0000   0.0000   0.0000   0.0000   0.0000   0.0000
     0.0000   0.0000   0.0000   0.0000   0.0000   0.0000   0.0000   0.0000
     0.0000   0.0000   0.0000   0.0000   0.0000   0.0000   0.0000   0.0000
     0.0000   0.0000   0.0000   0.0000   0.0000   0.0000   0.0000   0.0000
     0.0000   0.0000   0.0000   0.0000   0.0000   0.0000   0.0000   0.0000
     0.0000   0.0000   0.0000   0.0000   0.0000   0.0000   0.0000   0.0000
     0.0000   0.0000   0.0000   0.0000   0.0000   0.0000   0.0000   0.0000
     0.0000   0.0000   0.0000   0.0000   0.0000   0.0000   0.0000   0.0000
     0.0000   0.0000   0.0000   0.0000   0.0000   0.0000   0.0000   0.0000
     0.0000   0.0000   0.0000   0.0000   0.0000   0.0000   0.0000   0.0000
     0.0000   0.0000   0.0000   0.0000   0.0000   0.0000   0.0000   0.0000
     0.0000   0.0000   0.0000   0.0000   0.0000   0.0000   0.0000   0.0000
     0.0000   0.0000   0.0000   0.0000   0.0000   0.0000   0.0000   0.0000
     0.0000   0.0000   0.0000   0.0000   0.0000   0.0000   0.0000   0.0000
     0.0000   0.0000   0.0000   0.0000   0.0000   0.0000   0.0000   0.0000
     0.0000   0.0000   0.0000   0.0000   0.0000   0.0000   0.0000   0.0000
     0.0000   0.0000   0.0000   0.0000   0.0000   0.0000   0.0000   0.0000
     0.0000   0.0000   0.0000   0.0000   0.0000   0.0000   0.0000   0.0000
     0.0000   0.0000   0.0000   0.0000   0.0000   0.0000   0.0000   0.0000
     0.0000   0.0000   0.0000   0.0000   0.0000   0.0000   0.0000   0.0000
     0.0000   0.0000   0.0000   0.0000   0.0000   0.0000   0.0000   0.0000
     0.0000   0.0000   0.0000   0.0000   0.0000   0.0000   0.0000   0.0000
     0.0000   0.0000   0.0000   0.0000   0.0000   0.0000   0.0000   0.0000
     0.0000   0.0000   0.0000   0.0000   0.0000   0.0000   0.0000   0.0000
     0.0000   0.0000   0.0000   0.0000   0.0000   0.0000   0.0000   0.0000
     0.0000   0.0000   0.0000   0.0000   0.0000   0.0000   0.0000   0.0000
     0.0000   0.0000   0.0000   0.0000   0.0000   0.0000   0.0000   0.0000
     0.0000   0.0000   0.0000   0.0000   0.0000   0.0000   0.0000   0.0000
     0.0000   0.0000   0.0000   0.0000   0.0000   0.0000   0.0000   0.0000
     0.0000   0.0000   0.0000   0.0000   0.0000   0.0000   0.0000   0.0000
     0.0000   0.0000   0.0000   0.0000   0.0000   0.0000   0.0000   0.0000
     0.0000   0.0000   0.0000   0.0000   0.0000   0.0000   0.0000   0.0000
     0.0000   0.0000   0.0000   0.0000   0.0000   0.0000   0.0000   0.0000
     0.0000   0.0000   0.0000   0.0000   0.0000   0.0000   0.0000   0.0000
     0.0000   0.0000   0.0000   0.0000   0.0000   0.0000   0.0000   0.0000
     0.0000   0.0000   0.0000   0.0000   0.0000   0.0000   0.0000   0.0000

 ------ SPIN DOWN ----------


          k = 0.0000 0.0000 0.0000 ( 31995 PWs)   bands (ev):

    -8.1964  -7.3736  -7.1785  -7.1785  -7.1294  -7.1294  -7.0428  -6.5214
    -6.1675  -6.1675  -6.1582  -6.1582  -6.1407  -6.1143  -6.1143  -6.1053
    -6.0493  -6.0493  -5.8737  -5.3878  -5.1268  -5.1181  -5.1181  -5.0918
    -5.0863  -5.0863  -4.9164  -4.3105  -4.1223  -4.1223  -4.0989  -4.0989
    -4.0433  -3.7117  -3.2258  -3.2258  -3.2182  -3.2151  -3.2151  -3.2009
    -3.1993  -3.1993  -3.1909  -3.1828  -3.1828  -3.1743  -3.1743  -3.1743
    -3.1367  -3.1367  -3.1238  -3.1238  -3.1197  -3.1076  -3.0276  -3.0276
    -2.8576  -2.6617  -2.4362  -2.4362  -2.4010  -2.3978  -2.3978  -2.3875
    -2.3800  -2.3800  -2.3711  -2.3673  -2.3673  -2.3442  -2.3423  -2.3423
    -2.3253  -2.3253  -2.2816  -2.2785  -2.2785  -2.2464  -2.0974  -2.0974
    -1.4209  -0.8664  -0.7019  -0.7019  -0.6549  -0.6549  -0.6544  -0.6512
    -0.6512  -0.6390  -0.5776  -0.5776  -0.2052   0.5557   0.6005   0.6005
     0.6280   0.6280   0.6659   0.8961   1.0586   1.0587   1.1109   1.1188
     1.1188   1.1313   1.1313   1.1329   1.1335   1.1532   1.1532   1.1608
     1.1608   1.1848   1.2267   1.2316   1.2316   1.2469   1.2469   1.2569
     1.2671   1.2739   1.2739   1.2890   1.2890   1.2970   1.3023   1.3069
     1.3069   1.3093   1.3217   1.3217   1.3324   1.3398   1.3398   1.3604
     1.3604   1.3666   1.3701   1.3701   1.3877   1.3877   1.4167   1.6106
     1.7775   1.7775   2.1663   2.4145   2.4145   2.4266   2.4563   2.4600
     2.4600   2.4750   2.4913   2.4913   2.6695   2.6695   3.6340   3.8868
     3.8868   3.9187   3.9586   3.9649   3.9649   3.9711   3.9711   3.9717
     3.9796   3.9969   4.0072   4.0072   4.0275   4.0330   4.0330   4.1571
     4.1571   4.1629   4.2260   4.5945   4.5945   4.6309   4.6936   4.7014
     4.7017   4.7017   4.7089   4.7089   4.7177   4.7177   4.7188   4.7289
     4.7289   4.7412   4.7418   4.7418   4.7592   4.7695   4.7754   4.7754
     5.0066   5.0066   5.4312   5.4312   5.4536   5.4925   5.4925   5.4944
     5.4960   5.5045   5.5045   5.5175   5.5175   5.5236   5.5357   5.5357
     5.5909   5.5909   5.6012   5.6088   5.6187   5.6539   5.6539   5.7146
     5.7390   5.7390   5.8530   5.9424   5.9425   6.0382   6.0382   6.0505
     6.0554   6.0566   6.0566   6.0656   6.0673   6.0673   6.0730   6.0870
     6.0886   6.0886   6.1137   6.1137   6.1205   6.1538   6.1540   6.1540
     6.2110   6.2217   6.2217   6.2846   6.2846   6.5305   6.5990   6.5990
     7.0578   7.0578   7.1216   7.1417   7.1628   7.1628   7.3602   7.6345
     7.6345   7.7099   7.7152   7.7152   7.7325   7.7363   7.7363   7.7653
     7.8176   7.8176   7.9494   7.9494   8.0720   8.0908   8.0926   8.0926
     8.1044   8.1044   8.1194   8.1325   8.1643   8.1643   8.1732   8.3169
     8.3169   8.3418   8.3688   8.3731   8.3731   8.3857   8.3897   8.3897
     8.3937   8.3937   8.4011   8.4030   8.4069   8.4069   8.4397   8.4397
     8.4492   8.4492   8.4581   8.4632   8.4656   8.4656   8.5135   8.5135
     8.5340   8.5601   8.5645   8.5645   8.5646   8.5687   8.5722   8.5722
     8.5735   8.5735   8.5802   8.5829   8.5900   8.5900   8.5954   8.5955
     8.5955   8.6019   8.6019   8.6108   8.6128   8.6128   8.6246   8.6276
     8.6276   8.6331   8.6517   8.6517   8.6602   8.6697   8.6697   8.6886
     8.6886   8.7197   8.7197   8.7468   8.7553   8.7802   8.7880   8.7880
     8.7952   8.9123   8.9123   9.1620   9.1774   9.1774   9.3362   9.3362
     9.3996   9.3996   9.4014   9.4075   9.4362   9.4377   9.4377   9.4442
     9.4619   9.4619   9.4759   9.4823   9.4823   9.4887   9.4887   9.5044
     9.5663   9.5663   9.6473  10.2901  10.4676  10.4676  10.7979  10.7979
    10.8388  10.8388  10.8442  10.8578  10.8612  10.8722  10.8722  10.9142
    10.9406  10.9406  10.9535  11.0405  11.0405  11.1051  11.1061  11.1061
    11.1165  11.1165  11.1243  11.1243  11.1313  11.1610  11.1610  11.1946
    11.2034  11.2064  11.2064  11.2384  11.2384  11.7868  11.8288  11.8288
    12.0346  12.0346  12.0400  12.0713  12.0713  12.0713  12.1076  12.1442
    12.1442  12.4620  13.3282  13.3464  13.3464  14.7390  16.6899  16.6899
    17.6758  17.6758  17.7017  17.7371  17.7371  17.7597  18.2514  18.3234
    18.3234  18.3375  18.3375  18.3963  18.4549  18.4549  18.5326  18.5687
    18.5687  18.5797  19.1939  19.1939  19.2076  19.7970  19.8653  19.8653
    19.8772  19.9200  19.9200  19.9274  19.9274  19.9328  19.9441  19.9441
    19.9868  20.4264  20.5833  20.5833  20.6171  20.6191  20.6191  20.6255
    20.6269  20.6269  20.6334  20.6334  20.6494  20.6553  20.6659  20.6659
    20.6881  20.6906  20.6906  20.7330  20.7330  20.7482  20.7766  20.7779
    20.7779  21.0630  21.0706  21.0706  21.1034  21.1079  21.1258  21.1258
    21.1315  21.1316  21.1316  21.1480  21.1480  21.1724  21.1937  21.1937
    21.2209  21.2243  21.2243  21.2407  21.2407  21.2429  21.2495  21.2653
    21.2751  21.2751  21.2872  21.2872  21.2931  21.2931  21.3113  21.3113
    21.3134  21.3288  21.3288  21.3488  21.3649  21.4305  21.4305  21.4387
    21.4908  21.4908  21.5040  21.6270  21.7004  21.7004  21.7181  21.7443
    21.7443  21.7532  21.7558  21.7558  21.7566  21.7655  21.7655  21.7754
    21.7754  21.7849  21.8026  21.8026  21.8107  21.8107  21.8108  21.8122
    21.8370  21.8370  21.8455  21.8455  21.8579  21.8736  21.8736  21.8825
    21.8825  21.8897  21.8991  21.9403  21.9403  22.0042  22.0872  22.0872
    22.0978  22.1269  22.1269  22.1385  22.1533  22.1610  22.1610  22.1655
    22.1846  22.1846  22.2076  22.2076  22.2124  22.2246  22.2947  22.2947
    22.2979  22.4008  22.4226  22.4226  22.4419  22.4419  22.5399  22.5399
    22.5424  22.6109  22.6109  22.6271  22.6319  22.6347  22.6347  22.7830
    22.7869  22.7869  22.8779  22.9120  22.9120  22.9290  22.9357  22.9357
    23.1276  23.1526  23.1526  23.3271  23.3896  23.3896  23.4057  23.4988
    23.4988  23.5031  23.5108  23.5108  23.5196  23.5196  23.5364  23.5380
    23.5380  23.5406  23.5511  23.5855  23.6160  23.6161  23.6410  23.7006
    23.7551  23.7552  23.7816  23.7816  23.8594  23.9025  23.9026  24.2173
    24.2285  24.2285  24.2359  24.2424  24.2460  24.2460  24.2672  24.2672
    24.2755  24.3060  24.3060  24.3097  24.3097  24.3365  24.3545  24.4141
    24.4166  24.4430  24.4430  24.6027  24.6027  24.7257  24.7257  24.7825
    24.7856  24.7856  24.8025  24.8374  24.8375  24.8430  24.8430  24.8463
    24.8616  24.8968  24.8968  24.8981  24.9389  24.9389  24.9529  24.9529
    24.9611  24.9621  24.9621  24.9905  25.0024  25.0265  25.0364  25.0364
    25.0525  25.0525  25.0573  25.0594  25.0699  25.0699  25.0791  25.1110
    25.1110  25.1403  25.1403  25.1689  25.1758  25.2016  25.2016  25.4216
    25.4216  25.4479  25.4479  26.0060  26.0525  26.0525  26.2095  26.3608
    26.3777  26.3777  26.3891  26.3891  26.4717  26.4857  26.4945  26.4945
    26.5604  26.5604  26.6156  26.6504  26.6504  26.6922  26.7607  26.7983
    26.7983  27.1089  27.1167  27.1167  27.1517  27.1658  27.1740  27.1770
    27.1770  27.2101  27.2101  27.2320  27.2320  27.2463  27.3294  27.3458
    27.3458  27.3497  27.3753  27.3753  27.4157  27.4157  27.4263  27.5114
    27.5114  27.5914  27.5914  27.6168  27.6262  27.6289  27.6289  27.6329
    27.6487  27.6502  27.6502  27.6547  27.6547  27.6818  27.6818  27.7106
    27.7202  27.7446  27.7446  27.7706  27.7774  27.7774  27.7866  27.7866
    27.7959  27.8023  27.8041  27.8041  27.8230  27.8230  27.8242  27.8283
    27.8283  27.8318  27.8338  27.8581  27.8581  27.8648  27.8696  27.8696
    27.8785  27.8830  27.8830  27.8934  27.9049  27.9049  27.9401  27.9676
    27.9689  27.9689  27.9869  27.9960  27.9960  28.0213  28.0213  28.0583
    28.0689  28.0689  28.0797  28.0843  28.0843  28.0906  28.1109  28.1306
    28.1306  28.1311  28.1361  28.1361  28.1569  28.1569  28.1670  28.2434
    28.2434  28.2930  28.2930  28.3069  28.3107  28.4031  28.4031  28.4604
    28.4924  28.5056  28.5056  28.5708  28.6430  28.6430  28.6960  28.6960
    28.7059  28.7503  28.7503  28.8532  28.8721  28.8721  28.8781  28.9565
    28.9618  28.9618  29.1290  29.2129  29.2129  29.2215  30.2893  30.3637
    30.3637  30.4211  30.5098  30.5098  30.5348  30.5615  30.5615  30.5808

     occupation numbers 
     1.0000   1.0000   1.0000   1.0000   1.0000   1.0000   1.0000   1.0000
     1.0000   1.0000   1.0000   1.0000   1.0000   1.0000   1.0000   1.0000
     1.0000   1.0000   1.0000   1.0000   1.0000   1.0000   1.0000   1.0000
     1.0000   1.0000   1.0000   1.0000   1.0000   1.0000   1.0000   1.0000
     1.0000   1.0000   1.0000   1.0000   1.0000   1.0000   1.0000   1.0000
     1.0000   1.0000   1.0000   1.0000   1.0000   1.0000   1.0000   1.0000
     1.0000   1.0000   1.0000   1.0000   1.0000   1.0000   1.0000   1.0000
     1.0000   1.0000   1.0000   1.0000   1.0000   1.0000   1.0000   1.0000
     1.0000   1.0000   1.0000   1.0000   1.0000   1.0000   1.0000   1.0000
     1.0000   1.0000   1.0000   1.0000   1.0000   1.0000   1.0000   1.0000
     1.0000   1.0000   1.0000   1.0000   1.0000   1.0000   1.0000   1.0000
     1.0000   1.0000   1.0000   1.0000   1.0000   1.0000   1.0000   1.0000
     1.0000   1.0000   1.0000   1.0000   1.0000   1.0000   1.0000   1.0000
     1.0000   1.0000   1.0000   1.0000   1.0000   1.0000   1.0000   1.0000
     1.0000   1.0000   1.0000   1.0000   1.0000   1.0000   1.0000   1.0000
     1.0000   1.0000   1.0000   1.0000   1.0000   1.0000   1.0000   1.0000
     1.0000   1.0000   1.0000   1.0000   1.0000   1.0000   1.0000   1.0000
     1.0000   1.0000   1.0000   1.0000   1.0000   1.0000   1.0000   1.0000
     1.0000   1.0000   1.0000   1.0000   1.0000   1.0000   1.0000   1.0000
     1.0000   1.0000   1.0000   1.0000   1.0000   1.0000   1.0000   1.0000
     1.0000   1.0000   1.0000   1.0000   1.0000   1.0000   1.0000   1.0000
     1.0000   1.0000   1.0000   1.0000   1.0000   1.0000   1.0000   1.0000
     1.0000   1.0000   1.0000   1.0000   1.0000   1.0000   1.0000   1.0000
     1.0000   1.0000   1.0000   1.0000   1.0000   1.0000   1.0000   1.0000
     1.0000   1.0000   1.0000   1.0000   1.0000   1.0000   1.0000   1.0000
     1.0000   1.0000   1.0000   1.0000   1.0000   1.0000   1.0000   1.0000
     1.0000   1.0000   1.0000   1.0000   1.0000   1.0000   1.0000   1.0000
     1.0000   1.0000   1.0000   1.0000   1.0000   1.0000   1.0000   1.0000
     1.0000   1.0000   1.0000   1.0000   1.0000   1.0000   1.0000   1.0000
     1.0000   1.0000   1.0000   1.0000   1.0000   1.0000   1.0000   1.0000
     1.0000   1.0000   1.0000   1.0000   1.0000   1.0000   1.0000   1.0000
     1.0000   1.0000   1.0000   1.0000   1.0000   1.0000   1.0000   1.0000
     1.0000   1.0000   1.0000   1.0000   1.0000   1.0000   1.0000   1.0000
     1.0000   1.0000   1.0000   1.0000   1.0000   1.0000   1.0000   1.0000
     1.0000   1.0000   1.0000   1.0000   1.0000   1.0000   1.0000   1.0000
     1.0000   1.0000   1.0000   1.0000   1.0000   1.0000   1.0000   1.0000
     1.0000   1.0000   1.0000   1.0000   1.0000   1.0000   1.0000   1.0000
     1.0000   1.0000   1.0000   1.0000   1.0000   1.0000   1.0000   1.0000
     1.0000   1.0000   1.0000   1.0000   1.0000   1.0000   1.0000   1.0000
     1.0000   1.0000   1.0000   1.0000   1.0000   1.0000   1.0000   1.0000
     1.0000   1.0000   1.0000   1.0000   1.0000   1.0000   1.0000   1.0000
     1.0000   1.0000   1.0000   1.0000   1.0000   1.0000   1.0000   1.0000
     1.0000   1.0000   1.0000   1.0000   1.0000   1.0000   1.0000   1.0000
     1.0000   1.0000   1.0000   1.0000   1.0000   1.0000   1.0000   1.0000
     1.0000   1.0000   1.0000   1.0000   1.0000   1.0000   1.0000   1.0000
     1.0000   1.0000   1.0000   1.0000   1.0000   1.0000   1.0000   1.0000
     1.0000   1.0000   1.0000   1.0000   1.0000   1.0000   1.0000   1.0000
     1.0000   1.0000   1.0000   1.0000   1.0000   1.0000   1.0000   1.0000
     1.0000   1.0000   1.0000   1.0000   1.0000   1.0000   1.0000   1.0000
     1.0000   1.0000   1.0000   1.0000   1.0000   1.0000   1.0000   1.0000
     1.0000   1.0000   1.0000   1.0000   1.0000   1.0000   1.0000   1.0000
     1.0000   1.0000   1.0000   1.0000   1.0000   1.0000   1.0000   1.0000
     1.0000   1.0000   1.0000   1.0000   1.0000   1.0000   1.0000   1.0000
     1.0000   1.0000   1.0000   1.0000   1.0000   1.0000   0.0000   0.0000
     0.0000   0.0000   0.0000   0.0000   0.0000   0.0000   0.0000   0.0000
     0.0000   0.0000   0.0000   0.0000   0.0000   0.0000   0.0000   0.0000
     0.0000   0.0000   0.0000   0.0000   0.0000   0.0000   0.0000   0.0000
     0.0000   0.0000   0.0000   0.0000   0.0000   0.0000   0.0000   0.0000
     0.0000   0.0000   0.0000   0.0000   0.0000   0.0000   0.0000   0.0000
     0.0000   0.0000   0.0000   0.0000   0.0000   0.0000   0.0000   0.0000
     0.0000   0.0000   0.0000   0.0000   0.0000   0.0000   0.0000   0.0000
     0.0000   0.0000   0.0000   0.0000   0.0000   0.0000   0.0000   0.0000
     0.0000   0.0000   0.0000   0.0000   0.0000   0.0000   0.0000   0.0000
     0.0000   0.0000   0.0000   0.0000   0.0000   0.0000   0.0000   0.0000
     0.0000   0.0000   0.0000   0.0000   0.0000   0.0000   0.0000   0.0000
     0.0000   0.0000   0.0000   0.0000   0.0000   0.0000   0.0000   0.0000
     0.0000   0.0000   0.0000   0.0000   0.0000   0.0000   0.0000   0.0000
     0.0000   0.0000   0.0000   0.0000   0.0000   0.0000   0.0000   0.0000
     0.0000   0.0000   0.0000   0.0000   0.0000   0.0000   0.0000   0.0000
     0.0000   0.0000   0.0000   0.0000   0.0000   0.0000   0.0000   0.0000
     0.0000   0.0000   0.0000   0.0000   0.0000   0.0000   0.0000   0.0000
     0.0000   0.0000   0.0000   0.0000   0.0000   0.0000   0.0000   0.0000
     0.0000   0.0000   0.0000   0.0000   0.0000   0.0000   0.0000   0.0000
     0.0000   0.0000   0.0000   0.0000   0.0000   0.0000   0.0000   0.0000
     0.0000   0.0000   0.0000   0.0000   0.0000   0.0000   0.0000   0.0000
     0.0000   0.0000   0.0000   0.0000   0.0000   0.0000   0.0000   0.0000
     0.0000   0.0000   0.0000   0.0000   0.0000   0.0000   0.0000   0.0000
     0.0000   0.0000   0.0000   0.0000   0.0000   0.0000   0.0000   0.0000
     0.0000   0.0000   0.0000   0.0000   0.0000   0.0000   0.0000   0.0000
     0.0000   0.0000   0.0000   0.0000   0.0000   0.0000   0.0000   0.0000
     0.0000   0.0000   0.0000   0.0000   0.0000   0.0000   0.0000   0.0000
     0.0000   0.0000   0.0000   0.0000   0.0000   0.0000   0.0000   0.0000
     0.0000   0.0000   0.0000   0.0000   0.0000   0.0000   0.0000   0.0000
     0.0000   0.0000   0.0000   0.0000   0.0000   0.0000   0.0000   0.0000
     0.0000   0.0000   0.0000   0.0000   0.0000   0.0000   0.0000   0.0000
     0.0000   0.0000   0.0000   0.0000   0.0000   0.0000   0.0000   0.0000
     0.0000   0.0000   0.0000   0.0000   0.0000   0.0000   0.0000   0.0000
     0.0000   0.0000   0.0000   0.0000   0.0000   0.0000   0.0000   0.0000
     0.0000   0.0000   0.0000   0.0000   0.0000   0.0000   0.0000   0.0000
     0.0000   0.0000   0.0000   0.0000   0.0000   0.0000   0.0000   0.0000
     0.0000   0.0000   0.0000   0.0000   0.0000   0.0000   0.0000   0.0000
     0.0000   0.0000   0.0000   0.0000   0.0000   0.0000   0.0000   0.0000
     0.0000   0.0000   0.0000   0.0000   0.0000   0.0000   0.0000   0.0000
     0.0000   0.0000   0.0000   0.0000   0.0000   0.0000   0.0000   0.0000
     0.0000   0.0000   0.0000   0.0000   0.0000   0.0000   0.0000   0.0000
     0.0000   0.0000   0.0000   0.0000   0.0000   0.0000   0.0000   0.0000
     0.0000   0.0000   0.0000   0.0000   0.0000   0.0000   0.0000   0.0000
     0.0000   0.0000   0.0000   0.0000   0.0000   0.0000   0.0000   0.0000
     0.0000   0.0000   0.0000   0.0000   0.0000   0.0000   0.0000   0.0000
     0.0000   0.0000   0.0000   0.0000   0.0000   0.0000   0.0000   0.0000
     0.0000   0.0000   0.0000   0.0000   0.0000   0.0000   0.0000   0.0000
     0.0000   0.0000   0.0000   0.0000   0.0000   0.0000   0.0000   0.0000
     0.0000   0.0000   0.0000   0.0000   0.0000   0.0000   0.0000   0.0000
     0.0000   0.0000   0.0000   0.0000   0.0000   0.0000   0.0000   0.0000
     0.0000   0.0000   0.0000   0.0000   0.0000   0.0000   0.0000   0.0000
     0.0000   0.0000   0.0000   0.0000   0.0000   0.0000   0.0000   0.0000
     0.0000   0.0000   0.0000   0.0000   0.0000   0.0000   0.0000   0.0000
     0.0000   0.0000   0.0000   0.0000   0.0000   0.0000   0.0000   0.0000

     highest occupied, lowest unoccupied level (ev):    15.2886   16.6899

!    total energy              =   -2456.04712183 Ry
     estimated scf accuracy    <          8.9E-09 Ry

     total magnetization       =     2.00 Bohr mag/cell
     absolute magnetization    =     2.28 Bohr mag/cell

     convergence has been achieved in  13 iterations

     Using ACE for calculation of exact exchange
 
     Parallelization info
     --------------------
     sticks:   dense  smooth     PW     G-vecs:    dense   smooth      PW
     Min         550     550    137                36562    36562    4569
     Max         552     552    140                36572    36572    4576
     Sum        7721    7721   1933               511971   511971   63989
 
     Using Slab Decomposition
 
     Exchange parallelized over bands (   4 band groups)

     EXX grid:    90498 G-vectors     FFT dimensions: (  72,  72,  72)
     ACE projected onto   864 (nbndproj) and applied to   864 (nbnd) bands

     EXX: now go back to refine exchange calculation

     total cpu time spent up to now is      305.5 secs

     Self-consistent Calculation

     iteration #  1     ecut=    60.00 Ry     beta= 0.30
     Davidson diagonalization with overlap

---- Real-time Memory Report at c_bands before calling an iterative solver
          1073 MiB given to the printing process from OS
             0 MiB allocation reported by mallinfo(arena+hblkhd)
         33775 MiB available memory on the node where the printing process lives
------------------
     ethr =  4.27E-12,  avg # of iterations = 37.5

     total cpu time spent up to now is      387.8 secs

     total energy              =   -2456.19525241 Ry
     estimated scf accuracy    <       0.01210164 Ry

     total magnetization       =     2.00 Bohr mag/cell
     absolute magnetization    =     2.34 Bohr mag/cell

     iteration #  2     ecut=    60.00 Ry     beta= 0.30
     Davidson diagonalization with overlap

---- Real-time Memory Report at c_bands before calling an iterative solver
          1139 MiB given to the printing process from OS
             0 MiB allocation reported by mallinfo(arena+hblkhd)
         32787 MiB available memory on the node where the printing process lives
------------------
     ethr =  1.40E-06,  avg # of iterations =  3.0

     total cpu time spent up to now is      397.0 secs

     total energy              =   -2456.19319574 Ry
     estimated scf accuracy    <       0.00500650 Ry

     total magnetization       =     2.00 Bohr mag/cell
     absolute magnetization    =     2.34 Bohr mag/cell

     iteration #  3     ecut=    60.00 Ry     beta= 0.30
     Davidson diagonalization with overlap

---- Real-time Memory Report at c_bands before calling an iterative solver
          1174 MiB given to the printing process from OS
             0 MiB allocation reported by mallinfo(arena+hblkhd)
         32706 MiB available memory on the node where the printing process lives
------------------
     ethr =  5.81E-07,  avg # of iterations =  6.0

     total cpu time spent up to now is      409.6 secs

     total energy              =   -2456.19348320 Ry
     estimated scf accuracy    <       0.00018998 Ry

     total magnetization       =     2.00 Bohr mag/cell
     absolute magnetization    =     2.35 Bohr mag/cell

     iteration #  4     ecut=    60.00 Ry     beta= 0.30
     Davidson diagonalization with overlap

---- Real-time Memory Report at c_bands before calling an iterative solver
          1178 MiB given to the printing process from OS
             0 MiB allocation reported by mallinfo(arena+hblkhd)
         30363 MiB available memory on the node where the printing process lives
------------------
     ethr =  2.20E-08,  avg # of iterations =  8.0

     total cpu time spent up to now is      423.2 secs

     total energy              =   -2456.19350093 Ry
     estimated scf accuracy    <       0.00003584 Ry

     total magnetization       =     2.00 Bohr mag/cell
     absolute magnetization    =     2.35 Bohr mag/cell

     iteration #  5     ecut=    60.00 Ry     beta= 0.30
     Davidson diagonalization with overlap

---- Real-time Memory Report at c_bands before calling an iterative solver
          1183 MiB given to the printing process from OS
             0 MiB allocation reported by mallinfo(arena+hblkhd)
         30006 MiB available memory on the node where the printing process lives
------------------
     ethr =  4.16E-09,  avg # of iterations =  6.0

     total cpu time spent up to now is      433.2 secs

     total energy              =   -2456.19350111 Ry
     estimated scf accuracy    <       0.00000709 Ry

     total magnetization       =     2.00 Bohr mag/cell
     absolute magnetization    =     2.35 Bohr mag/cell

     iteration #  6     ecut=    60.00 Ry     beta= 0.30
     Davidson diagonalization with overlap

---- Real-time Memory Report at c_bands before calling an iterative solver
          1202 MiB given to the printing process from OS
             0 MiB allocation reported by mallinfo(arena+hblkhd)
         29937 MiB available memory on the node where the printing process lives
------------------
     ethr =  8.23E-10,  avg # of iterations =  5.0

     total cpu time spent up to now is      443.7 secs

     total energy              =   -2456.19350161 Ry
     estimated scf accuracy    <       0.00000029 Ry

     total magnetization       =     2.00 Bohr mag/cell
     absolute magnetization    =     2.35 Bohr mag/cell

     iteration #  7     ecut=    60.00 Ry     beta= 0.30
     Davidson diagonalization with overlap

---- Real-time Memory Report at c_bands before calling an iterative solver
          1217 MiB given to the printing process from OS
             0 MiB allocation reported by mallinfo(arena+hblkhd)
         29903 MiB available memory on the node where the printing process lives
------------------
     ethr =  3.38E-11,  avg # of iterations =  7.0

     total cpu time spent up to now is      458.8 secs

     total energy              =   -2456.19350168 Ry
     estimated scf accuracy    <       0.00000003 Ry

     total magnetization       =     2.00 Bohr mag/cell
     absolute magnetization    =     2.35 Bohr mag/cell

     iteration #  8     ecut=    60.00 Ry     beta= 0.30
     Davidson diagonalization with overlap

---- Real-time Memory Report at c_bands before calling an iterative solver
          1219 MiB given to the printing process from OS
             0 MiB allocation reported by mallinfo(arena+hblkhd)
         29582 MiB available memory on the node where the printing process lives
------------------
     ethr =  3.75E-12,  avg # of iterations =  5.5

     total cpu time spent up to now is      469.8 secs

     total energy              =   -2456.19350171 Ry
     estimated scf accuracy    <       0.00000001 Ry

     total magnetization       =     2.00 Bohr mag/cell
     absolute magnetization    =     2.35 Bohr mag/cell

     iteration #  9     ecut=    60.00 Ry     beta= 0.30
     Davidson diagonalization with overlap

---- Real-time Memory Report at c_bands before calling an iterative solver
          1219 MiB given to the printing process from OS
             0 MiB allocation reported by mallinfo(arena+hblkhd)
         29749 MiB available memory on the node where the printing process lives
------------------
     ethr =  1.19E-12,  avg # of iterations =  5.5
 
     Magnetic moment per site  (integrated on atomic sphere of radius R)
     atom   1 (R=0.057)  charge=  1.7814  magn=  0.0001
     atom   2 (R=0.057)  charge=  1.7809  magn= -0.0000
     atom   3 (R=0.057)  charge=  1.7819  magn=  0.0002
     atom   4 (R=0.057)  charge=  1.7807  magn=  0.0001
     atom   5 (R=0.057)  charge=  1.7814  magn=  0.0004
     atom   6 (R=0.057)  charge=  1.7804  magn=  0.0000
     atom   7 (R=0.057)  charge=  1.7814  magn=  0.0004
     atom   8 (R=0.057)  charge=  1.7804  magn=  0.0000
     atom   9 (R=0.057)  charge=  1.7818  magn=  0.0011
     atom  10 (R=0.057)  charge=  1.7803  magn= -0.0001
     atom  11 (R=0.057)  charge=  1.7791  magn=  0.0002
     atom  12 (R=0.057)  charge=  1.7837  magn=  0.0028
     atom  13 (R=0.057)  charge=  1.7829  magn=  0.0011
     atom  14 (R=0.057)  charge=  1.7853  magn=  0.0011
     atom  15 (R=0.057)  charge=  1.7823  magn=  0.0001
     atom  16 (R=0.057)  charge=  1.7825  magn= -0.0000
     atom  17 (R=0.057)  charge=  1.7807  magn=  0.0002
     atom  18 (R=0.057)  charge=  1.7819  magn= -0.0001
     atom  19 (R=0.057)  charge=  1.7815  magn=  0.0011
     atom  20 (R=0.057)  charge=  1.7811  magn= -0.0001
     atom  21 (R=0.057)  charge=  1.7814  magn=  0.0001
     atom  22 (R=0.057)  charge=  1.7809  magn= -0.0000
     atom  23 (R=0.057)  charge=  1.7820  magn=  0.0015
     atom  24 (R=0.057)  charge=  1.7814  magn= -0.0001
     atom  25 (R=0.057)  charge=  1.7818  magn=  0.0011
     atom  26 (R=0.057)  charge=  1.7803  magn= -0.0001
     atom  27 (R=0.057)  charge=  1.7791  magn=  0.0002
     atom  28 (R=0.057)  charge=  1.7837  magn=  0.0028
     atom  29 (R=0.057)  charge=  1.7823  magn=  0.0001
     atom  30 (R=0.057)  charge=  1.7825  magn= -0.0000
     atom  31 (R=0.057)  charge=  1.7829  magn=  0.0011
     atom  32 (R=0.057)  charge=  1.7853  magn=  0.0011
     atom  33 (R=0.057)  charge=  1.7822  magn=  0.0003
     atom  34 (R=0.057)  charge=  1.7798  magn= -0.0008
     atom  35 (R=0.057)  charge=  1.7823  magn=  0.0060
     atom  36 (R=0.057)  charge=  1.7828  magn= -0.0012
     atom  37 (R=0.057)  charge=  1.7808  magn=  0.0001
     atom  38 (R=0.057)  charge=  1.7816  magn= -0.0002
     atom  39 (R=0.057)  charge=  1.7808  magn=  0.0001
     atom  40 (R=0.057)  charge=  1.7816  magn= -0.0002
     atom  41 (R=0.057)  charge=  1.7772  magn=  0.0181
     atom  42 (R=0.057)  charge=  1.7806  magn= -0.0014
     atom  43 (R=0.057)  charge=  1.7820  magn=  0.0172
     atom  44 (R=0.057)  charge=  1.7864  magn=  0.0014
     atom  45 (R=0.057)  charge=  1.7818  magn=  0.0011
     atom  46 (R=0.057)  charge=  1.7803  magn= -0.0001
     atom  47 (R=0.057)  charge=  1.7812  magn=  0.0015
     atom  48 (R=0.057)  charge=  1.7817  magn= -0.0002
     atom  49 (R=0.057)  charge=  1.7807  magn=  0.0002
     atom  50 (R=0.057)  charge=  1.7819  magn= -0.0001
     atom  51 (R=0.057)  charge=  1.7815  magn=  0.0011
     atom  52 (R=0.057)  charge=  1.7811  magn= -0.0001
     atom  53 (R=0.057)  charge=  1.7820  magn=  0.0015
     atom  54 (R=0.057)  charge=  1.7814  magn= -0.0001
     atom  55 (R=0.057)  charge=  1.7814  magn=  0.0001
     atom  56 (R=0.057)  charge=  1.7809  magn= -0.0000
     atom  57 (R=0.057)  charge=  1.7772  magn=  0.0181
     atom  58 (R=0.057)  charge=  1.7806  magn= -0.0014
     atom  59 (R=0.057)  charge=  1.7820  magn=  0.0172
     atom  60 (R=0.057)  charge=  1.7864  magn=  0.0014
     atom  61 (R=0.057)  charge=  1.7812  magn=  0.0015
     atom  62 (R=0.057)  charge=  1.7817  magn= -0.0002
     atom  63 (R=0.057)  charge=  1.7818  magn=  0.0011
     atom  64 (R=0.057)  charge=  1.7803  magn= -0.0001
     atom  65 (R=0.057)  charge=  1.7803  magn=  0.0072
     atom  66 (R=0.057)  charge=  1.7800  magn= -0.0005
     atom  67 (R=0.057)  charge=  1.7804  magn=  0.0002
     atom  68 (R=0.057)  charge=  1.7813  magn= -0.0001
     atom  69 (R=0.057)  charge=  1.7807  magn=  0.0002
     atom  70 (R=0.057)  charge=  1.7819  magn= -0.0001
     atom  71 (R=0.057)  charge=  1.7807  magn=  0.0002
     atom  72 (R=0.057)  charge=  1.7819  magn= -0.0001
     atom  73 (R=0.057)  charge=  1.7814  magn=  0.0004
     atom  74 (R=0.057)  charge=  1.7804  magn=  0.0000
     atom  75 (R=0.057)  charge=  1.7822  magn=  0.0001
     atom  76 (R=0.057)  charge=  1.7821  magn=  0.0000
     atom  77 (R=0.057)  charge=  1.7823  magn=  0.0001
     atom  78 (R=0.057)  charge=  1.7825  magn= -0.0000
     atom  79 (R=0.057)  charge=  1.7823  magn=  0.0001
     atom  80 (R=0.057)  charge=  1.7825  magn= -0.0000
     atom  81 (R=0.057)  charge=  1.7823  magn=  0.0001
     atom  82 (R=0.057)  charge=  1.7825  magn= -0.0000
     atom  83 (R=0.057)  charge=  1.7845  magn=  0.0002
     atom  84 (R=0.057)  charge=  1.7873  magn=  0.0001
     atom  85 (R=0.057)  charge=  1.7808  magn=  0.0001
     atom  86 (R=0.057)  charge=  1.7816  magn= -0.0002
     atom  87 (R=0.057)  charge=  1.7848  magn=  0.0000
     atom  88 (R=0.057)  charge=  1.7835  magn= -0.0001
     atom  89 (R=0.057)  charge=  1.7820  magn=  0.0015
     atom  90 (R=0.057)  charge=  1.7814  magn= -0.0001
     atom  91 (R=0.057)  charge=  1.7819  magn=  0.0002
     atom  92 (R=0.057)  charge=  1.7807  magn=  0.0001
     atom  93 (R=0.057)  charge=  1.7818  magn=  0.0011
     atom  94 (R=0.057)  charge=  1.7803  magn= -0.0001
     atom  95 (R=0.057)  charge=  1.7807  magn=  0.0002
     atom  96 (R=0.057)  charge=  1.7759  magn= -0.0003
     atom  97 (R=0.057)  charge=  1.7823  magn=  0.0001
     atom  98 (R=0.057)  charge=  1.7825  magn= -0.0000
     atom  99 (R=0.057)  charge=  1.7845  magn=  0.0002
     atom 100 (R=0.057)  charge=  1.7873  magn=  0.0001
     atom 101 (R=0.057)  charge=  1.7848  magn=  0.0000
     atom 102 (R=0.057)  charge=  1.7835  magn= -0.0001
     atom 103 (R=0.057)  charge=  1.7808  magn=  0.0001
     atom 104 (R=0.057)  charge=  1.7816  magn= -0.0002
     atom 105 (R=0.057)  charge=  1.7848  magn=  0.0000
     atom 106 (R=0.057)  charge=  1.7835  magn= -0.0001
     atom 107 (R=0.057)  charge=  1.7813  magn=  0.0008
     atom 108 (R=0.057)  charge=  1.7853  magn= -0.0007
     atom 109 (R=0.057)  charge=  1.7918  magn=  0.0001
     atom 110 (R=0.057)  charge=  1.7615  magn=  0.0005
     atom 111 (R=0.057)  charge=  1.7918  magn=  0.0001
     atom 112 (R=0.057)  charge=  1.7615  magn=  0.0005
     atom 113 (R=0.057)  charge=  1.7807  magn=  0.0002
     atom 114 (R=0.057)  charge=  1.7759  magn= -0.0003
     atom 115 (R=0.057)  charge=  1.7791  magn=  0.0002
     atom 116 (R=0.057)  charge=  1.7837  magn=  0.0028
     atom 117 (R=0.057)  charge=  1.7822  magn=  0.0003
     atom 118 (R=0.057)  charge=  1.7798  magn= -0.0008
     atom 119 (R=0.057)  charge=  1.7768  magn=  0.0038
     atom 120 (R=0.057)  charge=  1.7825  magn= -0.0058
     atom 121 (R=0.057)  charge=  1.7820  magn=  0.0015
     atom 122 (R=0.057)  charge=  1.7814  magn= -0.0001
     atom 123 (R=0.057)  charge=  1.7819  magn=  0.0002
     atom 124 (R=0.057)  charge=  1.7807  magn=  0.0001
     atom 125 (R=0.057)  charge=  1.7807  magn=  0.0002
     atom 126 (R=0.057)  charge=  1.7759  magn= -0.0003
     atom 127 (R=0.057)  charge=  1.7818  magn=  0.0011
     atom 128 (R=0.057)  charge=  1.7803  magn= -0.0001
     atom 129 (R=0.057)  charge=  1.7807  magn=  0.0002
     atom 130 (R=0.057)  charge=  1.7759  magn= -0.0003
     atom 131 (R=0.057)  charge=  1.7791  magn=  0.0002
     atom 132 (R=0.057)  charge=  1.7837  magn=  0.0028
     atom 133 (R=0.057)  charge=  1.7768  magn=  0.0038
     atom 134 (R=0.057)  charge=  1.7825  magn= -0.0058
     atom 135 (R=0.057)  charge=  1.7822  magn=  0.0003
     atom 136 (R=0.057)  charge=  1.7798  magn= -0.0008
     atom 137 (R=0.057)  charge=  1.7815  magn=  0.0008
     atom 138 (R=0.057)  charge=  1.7812  magn= -0.0014
     atom 139 (R=0.057)  charge=  1.7815  magn=  0.0011
     atom 140 (R=0.057)  charge=  1.7811  magn= -0.0001
     atom 141 (R=0.057)  charge=  1.7772  magn=  0.0181
     atom 142 (R=0.057)  charge=  1.7806  magn= -0.0014
     atom 143 (R=0.057)  charge=  1.7772  magn=  0.0181
     atom 144 (R=0.057)  charge=  1.7806  magn= -0.0014
     atom 145 (R=0.057)  charge=  1.7829  magn=  0.0011
     atom 146 (R=0.057)  charge=  1.7853  magn=  0.0011
     atom 147 (R=0.057)  charge=  1.7845  magn=  0.0002
     atom 148 (R=0.057)  charge=  1.7873  magn=  0.0001
     atom 149 (R=0.057)  charge=  1.7820  magn=  0.0015
     atom 150 (R=0.057)  charge=  1.7814  magn= -0.0001
     atom 151 (R=0.057)  charge=  1.7820  magn=  0.0015
     atom 152 (R=0.057)  charge=  1.7814  magn= -0.0001
     atom 153 (R=0.057)  charge=  1.7808  magn=  0.0001
     atom 154 (R=0.057)  charge=  1.7816  magn= -0.0002
     atom 155 (R=0.057)  charge=  1.7813  magn=  0.0008
     atom 156 (R=0.057)  charge=  1.7853  magn= -0.0007
     atom 157 (R=0.057)  charge=  1.7812  magn=  0.0015
     atom 158 (R=0.057)  charge=  1.7817  magn= -0.0002
     atom 159 (R=0.057)  charge=  1.7807  magn=  0.0002
     atom 160 (R=0.057)  charge=  1.7759  magn= -0.0003
     atom 161 (R=0.057)  charge=  1.7812  magn=  0.0015
     atom 162 (R=0.057)  charge=  1.7817  magn= -0.0002
     atom 163 (R=0.057)  charge=  1.7791  magn=  0.0002
     atom 164 (R=0.057)  charge=  1.7837  magn=  0.0028
     atom 165 (R=0.057)  charge=  1.7807  magn=  0.0002
     atom 166 (R=0.057)  charge=  1.7819  magn= -0.0001
     atom 167 (R=0.057)  charge=  1.7815  magn=  0.0008
     atom 168 (R=0.057)  charge=  1.7812  magn= -0.0014
     atom 169 (R=0.057)  charge=  1.7808  magn=  0.0001
     atom 170 (R=0.057)  charge=  1.7816  magn= -0.0002
     atom 171 (R=0.057)  charge=  1.7813  magn=  0.0008
     atom 172 (R=0.057)  charge=  1.7853  magn= -0.0007
     atom 173 (R=0.057)  charge=  1.7807  magn=  0.0002
     atom 174 (R=0.057)  charge=  1.7759  magn= -0.0003
     atom 175 (R=0.057)  charge=  1.7812  magn=  0.0015
     atom 176 (R=0.057)  charge=  1.7817  magn= -0.0002
     atom 177 (R=0.057)  charge=  1.7918  magn=  0.0001
     atom 178 (R=0.057)  charge=  1.7615  magn=  0.0005
     atom 179 (R=0.057)  charge=  1.7768  magn=  0.0038
     atom 180 (R=0.057)  charge=  1.7825  magn= -0.0058
     atom 181 (R=0.057)  charge=  1.7768  magn=  0.0038
     atom 182 (R=0.057)  charge=  1.7825  magn= -0.0058
     atom 183 (R=0.057)  charge=  1.7768  magn=  0.0038
     atom 184 (R=0.057)  charge=  1.7825  magn= -0.0058
     atom 185 (R=0.057)  charge=  1.7823  magn=  0.0060
     atom 186 (R=0.057)  charge=  1.7828  magn= -0.0012
     atom 187 (R=0.057)  charge=  1.7772  magn=  0.0181
     atom 188 (R=0.057)  charge=  1.7806  magn= -0.0014
     atom 189 (R=0.057)  charge=  1.7896  magn=  0.2559
     atom 190 (R=0.057)  charge=  1.7896  magn= -0.0102
     atom 191 (R=0.057)  charge=  1.7812  magn=  0.0015
     atom 192 (R=0.057)  charge=  1.7817  magn= -0.0002
     atom 193 (R=0.057)  charge=  1.7791  magn=  0.0002
     atom 194 (R=0.057)  charge=  1.7837  magn=  0.0028
     atom 195 (R=0.057)  charge=  1.7815  magn=  0.0008
     atom 196 (R=0.057)  charge=  1.7812  magn= -0.0014
     atom 197 (R=0.057)  charge=  1.7807  magn=  0.0002
     atom 198 (R=0.057)  charge=  1.7819  magn= -0.0001
     atom 199 (R=0.057)  charge=  1.7768  magn=  0.0038
     atom 200 (R=0.057)  charge=  1.7825  magn= -0.0058
     atom 201 (R=0.057)  charge=  1.7823  magn=  0.0060
     atom 202 (R=0.057)  charge=  1.7828  magn= -0.0012
     atom 203 (R=0.057)  charge=  1.7896  magn=  0.2559
     atom 204 (R=0.057)  charge=  1.7896  magn= -0.0102
     atom 205 (R=0.057)  charge=  1.7772  magn=  0.0181
     atom 206 (R=0.057)  charge=  1.7806  magn= -0.0014
     atom 207 (R=0.057)  charge=  1.7896  magn=  0.2559
     atom 208 (R=0.057)  charge=  1.7896  magn= -0.0102
     atom 209 (R=0.057)  charge=  1.7820  magn=  0.0172
     atom 210 (R=0.057)  charge=  1.7864  magn=  0.0014
     atom 211 (R=0.057)  charge=  1.7803  magn=  0.0072
     atom 212 (R=0.057)  charge=  1.7800  magn= -0.0005
     atom 213 (R=0.057)  charge=  1.7803  magn=  0.0072
     atom 214 (R=0.057)  charge=  1.7800  magn= -0.0005
     atom 215 (R=0.057)  charge=  2.8736  magn= -0.0012

     total cpu time spent up to now is      482.1 secs

     End of self-consistent calculation

 ------ SPIN UP ------------


          k = 0.0000 0.0000 0.0000 ( 31995 PWs)   bands (ev):

   -10.4671  -9.5902  -9.3841  -9.3841  -9.3375  -9.3375  -9.2522  -8.6881
    -8.3117  -8.3117  -8.3025  -8.3025  -8.2862  -8.2612  -8.2612  -8.2481
    -8.2054  -8.2054  -8.0292  -7.4921  -7.2161  -7.2080  -7.2080  -7.1879
    -7.1879  -7.1822  -7.0195  -6.3554  -6.1434  -6.1434  -6.1247  -6.1247
    -6.0638  -5.7207  -5.1877  -5.1877  -5.1779  -5.1776  -5.1776  -5.1630
    -5.1624  -5.1624  -5.1507  -5.1427  -5.1427  -5.1362  -5.1362  -5.1331
    -5.1090  -5.1090  -5.0905  -5.0905  -5.0866  -5.0660  -5.0099  -5.0099
    -4.8161  -4.6019  -4.3605  -4.3605  -4.3264  -4.3255  -4.3255  -4.3115
    -4.3066  -4.3066  -4.3030  -4.2958  -4.2958  -4.2746  -4.2669  -4.2669
    -4.2477  -4.2477  -4.2113  -4.2113  -4.2102  -4.1730  -4.0847  -4.0847
    -3.3592  -2.7006  -2.5192  -2.5192  -2.4776  -2.4776  -2.4712  -2.4698
    -2.4698  -2.4560  -2.4230  -2.4230  -2.0525  -1.1720  -1.1119  -1.1119
    -1.0879  -1.0879  -1.0462  -0.8151  -0.6176  -0.6176  -0.5753  -0.5675
    -0.5675  -0.5570  -0.5570  -0.5545  -0.5537  -0.5338  -0.5338  -0.5269
    -0.5269  -0.5035  -0.4649  -0.4549  -0.4549  -0.4263  -0.4263  -0.4240
    -0.4095  -0.4095  -0.3464  -0.3213  -0.3213  -0.3160  -0.2953  -0.2940
    -0.2940  -0.2884  -0.2837  -0.2837  -0.2773  -0.2615  -0.2615  -0.2409
    -0.2409  -0.2341  -0.2280  -0.2280  -0.2252  -0.2252  -0.2194   0.0115
     0.1262   0.1262   0.5488   0.8325   0.8349   0.8349   0.8801   0.8832
     0.8832   0.8913   0.9130   0.9130   1.0390   1.0390   2.0826   2.5097
     2.5097   2.5176   2.5862   2.5890   2.5979   2.5979   2.6014   2.6055
     2.6055   2.6174   2.6197   2.6246   2.6246   2.6424   2.6424   2.7712
     2.7712   2.7756   2.7946   3.1827   3.1827   3.2016   3.2861   3.2909
     3.2927   3.2927   3.2950   3.2950   3.3068   3.3068   3.3093   3.3170
     3.3170   3.3180   3.3280   3.3280   3.3463   3.3537   3.3576   3.3576
     3.5606   3.5606   4.1785   4.1822   4.1822   4.2511   4.2528   4.2528
     4.2564   4.2636   4.2636   4.2752   4.2752   4.2840   4.2950   4.2950
     4.3479   4.3479   4.3536   4.3650   4.3792   4.4054   4.4054   4.4742
     4.4945   4.4945   4.5459   4.7152   4.7152   4.7883   4.8220   4.8220
     4.8374   4.8394   4.8394   4.8450   4.8450   4.8488   4.8514   4.8662
     4.8710   4.8710   4.8823   4.8853   4.8853   4.8991   4.9052   4.9160
     4.9160   4.9334   4.9334   4.9739   4.9739   5.2962   5.3384   5.3384
     5.9038   5.9038   5.9676   5.9820   5.9975   5.9975   6.0744   6.4706
     6.4706   6.5459   6.5583   6.5583   6.5745   6.5745   6.5749   6.5990
     6.6606   6.6606   6.8524   6.8524   6.9555   6.9930   7.0078   7.0106
     7.0106   7.0116   7.0116   7.0444   7.0744   7.0744   7.0769   7.2291
     7.2291   7.2539   7.2832   7.2876   7.2876   7.3031   7.3068   7.3068
     7.3082   7.3082   7.3162   7.3174   7.3258   7.3258   7.3529   7.3530
     7.3676   7.3676   7.3749   7.3801   7.3801   7.3847   7.4486   7.4486
     7.4748   7.5128   7.5133   7.5186   7.5186   7.5191   7.5258   7.5258
     7.5304   7.5311   7.5311   7.5338   7.5466   7.5466   7.5547   7.5590
     7.5590   7.5625   7.5625   7.5672   7.5672   7.5686   7.5718   7.5754
     7.5754   7.5964   7.5965   7.5965   7.6145   7.6228   7.6228   7.6470
     7.6470   7.6663   7.6663   7.6785   7.6911   7.7279   7.7279   7.7349
     7.7477   7.8303   7.8303   8.1369   8.1459   8.1459   8.3379   8.3379
     8.4078   8.4078   8.4102   8.4180   8.4390   8.4437   8.4452   8.4452
     8.4657   8.4657   8.4712   8.4712   8.4810   8.4842   8.4842   8.5118
     8.5530   8.5530   8.6254   9.3077   9.4509   9.4509   9.7456   9.9112
     9.9112   9.9746   9.9746   9.9748   9.9831   9.9910   9.9910   9.9972
    10.0651  10.0651  10.0752  10.1617  10.1617  10.2197  10.2280  10.2280
    10.2322  10.2322  10.2403  10.2403  10.2560  10.2675  10.2675  10.2897
    10.2956  10.2956  10.3043  10.3287  10.3287  10.9285  10.9630  10.9630
    11.1520  11.2143  11.2143  11.2275  11.2545  11.2547  11.2547  11.2833
    11.3140  11.3140  12.4298  12.5723  12.5723  13.3258  14.4750  14.4750
    18.3289  18.3289  18.3484  18.3823  18.3823  18.4081  18.9056  18.9733
    18.9733  18.9883  18.9883  19.0610  19.1874  19.1875  19.2298  19.2868
    19.2868  19.3064  19.9794  19.9794  20.0064  20.5347  20.6037  20.6037
    20.6153  20.6549  20.6549  20.6634  20.6634  20.6731  20.6847  20.6847
    20.7274  21.2358  21.3978  21.3978  21.4318  21.4318  21.4322  21.4374
    21.4374  21.4397  21.4442  21.4442  21.4613  21.4711  21.4803  21.4803
    21.5000  21.5016  21.5016  21.5518  21.5518  21.5636  21.5898  21.5931
    21.5931  21.9193  21.9767  21.9767  22.0510  22.0557  22.0557  22.0608
    22.0624  22.0624  22.0687  22.0749  22.0749  22.0754  22.0937  22.0937
    22.0962  22.0962  22.1045  22.1101  22.1101  22.1147  22.1225  22.1225
    22.1390  22.1481  22.1486  22.1486  22.1681  22.1681  22.1720  22.1767
    22.1767  22.1768  22.2178  22.2178  22.2516  22.2979  22.2980  22.2980
    22.3976  22.3976  22.3980  22.5067  22.5630  22.5630  22.5662  22.5973
    22.5973  22.6000  22.6051  22.6051  22.6124  22.6309  22.6309  22.6691
    22.6691  22.6797  22.6887  22.6887  22.6915  22.7343  22.7343  22.7451
    22.7610  22.7633  22.7633  22.7783  22.7783  22.7811  22.7811  22.7947
    22.8084  22.8086  22.8086  22.8189  22.8189  22.8437  23.0193  23.0193
    23.0241  23.0469  23.0469  23.0588  23.0750  23.0854  23.0896  23.0896
    23.0969  23.0969  23.1405  23.1612  23.1612  23.1742  23.2069  23.2310
    23.2311  23.3529  23.3529  23.3817  23.3857  23.3857  23.5535  23.5535
    23.5577  23.6022  23.6022  23.6312  23.6326  23.6351  23.6351  23.7266
    23.7505  23.7505  23.8158  23.8617  23.8617  23.8821  23.8915  23.8915
    24.0672  24.0672  24.0730  24.2381  24.3167  24.3167  24.3225  24.3927
    24.3927  24.3965  24.4040  24.4040  24.4123  24.4123  24.4271  24.4319
    24.4325  24.4325  24.4437  24.4750  24.5122  24.5122  24.5445  24.5883
    24.6212  24.6212  24.7041  24.7041  24.8257  24.8586  24.8586  25.3284
    25.3366  25.3366  25.3401  25.3544  25.3558  25.3558  25.3785  25.3785
    25.3817  25.4021  25.4021  25.4139  25.4139  25.4423  25.4467  25.4852
    25.5167  25.5229  25.5229  25.6813  25.6813  25.7893  25.7893  25.8609
    25.8651  25.8651  25.8838  25.9192  25.9192  25.9243  25.9243  25.9249
    25.9416  25.9819  25.9819  25.9845  26.0260  26.0260  26.0305  26.0305
    26.0546  26.0546  26.0634  26.0925  26.1298  26.1334  26.1334  26.1500
    26.1604  26.1648  26.1648  26.1771  26.2034  26.2034  26.2097  26.2280
    26.2280  26.2475  26.2475  26.2672  26.2839  26.3078  26.3078  26.4312
    26.4312  26.5143  26.5143  27.1383  27.1774  27.1774  27.2958  27.4628
    27.4710  27.4710  27.4865  27.4865  27.7847  27.8007  27.8065  27.8065
    27.8456  27.8667  27.8667  27.9199  27.9379  27.9379  27.9869  28.0587
    28.0587  28.3273  28.3893  28.3893  28.3985  28.4227  28.4435  28.4470
    28.4470  28.4744  28.4744  28.4810  28.4810  28.4965  28.5456  28.5456
    28.5503  28.5603  28.5784  28.5784  28.6254  28.6254  28.6412  28.7098
    28.7098  28.9014  28.9191  28.9191  28.9809  28.9871  28.9871  28.9887
    29.0038  29.0049  29.0049  29.0170  29.0170  29.0211  29.0211  29.0241
    29.0377  29.0540  29.0576  29.0576  29.0776  29.0776  29.0854  29.0918
    29.0918  29.0983  29.1033  29.1033  29.1171  29.1195  29.1239  29.1239
    29.1317  29.1317  29.1395  29.1395  29.1449  29.1449  29.1452  29.1541
    29.1580  29.1683  29.1683  29.1683  29.1847  29.1847  29.2079  29.2484
    29.2484  29.2621  29.2796  29.2796  29.3027  29.3027  29.3124  29.3804
    29.3992  29.3992  29.4122  29.4179  29.4179  29.4345  29.4679  29.4773
    29.4773  29.4881  29.4908  29.4908  29.4975  29.5134  29.5134  29.5501
    29.5698  29.5698  29.5984  29.6022  29.6022  29.6943  29.6943  29.7912
    29.8411  29.8411  29.8507  29.9066  30.0058  30.0058  30.0466  30.0466
    30.0562  30.0873  30.0873  30.1370  30.1519  30.1519  30.1650  30.1810
    30.1980  30.1980  30.3635  30.4480  30.4480  30.4597  31.3636  31.5717
    31.5890  31.5890  31.7637  31.7836  31.7836  31.8858  31.8911  31.8911

     occupation numbers 
     1.0000   1.0000   1.0000   1.0000   1.0000   1.0000   1.0000   1.0000
     1.0000   1.0000   1.0000   1.0000   1.0000   1.0000   1.0000   1.0000
     1.0000   1.0000   1.0000   1.0000   1.0000   1.0000   1.0000   1.0000
     1.0000   1.0000   1.0000   1.0000   1.0000   1.0000   1.0000   1.0000
     1.0000   1.0000   1.0000   1.0000   1.0000   1.0000   1.0000   1.0000
     1.0000   1.0000   1.0000   1.0000   1.0000   1.0000   1.0000   1.0000
     1.0000   1.0000   1.0000   1.0000   1.0000   1.0000   1.0000   1.0000
     1.0000   1.0000   1.0000   1.0000   1.0000   1.0000   1.0000   1.0000
     1.0000   1.0000   1.0000   1.0000   1.0000   1.0000   1.0000   1.0000
     1.0000   1.0000   1.0000   1.0000   1.0000   1.0000   1.0000   1.0000
     1.0000   1.0000   1.0000   1.0000   1.0000   1.0000   1.0000   1.0000
     1.0000   1.0000   1.0000   1.0000   1.0000   1.0000   1.0000   1.0000
     1.0000   1.0000   1.0000   1.0000   1.0000   1.0000   1.0000   1.0000
     1.0000   1.0000   1.0000   1.0000   1.0000   1.0000   1.0000   1.0000
     1.0000   1.0000   1.0000   1.0000   1.0000   1.0000   1.0000   1.0000
     1.0000   1.0000   1.0000   1.0000   1.0000   1.0000   1.0000   1.0000
     1.0000   1.0000   1.0000   1.0000   1.0000   1.0000   1.0000   1.0000
     1.0000   1.0000   1.0000   1.0000   1.0000   1.0000   1.0000   1.0000
     1.0000   1.0000   1.0000   1.0000   1.0000   1.0000   1.0000   1.0000
     1.0000   1.0000   1.0000   1.0000   1.0000   1.0000   1.0000   1.0000
     1.0000   1.0000   1.0000   1.0000   1.0000   1.0000   1.0000   1.0000
     1.0000   1.0000   1.0000   1.0000   1.0000   1.0000   1.0000   1.0000
     1.0000   1.0000   1.0000   1.0000   1.0000   1.0000   1.0000   1.0000
     1.0000   1.0000   1.0000   1.0000   1.0000   1.0000   1.0000   1.0000
     1.0000   1.0000   1.0000   1.0000   1.0000   1.0000   1.0000   1.0000
     1.0000   1.0000   1.0000   1.0000   1.0000   1.0000   1.0000   1.0000
     1.0000   1.0000   1.0000   1.0000   1.0000   1.0000   1.0000   1.0000
     1.0000   1.0000   1.0000   1.0000   1.0000   1.0000   1.0000   1.0000
     1.0000   1.0000   1.0000   1.0000   1.0000   1.0000   1.0000   1.0000
     1.0000   1.0000   1.0000   1.0000   1.0000   1.0000   1.0000   1.0000
     1.0000   1.0000   1.0000   1.0000   1.0000   1.0000   1.0000   1.0000
     1.0000   1.0000   1.0000   1.0000   1.0000   1.0000   1.0000   1.0000
     1.0000   1.0000   1.0000   1.0000   1.0000   1.0000   1.0000   1.0000
     1.0000   1.0000   1.0000   1.0000   1.0000   1.0000   1.0000   1.0000
     1.0000   1.0000   1.0000   1.0000   1.0000   1.0000   1.0000   1.0000
     1.0000   1.0000   1.0000   1.0000   1.0000   1.0000   1.0000   1.0000
     1.0000   1.0000   1.0000   1.0000   1.0000   1.0000   1.0000   1.0000
     1.0000   1.0000   1.0000   1.0000   1.0000   1.0000   1.0000   1.0000
     1.0000   1.0000   1.0000   1.0000   1.0000   1.0000   1.0000   1.0000
     1.0000   1.0000   1.0000   1.0000   1.0000   1.0000   1.0000   1.0000
     1.0000   1.0000   1.0000   1.0000   1.0000   1.0000   1.0000   1.0000
     1.0000   1.0000   1.0000   1.0000   1.0000   1.0000   1.0000   1.0000
     1.0000   1.0000   1.0000   1.0000   1.0000   1.0000   1.0000   1.0000
     1.0000   1.0000   1.0000   1.0000   1.0000   1.0000   1.0000   1.0000
     1.0000   1.0000   1.0000   1.0000   1.0000   1.0000   1.0000   1.0000
     1.0000   1.0000   1.0000   1.0000   1.0000   1.0000   1.0000   1.0000
     1.0000   1.0000   1.0000   1.0000   1.0000   1.0000   1.0000   1.0000
     1.0000   1.0000   1.0000   1.0000   1.0000   1.0000   1.0000   1.0000
     1.0000   1.0000   1.0000   1.0000   1.0000   1.0000   1.0000   1.0000
     1.0000   1.0000   1.0000   1.0000   1.0000   1.0000   1.0000   1.0000
     1.0000   1.0000   1.0000   1.0000   1.0000   1.0000   1.0000   1.0000
     1.0000   1.0000   1.0000   1.0000   1.0000   1.0000   1.0000   1.0000
     1.0000   1.0000   1.0000   1.0000   1.0000   1.0000   1.0000   1.0000
     1.0000   1.0000   1.0000   1.0000   1.0000   1.0000   1.0000   1.0000
     0.0000   0.0000   0.0000   0.0000   0.0000   0.0000   0.0000   0.0000
     0.0000   0.0000   0.0000   0.0000   0.0000   0.0000   0.0000   0.0000
     0.0000   0.0000   0.0000   0.0000   0.0000   0.0000   0.0000   0.0000
     0.0000   0.0000   0.0000   0.0000   0.0000   0.0000   0.0000   0.0000
     0.0000   0.0000   0.0000   0.0000   0.0000   0.0000   0.0000   0.0000
     0.0000   0.0000   0.0000   0.0000   0.0000   0.0000   0.0000   0.0000
     0.0000   0.0000   0.0000   0.0000   0.0000   0.0000   0.0000   0.0000
     0.0000   0.0000   0.0000   0.0000   0.0000   0.0000   0.0000   0.0000
     0.0000   0.0000   0.0000   0.0000   0.0000   0.0000   0.0000   0.0000
     0.0000   0.0000   0.0000   0.0000   0.0000   0.0000   0.0000   0.0000
     0.0000   0.0000   0.0000   0.0000   0.0000   0.0000   0.0000   0.0000
     0.0000   0.0000   0.0000   0.0000   0.0000   0.0000   0.0000   0.0000
     0.0000   0.0000   0.0000   0.0000   0.0000   0.0000   0.0000   0.0000
     0.0000   0.0000   0.0000   0.0000   0.0000   0.0000   0.0000   0.0000
     0.0000   0.0000   0.0000   0.0000   0.0000   0.0000   0.0000   0.0000
     0.0000   0.0000   0.0000   0.0000   0.0000   0.0000   0.0000   0.0000
     0.0000   0.0000   0.0000   0.0000   0.0000   0.0000   0.0000   0.0000
     0.0000   0.0000   0.0000   0.0000   0.0000   0.0000   0.0000   0.0000
     0.0000   0.0000   0.0000   0.0000   0.0000   0.0000   0.0000   0.0000
     0.0000   0.0000   0.0000   0.0000   0.0000   0.0000   0.0000   0.0000
     0.0000   0.0000   0.0000   0.0000   0.0000   0.0000   0.0000   0.0000
     0.0000   0.0000   0.0000   0.0000   0.0000   0.0000   0.0000   0.0000
     0.0000   0.0000   0.0000   0.0000   0.0000   0.0000   0.0000   0.0000
     0.0000   0.0000   0.0000   0.0000   0.0000   0.0000   0.0000   0.0000
     0.0000   0.0000   0.0000   0.0000   0.0000   0.0000   0.0000   0.0000
     0.0000   0.0000   0.0000   0.0000   0.0000   0.0000   0.0000   0.0000
     0.0000   0.0000   0.0000   0.0000   0.0000   0.0000   0.0000   0.0000
     0.0000   0.0000   0.0000   0.0000   0.0000   0.0000   0.0000   0.0000
     0.0000   0.0000   0.0000   0.0000   0.0000   0.0000   0.0000   0.0000
     0.0000   0.0000   0.0000   0.0000   0.0000   0.0000   0.0000   0.0000
     0.0000   0.0000   0.0000   0.0000   0.0000   0.0000   0.0000   0.0000
     0.0000   0.0000   0.0000   0.0000   0.0000   0.0000   0.0000   0.0000
     0.0000   0.0000   0.0000   0.0000   0.0000   0.0000   0.0000   0.0000
     0.0000   0.0000   0.0000   0.0000   0.0000   0.0000   0.0000   0.0000
     0.0000   0.0000   0.0000   0.0000   0.0000   0.0000   0.0000   0.0000
     0.0000   0.0000   0.0000   0.0000   0.0000   0.0000   0.0000   0.0000
     0.0000   0.0000   0.0000   0.0000   0.0000   0.0000   0.0000   0.0000
     0.0000   0.0000   0.0000   0.0000   0.0000   0.0000   0.0000   0.0000
     0.0000   0.0000   0.0000   0.0000   0.0000   0.0000   0.0000   0.0000
     0.0000   0.0000   0.0000   0.0000   0.0000   0.0000   0.0000   0.0000
     0.0000   0.0000   0.0000   0.0000   0.0000   0.0000   0.0000   0.0000
     0.0000   0.0000   0.0000   0.0000   0.0000   0.0000   0.0000   0.0000
     0.0000   0.0000   0.0000   0.0000   0.0000   0.0000   0.0000   0.0000
     0.0000   0.0000   0.0000   0.0000   0.0000   0.0000   0.0000   0.0000
     0.0000   0.0000   0.0000   0.0000   0.0000   0.0000   0.0000   0.0000
     0.0000   0.0000   0.0000   0.0000   0.0000   0.0000   0.0000   0.0000
     0.0000   0.0000   0.0000   0.0000   0.0000   0.0000   0.0000   0.0000
     0.0000   0.0000   0.0000   0.0000   0.0000   0.0000   0.0000   0.0000
     0.0000   0.0000   0.0000   0.0000   0.0000   0.0000   0.0000   0.0000
     0.0000   0.0000   0.0000   0.0000   0.0000   0.0000   0.0000   0.0000
     0.0000   0.0000   0.0000   0.0000   0.0000   0.0000   0.0000   0.0000
     0.0000   0.0000   0.0000   0.0000   0.0000   0.0000   0.0000   0.0000
     0.0000   0.0000   0.0000   0.0000   0.0000   0.0000   0.0000   0.0000
     0.0000   0.0000   0.0000   0.0000   0.0000   0.0000   0.0000   0.0000

 ------ SPIN DOWN ----------


          k = 0.0000 0.0000 0.0000 ( 31995 PWs)   bands (ev):

   -10.4608  -9.5864  -9.3811  -9.3811  -9.3288  -9.3288  -9.2376  -8.6839
    -8.3092  -8.3092  -8.3000  -8.3000  -8.2810  -8.2531  -8.2530  -8.2444
    -8.1849  -8.1849  -8.0000  -7.4863  -7.2102  -7.2010  -7.2010  -7.1745
    -7.1677  -7.1677  -6.9890  -6.3402  -6.1369  -6.1369  -6.1122  -6.1122
    -6.0539  -5.7049  -5.1837  -5.1837  -5.1770  -5.1742  -5.1742  -5.1593
    -5.1577  -5.1577  -5.1490  -5.1396  -5.1396  -5.1314  -5.1314  -5.1302
    -5.0916  -5.0916  -5.0784  -5.0784  -5.0731  -5.0624  -4.9763  -4.9763
    -4.7996  -4.5974  -4.3582  -4.3582  -4.3237  -4.3200  -4.3200  -4.3086
    -4.3013  -4.3013  -4.2925  -4.2885  -4.2885  -4.2643  -4.2610  -4.2610
    -4.2425  -4.2425  -4.1962  -4.1945  -4.1945  -4.1620  -3.9986  -3.9986
    -3.2775  -2.6902  -2.5141  -2.5141  -2.4660  -2.4651  -2.4651  -2.4620
    -2.4620  -2.4488  -2.3818  -2.3818  -1.9762  -1.1558  -1.1074  -1.1074
    -1.0782  -1.0782  -1.0377  -0.7897  -0.6141  -0.6141  -0.5751  -0.5654
    -0.5654  -0.5535  -0.5535  -0.5521  -0.5512  -0.5282  -0.5282  -0.5232
    -0.5232  -0.4943  -0.4505  -0.4430  -0.4430  -0.4163  -0.4138  -0.4138
    -0.3783  -0.3783  -0.3428  -0.3174  -0.3173  -0.3064  -0.2917  -0.2895
    -0.2895  -0.2850  -0.2758  -0.2758  -0.2630  -0.2539  -0.2539  -0.2311
    -0.2311  -0.2258  -0.2183  -0.2182  -0.2075  -0.2075  -0.1780   0.0300
     0.1953   0.1953   0.5781   0.8420   0.8420   0.8529   0.8835   0.8880
     0.8880   0.9032   0.9203   0.9203   1.1191   1.1191   2.1805   2.5172
     2.5172   2.5334   2.5902   2.5981   2.6021   2.6021   2.6103   2.6103
     2.6113   2.6207   2.6283   2.6306   2.6306   2.6550   2.6550   2.7905
     2.7935   2.7935   2.8202   3.1913   3.1913   3.2277   3.2870   3.2954
     3.2954   3.2956   3.3026   3.3026   3.3126   3.3126   3.3132   3.3244
     3.3244   3.3340   3.3372   3.3372   3.3607   3.3670   3.3733   3.3733
     3.6432   3.6432   4.1878   4.1878   4.2029   4.2544   4.2544   4.2553
     4.2580   4.2668   4.2668   4.2800   4.2800   4.2873   4.2991   4.2991
     4.3573   4.3573   4.3672   4.3759   4.3862   4.4235   4.4235   4.4773
     4.5086   4.5086   4.6003   4.7230   4.7230   4.8027   4.8245   4.8245
     4.8437   4.8442   4.8442   4.8543   4.8545   4.8545   4.8602   4.8770
     4.8773   4.8773   4.8953   4.8995   4.8995   4.9120   4.9270   4.9325
     4.9325   4.9559   4.9559   4.9900   4.9900   5.3277   5.4065   5.4065
     5.9125   5.9125   5.9797   5.9917   6.0201   6.0201   6.1848   6.4895
     6.4895   6.5567   6.5622   6.5622   6.5813   6.5850   6.5850   6.6191
     6.6836   6.6836   6.8583   6.8583   6.9830   7.0148   7.0160   7.0160
     7.0233   7.0262   7.0262   7.0576   7.0886   7.0886   7.0943   7.2407
     7.2407   7.2576   7.2867   7.2904   7.2904   7.3064   7.3091   7.3091
     7.3126   7.3126   7.3205   7.3227   7.3293   7.3294   7.3609   7.3609
     7.3811   7.3811   7.3821   7.3913   7.3927   7.3927   7.4570   7.4570
     7.4846   7.5146   7.5214   7.5214   7.5230   7.5300   7.5300   7.5304
     7.5341   7.5341   7.5371   7.5405   7.5513   7.5513   7.5610   7.5660
     7.5660   7.5663   7.5663   7.5742   7.5772   7.5772   7.5905   7.5905
     7.5921   7.6036   7.6071   7.6071   7.6254   7.6373   7.6373   7.6556
     7.6556   7.6817   7.6817   7.7139   7.7183   7.7443   7.7573   7.7573
     7.7600   7.8845   7.8845   8.1540   8.1766   8.1767   8.3451   8.3451
     8.4114   8.4114   8.4148   8.4205   8.4495   8.4512   8.4512   8.4549
     8.4754   8.4754   8.4901   8.4952   8.4952   8.5045   8.5045   8.5189
     8.5859   8.5859   8.6714   9.3275   9.5638   9.5638   9.9346   9.9346
     9.9589   9.9781   9.9781   9.9831  10.0030  10.0117  10.0117  10.0249
    10.0728  10.0728  10.0839  10.1675  10.1675  10.2296  10.2333  10.2333
    10.2430  10.2430  10.2536  10.2536  10.2638  10.2897  10.2897  10.3019
    10.3111  10.3111  10.3315  10.3388  10.3388  10.9419  11.0114  11.0114
    11.2234  11.2234  11.2298  11.2622  11.2622  11.2625  11.3013  11.3377
    11.3377  11.6220  12.6339  12.6403  12.6403  14.2331  17.3706  17.3706
    18.3330  18.3330  18.3606  18.3986  18.3986  18.4194  18.9116  18.9822
    18.9822  18.9962  18.9962  19.0730  19.1927  19.1927  19.2617  19.3136
    19.3136  19.3170  20.0083  20.0083  20.0188  20.5437  20.6070  20.6070
    20.6180  20.6659  20.6659  20.6713  20.6713  20.6780  20.6906  20.6906
    20.7356  21.2412  21.4011  21.4011  21.4342  21.4356  21.4356  21.4418
    21.4439  21.4439  21.4514  21.4514  21.4685  21.4749  21.4865  21.4865
    21.5078  21.5130  21.5130  21.5610  21.5610  21.5729  21.6007  21.6028
    21.6028  21.9239  21.9857  21.9857  22.0528  22.0625  22.0647  22.0647
    22.0671  22.0671  22.0754  22.0779  22.0779  22.0785  22.0979  22.0980
    22.1016  22.1016  22.1071  22.1130  22.1130  22.1194  22.1271  22.1271
    22.1437  22.1538  22.1619  22.1619  22.1814  22.1816  22.1825  22.1825
    22.1908  22.1908  22.2257  22.2257  22.2681  22.3071  22.3071  22.3133
    22.4050  22.4073  22.4073  22.5125  22.5701  22.5701  22.5710  22.6005
    22.6005  22.6054  22.6092  22.6092  22.6136  22.6469  22.6469  22.6839
    22.6839  22.6896  22.7007  22.7007  22.7086  22.7496  22.7496  22.7543
    22.7678  22.7703  22.7703  22.7864  22.7864  22.7931  22.7931  22.8032
    22.8233  22.8233  22.8251  22.8442  22.8442  22.8883  23.0288  23.0334
    23.0334  23.0585  23.0585  23.0650  23.0777  23.0909  23.0954  23.0954
    23.1047  23.1047  23.1516  23.1662  23.1662  23.1809  23.2299  23.2549
    23.2549  23.3867  23.3867  23.3903  23.4000  23.4000  23.5573  23.5573
    23.5619  23.6170  23.6170  23.6380  23.6447  23.6447  23.6467  23.7396
    23.7624  23.7624  23.8322  23.8717  23.8717  23.8927  23.8955  23.8955
    24.0932  24.1155  24.1155  24.3108  24.3308  24.3308  24.3494  24.3988
    24.4007  24.4007  24.4067  24.4067  24.4199  24.4199  24.4335  24.4352
    24.4352  24.4392  24.4506  24.4896  24.5311  24.5311  24.5619  24.6510
    24.7144  24.7144  24.7550  24.7550  24.8508  24.9222  24.9222  25.3310
    25.3419  25.3419  25.3507  25.3572  25.3608  25.3608  25.3815  25.3815
    25.3903  25.4207  25.4207  25.4268  25.4268  25.4547  25.4591  25.5216
    25.5319  25.5519  25.5519  25.7041  25.7041  25.8166  25.8166  25.8681
    25.8709  25.8709  25.8884  25.9226  25.9226  25.9300  25.9300  25.9337
    25.9488  25.9886  25.9886  25.9921  26.0395  26.0395  26.0631  26.0631
    26.0647  26.0647  26.0691  26.1026  26.1369  26.1627  26.1699  26.1699
    26.1764  26.1818  26.1818  26.1838  26.2075  26.2075  26.2159  26.2459
    26.2459  26.2751  26.2751  26.2921  26.3144  26.3367  26.3367  26.5718
    26.5718  26.6037  26.6037  27.2011  27.2385  27.2385  27.3242  27.4689
    27.4896  27.4896  27.5020  27.5020  27.7902  27.8046  27.8125  27.8125
    27.8736  27.8770  27.8770  27.9338  27.9571  27.9571  28.0044  28.0921
    28.0921  28.3456  28.4000  28.4000  28.4110  28.4320  28.4484  28.4535
    28.4535  28.4809  28.4809  28.4908  28.4908  28.5090  28.5564  28.5564
    28.5571  28.5752  28.5847  28.5847  28.6401  28.6401  28.6454  28.7373
    28.7373  28.9201  28.9282  28.9282  28.9841  28.9916  28.9916  28.9962
    29.0094  29.0112  29.0112  29.0217  29.0217  29.0276  29.0276  29.0337
    29.0462  29.0595  29.0621  29.0621  29.0842  29.0842  29.0909  29.1027
    29.1027  29.1107  29.1107  29.1191  29.1267  29.1277  29.1289  29.1289
    29.1386  29.1386  29.1448  29.1448  29.1545  29.1572  29.1572  29.1589
    29.1648  29.1726  29.1746  29.1746  29.1919  29.1919  29.2180  29.2603
    29.2603  29.2982  29.3075  29.3075  29.3194  29.3194  29.3252  29.3865
    29.4100  29.4100  29.4169  29.4289  29.4289  29.4411  29.4734  29.4892
    29.4892  29.4931  29.4975  29.4975  29.5161  29.5189  29.5190  29.6106
    29.6110  29.6110  29.6476  29.6555  29.6555  29.7548  29.7548  29.8078
    29.8707  29.8746  29.8746  29.9279  30.0272  30.0272  30.0628  30.0791
    30.0791  30.1022  30.1022  30.1488  30.1902  30.1971  30.1971  30.2503
    30.2708  30.2708  30.4316  30.5647  30.5647  30.5971  31.4397  31.5765
    31.5986  31.5986  31.7122  31.7842  31.7842  31.8452  31.8452  31.9065

     occupation numbers 
     1.0000   1.0000   1.0000   1.0000   1.0000   1.0000   1.0000   1.0000
     1.0000   1.0000   1.0000   1.0000   1.0000   1.0000   1.0000   1.0000
     1.0000   1.0000   1.0000   1.0000   1.0000   1.0000   1.0000   1.0000
     1.0000   1.0000   1.0000   1.0000   1.0000   1.0000   1.0000   1.0000
     1.0000   1.0000   1.0000   1.0000   1.0000   1.0000   1.0000   1.0000
     1.0000   1.0000   1.0000   1.0000   1.0000   1.0000   1.0000   1.0000
     1.0000   1.0000   1.0000   1.0000   1.0000   1.0000   1.0000   1.0000
     1.0000   1.0000   1.0000   1.0000   1.0000   1.0000   1.0000   1.0000
     1.0000   1.0000   1.0000   1.0000   1.0000   1.0000   1.0000   1.0000
     1.0000   1.0000   1.0000   1.0000   1.0000   1.0000   1.0000   1.0000
     1.0000   1.0000   1.0000   1.0000   1.0000   1.0000   1.0000   1.0000
     1.0000   1.0000   1.0000   1.0000   1.0000   1.0000   1.0000   1.0000
     1.0000   1.0000   1.0000   1.0000   1.0000   1.0000   1.0000   1.0000
     1.0000   1.0000   1.0000   1.0000   1.0000   1.0000   1.0000   1.0000
     1.0000   1.0000   1.0000   1.0000   1.0000   1.0000   1.0000   1.0000
     1.0000   1.0000   1.0000   1.0000   1.0000   1.0000   1.0000   1.0000
     1.0000   1.0000   1.0000   1.0000   1.0000   1.0000   1.0000   1.0000
     1.0000   1.0000   1.0000   1.0000   1.0000   1.0000   1.0000   1.0000
     1.0000   1.0000   1.0000   1.0000   1.0000   1.0000   1.0000   1.0000
     1.0000   1.0000   1.0000   1.0000   1.0000   1.0000   1.0000   1.0000
     1.0000   1.0000   1.0000   1.0000   1.0000   1.0000   1.0000   1.0000
     1.0000   1.0000   1.0000   1.0000   1.0000   1.0000   1.0000   1.0000
     1.0000   1.0000   1.0000   1.0000   1.0000   1.0000   1.0000   1.0000
     1.0000   1.0000   1.0000   1.0000   1.0000   1.0000   1.0000   1.0000
     1.0000   1.0000   1.0000   1.0000   1.0000   1.0000   1.0000   1.0000
     1.0000   1.0000   1.0000   1.0000   1.0000   1.0000   1.0000   1.0000
     1.0000   1.0000   1.0000   1.0000   1.0000   1.0000   1.0000   1.0000
     1.0000   1.0000   1.0000   1.0000   1.0000   1.0000   1.0000   1.0000
     1.0000   1.0000   1.0000   1.0000   1.0000   1.0000   1.0000   1.0000
     1.0000   1.0000   1.0000   1.0000   1.0000   1.0000   1.0000   1.0000
     1.0000   1.0000   1.0000   1.0000   1.0000   1.0000   1.0000   1.0000
     1.0000   1.0000   1.0000   1.0000   1.0000   1.0000   1.0000   1.0000
     1.0000   1.0000   1.0000   1.0000   1.0000   1.0000   1.0000   1.0000
     1.0000   1.0000   1.0000   1.0000   1.0000   1.0000   1.0000   1.0000
     1.0000   1.0000   1.0000   1.0000   1.0000   1.0000   1.0000   1.0000
     1.0000   1.0000   1.0000   1.0000   1.0000   1.0000   1.0000   1.0000
     1.0000   1.0000   1.0000   1.0000   1.0000   1.0000   1.0000   1.0000
     1.0000   1.0000   1.0000   1.0000   1.0000   1.0000   1.0000   1.0000
     1.0000   1.0000   1.0000   1.0000   1.0000   1.0000   1.0000   1.0000
     1.0000   1.0000   1.0000   1.0000   1.0000   1.0000   1.0000   1.0000
     1.0000   1.0000   1.0000   1.0000   1.0000   1.0000   1.0000   1.0000
     1.0000   1.0000   1.0000   1.0000   1.0000   1.0000   1.0000   1.0000
     1.0000   1.0000   1.0000   1.0000   1.0000   1.0000   1.0000   1.0000
     1.0000   1.0000   1.0000   1.0000   1.0000   1.0000   1.0000   1.0000
     1.0000   1.0000   1.0000   1.0000   1.0000   1.0000   1.0000   1.0000
     1.0000   1.0000   1.0000   1.0000   1.0000   1.0000   1.0000   1.0000
     1.0000   1.0000   1.0000   1.0000   1.0000   1.0000   1.0000   1.0000
     1.0000   1.0000   1.0000   1.0000   1.0000   1.0000   1.0000   1.0000
     1.0000   1.0000   1.0000   1.0000   1.0000   1.0000   1.0000   1.0000
     1.0000   1.0000   1.0000   1.0000   1.0000   1.0000   1.0000   1.0000
     1.0000   1.0000   1.0000   1.0000   1.0000   1.0000   1.0000   1.0000
     1.0000   1.0000   1.0000   1.0000   1.0000   1.0000   1.0000   1.0000
     1.0000   1.0000   1.0000   1.0000   1.0000   1.0000   1.0000   1.0000
     1.0000   1.0000   1.0000   1.0000   1.0000   1.0000   0.0000   0.0000
     0.0000   0.0000   0.0000   0.0000   0.0000   0.0000   0.0000   0.0000
     0.0000   0.0000   0.0000   0.0000   0.0000   0.0000   0.0000   0.0000
     0.0000   0.0000   0.0000   0.0000   0.0000   0.0000   0.0000   0.0000
     0.0000   0.0000   0.0000   0.0000   0.0000   0.0000   0.0000   0.0000
     0.0000   0.0000   0.0000   0.0000   0.0000   0.0000   0.0000   0.0000
     0.0000   0.0000   0.0000   0.0000   0.0000   0.0000   0.0000   0.0000
     0.0000   0.0000   0.0000   0.0000   0.0000   0.0000   0.0000   0.0000
     0.0000   0.0000   0.0000   0.0000   0.0000   0.0000   0.0000   0.0000
     0.0000   0.0000   0.0000   0.0000   0.0000   0.0000   0.0000   0.0000
     0.0000   0.0000   0.0000   0.0000   0.0000   0.0000   0.0000   0.0000
     0.0000   0.0000   0.0000   0.0000   0.0000   0.0000   0.0000   0.0000
     0.0000   0.0000   0.0000   0.0000   0.0000   0.0000   0.0000   0.0000
     0.0000   0.0000   0.0000   0.0000   0.0000   0.0000   0.0000   0.0000
     0.0000   0.0000   0.0000   0.0000   0.0000   0.0000   0.0000   0.0000
     0.0000   0.0000   0.0000   0.0000   0.0000   0.0000   0.0000   0.0000
     0.0000   0.0000   0.0000   0.0000   0.0000   0.0000   0.0000   0.0000
     0.0000   0.0000   0.0000   0.0000   0.0000   0.0000   0.0000   0.0000
     0.0000   0.0000   0.0000   0.0000   0.0000   0.0000   0.0000   0.0000
     0.0000   0.0000   0.0000   0.0000   0.0000   0.0000   0.0000   0.0000
     0.0000   0.0000   0.0000   0.0000   0.0000   0.0000   0.0000   0.0000
     0.0000   0.0000   0.0000   0.0000   0.0000   0.0000   0.0000   0.0000
     0.0000   0.0000   0.0000   0.0000   0.0000   0.0000   0.0000   0.0000
     0.0000   0.0000   0.0000   0.0000   0.0000   0.0000   0.0000   0.0000
     0.0000   0.0000   0.0000   0.0000   0.0000   0.0000   0.0000   0.0000
     0.0000   0.0000   0.0000   0.0000   0.0000   0.0000   0.0000   0.0000
     0.0000   0.0000   0.0000   0.0000   0.0000   0.0000   0.0000   0.0000
     0.0000   0.0000   0.0000   0.0000   0.0000   0.0000   0.0000   0.0000
     0.0000   0.0000   0.0000   0.0000   0.0000   0.0000   0.0000   0.0000
     0.0000   0.0000   0.0000   0.0000   0.0000   0.0000   0.0000   0.0000
     0.0000   0.0000   0.0000   0.0000   0.0000   0.0000   0.0000   0.0000
     0.0000   0.0000   0.0000   0.0000   0.0000   0.0000   0.0000   0.0000
     0.0000   0.0000   0.0000   0.0000   0.0000   0.0000   0.0000   0.0000
     0.0000   0.0000   0.0000   0.0000   0.0000   0.0000   0.0000   0.0000
     0.0000   0.0000   0.0000   0.0000   0.0000   0.0000   0.0000   0.0000
     0.0000   0.0000   0.0000   0.0000   0.0000   0.0000   0.0000   0.0000
     0.0000   0.0000   0.0000   0.0000   0.0000   0.0000   0.0000   0.0000
     0.0000   0.0000   0.0000   0.0000   0.0000   0.0000   0.0000   0.0000
     0.0000   0.0000   0.0000   0.0000   0.0000   0.0000   0.0000   0.0000
     0.0000   0.0000   0.0000   0.0000   0.0000   0.0000   0.0000   0.0000
     0.0000   0.0000   0.0000   0.0000   0.0000   0.0000   0.0000   0.0000
     0.0000   0.0000   0.0000   0.0000   0.0000   0.0000   0.0000   0.0000
     0.0000   0.0000   0.0000   0.0000   0.0000   0.0000   0.0000   0.0000
     0.0000   0.0000   0.0000   0.0000   0.0000   0.0000   0.0000   0.0000
     0.0000   0.0000   0.0000   0.0000   0.0000   0.0000   0.0000   0.0000
     0.0000   0.0000   0.0000   0.0000   0.0000   0.0000   0.0000   0.0000
     0.0000   0.0000   0.0000   0.0000   0.0000   0.0000   0.0000   0.0000
     0.0000   0.0000   0.0000   0.0000   0.0000   0.0000   0.0000   0.0000
     0.0000   0.0000   0.0000   0.0000   0.0000   0.0000   0.0000   0.0000
     0.0000   0.0000   0.0000   0.0000   0.0000   0.0000   0.0000   0.0000
     0.0000   0.0000   0.0000   0.0000   0.0000   0.0000   0.0000   0.0000
     0.0000   0.0000   0.0000   0.0000   0.0000   0.0000   0.0000   0.0000
     0.0000   0.0000   0.0000   0.0000   0.0000   0.0000   0.0000   0.0000
     0.0000   0.0000   0.0000   0.0000   0.0000   0.0000   0.0000   0.0000
     0.0000   0.0000   0.0000   0.0000   0.0000   0.0000   0.0000   0.0000

     highest occupied, lowest unoccupied level (ev):    14.4750   17.3706

!    total energy              =   -2456.19350171 Ry
     estimated scf accuracy    <          1.9E-09 Ry

     total magnetization       =     2.00 Bohr mag/cell
     absolute magnetization    =     2.35 Bohr mag/cell

     convergence has been achieved in   9 iterations

     Using ACE for calculation of exact exchange
     ACE projected onto   864 (nbndproj) and applied to   864 (nbnd) bands

     total energy              =   -2456.19966124 Ry
     Harris-Foulkes estimate   =   -2456.19966124 Ry
     est. exchange err (dexx)  =       0.00615953 Ry
     - averaged Fock potential =     249.67591293 Ry
     + Fock energy (ACE)       =    -124.89672534 Ry

     EXX: now go back to refine exchange calculation

     total cpu time spent up to now is      639.9 secs

     Self-consistent Calculation

     iteration #  1     ecut=    60.00 Ry     beta= 0.30
     Davidson diagonalization with overlap

---- Real-time Memory Report at c_bands before calling an iterative solver
          1350 MiB given to the printing process from OS
             0 MiB allocation reported by mallinfo(arena+hblkhd)
         31170 MiB available memory on the node where the printing process lives
------------------
     ethr =  1.19E-12,  avg # of iterations = 33.5

     total cpu time spent up to now is      707.1 secs

     total energy              =   -2456.20011045 Ry
     estimated scf accuracy    <       0.00003394 Ry

     total magnetization       =     2.00 Bohr mag/cell
     absolute magnetization    =     2.37 Bohr mag/cell

     iteration #  2     ecut=    60.00 Ry     beta= 0.30
     Davidson diagonalization with overlap

---- Real-time Memory Report at c_bands before calling an iterative solver
          1350 MiB given to the printing process from OS
             0 MiB allocation reported by mallinfo(arena+hblkhd)
         29543 MiB available memory on the node where the printing process lives
------------------
     ethr =  3.94E-09,  avg # of iterations =  2.0

     total cpu time spent up to now is      716.2 secs

     total energy              =   -2456.20010779 Ry
     estimated scf accuracy    <       0.00001552 Ry

     total magnetization       =     2.00 Bohr mag/cell
     absolute magnetization    =     2.37 Bohr mag/cell

     iteration #  3     ecut=    60.00 Ry     beta= 0.30
     Davidson diagonalization with overlap

---- Real-time Memory Report at c_bands before calling an iterative solver
          1350 MiB given to the printing process from OS
             0 MiB allocation reported by mallinfo(arena+hblkhd)
         29735 MiB available memory on the node where the printing process lives
------------------
     ethr =  1.80E-09,  avg # of iterations =  5.5

     total cpu time spent up to now is      726.2 secs

     total energy              =   -2456.20010852 Ry
     estimated scf accuracy    <       0.00000036 Ry

     total magnetization       =     2.00 Bohr mag/cell
     absolute magnetization    =     2.37 Bohr mag/cell

     iteration #  4     ecut=    60.00 Ry     beta= 0.30
     Davidson diagonalization with overlap

---- Real-time Memory Report at c_bands before calling an iterative solver
          1350 MiB given to the printing process from OS
             0 MiB allocation reported by mallinfo(arena+hblkhd)
         29669 MiB available memory on the node where the printing process lives
------------------
     ethr =  4.13E-11,  avg # of iterations =  8.0

     total cpu time spent up to now is      740.5 secs

     total energy              =   -2456.20010859 Ry
     estimated scf accuracy    <       0.00000006 Ry

     total magnetization       =     2.00 Bohr mag/cell
     absolute magnetization    =     2.37 Bohr mag/cell

     iteration #  5     ecut=    60.00 Ry     beta= 0.30
     Davidson diagonalization with overlap

---- Real-time Memory Report at c_bands before calling an iterative solver
          1350 MiB given to the printing process from OS
             0 MiB allocation reported by mallinfo(arena+hblkhd)
         29370 MiB available memory on the node where the printing process lives
------------------
     ethr =  7.02E-12,  avg # of iterations =  6.0

     total cpu time spent up to now is      751.5 secs

     total energy              =   -2456.20010862 Ry
     estimated scf accuracy    <       0.00000002 Ry

     total magnetization       =     2.00 Bohr mag/cell
     absolute magnetization    =     2.37 Bohr mag/cell

     iteration #  6     ecut=    60.00 Ry     beta= 0.30
     Davidson diagonalization with overlap

---- Real-time Memory Report at c_bands before calling an iterative solver
          1350 MiB given to the printing process from OS
             0 MiB allocation reported by mallinfo(arena+hblkhd)
         29470 MiB available memory on the node where the printing process lives
------------------
     ethr =  1.87E-12,  avg # of iterations =  5.0
 
     Magnetic moment per site  (integrated on atomic sphere of radius R)
     atom   1 (R=0.057)  charge=  1.7811  magn=  0.0001
     atom   2 (R=0.057)  charge=  1.7806  magn= -0.0000
     atom   3 (R=0.057)  charge=  1.7816  magn=  0.0001
     atom   4 (R=0.057)  charge=  1.7804  magn=  0.0001
     atom   5 (R=0.057)  charge=  1.7811  magn=  0.0004
     atom   6 (R=0.057)  charge=  1.7801  magn=  0.0000
     atom   7 (R=0.057)  charge=  1.7811  magn=  0.0004
     atom   8 (R=0.057)  charge=  1.7801  magn=  0.0000
     atom   9 (R=0.057)  charge=  1.7815  magn=  0.0011
     atom  10 (R=0.057)  charge=  1.7800  magn= -0.0001
     atom  11 (R=0.057)  charge=  1.7788  magn=  0.0002
     atom  12 (R=0.057)  charge=  1.7834  magn=  0.0027
     atom  13 (R=0.057)  charge=  1.7826  magn=  0.0011
     atom  14 (R=0.057)  charge=  1.7850  magn=  0.0011
     atom  15 (R=0.057)  charge=  1.7820  magn=  0.0001
     atom  16 (R=0.057)  charge=  1.7822  magn= -0.0000
     atom  17 (R=0.057)  charge=  1.7803  magn=  0.0002
     atom  18 (R=0.057)  charge=  1.7816  magn= -0.0001
     atom  19 (R=0.057)  charge=  1.7812  magn=  0.0011
     atom  20 (R=0.057)  charge=  1.7808  magn= -0.0001
     atom  21 (R=0.057)  charge=  1.7811  magn=  0.0001
     atom  22 (R=0.057)  charge=  1.7806  magn= -0.0000
     atom  23 (R=0.057)  charge=  1.7817  magn=  0.0015
     atom  24 (R=0.057)  charge=  1.7811  magn= -0.0001
     atom  25 (R=0.057)  charge=  1.7815  magn=  0.0011
     atom  26 (R=0.057)  charge=  1.7800  magn= -0.0001
     atom  27 (R=0.057)  charge=  1.7788  magn=  0.0002
     atom  28 (R=0.057)  charge=  1.7834  magn=  0.0027
     atom  29 (R=0.057)  charge=  1.7820  magn=  0.0001
     atom  30 (R=0.057)  charge=  1.7822  magn= -0.0000
     atom  31 (R=0.057)  charge=  1.7826  magn=  0.0011
     atom  32 (R=0.057)  charge=  1.7850  magn=  0.0011
     atom  33 (R=0.057)  charge=  1.7819  magn=  0.0003
     atom  34 (R=0.057)  charge=  1.7795  magn= -0.0009
     atom  35 (R=0.057)  charge=  1.7820  magn=  0.0061
     atom  36 (R=0.057)  charge=  1.7825  magn= -0.0012
     atom  37 (R=0.057)  charge=  1.7805  magn=  0.0001
     atom  38 (R=0.057)  charge=  1.7813  magn= -0.0002
     atom  39 (R=0.057)  charge=  1.7805  magn=  0.0001
     atom  40 (R=0.057)  charge=  1.7813  magn= -0.0002
     atom  41 (R=0.057)  charge=  1.7769  magn=  0.0181
     atom  42 (R=0.057)  charge=  1.7803  magn= -0.0014
     atom  43 (R=0.057)  charge=  1.7817  magn=  0.0171
     atom  44 (R=0.057)  charge=  1.7861  magn=  0.0014
     atom  45 (R=0.057)  charge=  1.7815  magn=  0.0011
     atom  46 (R=0.057)  charge=  1.7800  magn= -0.0001
     atom  47 (R=0.057)  charge=  1.7809  magn=  0.0015
     atom  48 (R=0.057)  charge=  1.7814  magn= -0.0002
     atom  49 (R=0.057)  charge=  1.7803  magn=  0.0002
     atom  50 (R=0.057)  charge=  1.7816  magn= -0.0001
     atom  51 (R=0.057)  charge=  1.7812  magn=  0.0011
     atom  52 (R=0.057)  charge=  1.7808  magn= -0.0001
     atom  53 (R=0.057)  charge=  1.7817  magn=  0.0015
     atom  54 (R=0.057)  charge=  1.7811  magn= -0.0001
     atom  55 (R=0.057)  charge=  1.7811  magn=  0.0001
     atom  56 (R=0.057)  charge=  1.7806  magn= -0.0000
     atom  57 (R=0.057)  charge=  1.7769  magn=  0.0181
     atom  58 (R=0.057)  charge=  1.7803  magn= -0.0014
     atom  59 (R=0.057)  charge=  1.7817  magn=  0.0171
     atom  60 (R=0.057)  charge=  1.7861  magn=  0.0014
     atom  61 (R=0.057)  charge=  1.7809  magn=  0.0015
     atom  62 (R=0.057)  charge=  1.7814  magn= -0.0002
     atom  63 (R=0.057)  charge=  1.7815  magn=  0.0011
     atom  64 (R=0.057)  charge=  1.7800  magn= -0.0001
     atom  65 (R=0.057)  charge=  1.7799  magn=  0.0073
     atom  66 (R=0.057)  charge=  1.7797  magn= -0.0005
     atom  67 (R=0.057)  charge=  1.7801  magn=  0.0002
     atom  68 (R=0.057)  charge=  1.7810  magn= -0.0001
     atom  69 (R=0.057)  charge=  1.7803  magn=  0.0002
     atom  70 (R=0.057)  charge=  1.7816  magn= -0.0001
     atom  71 (R=0.057)  charge=  1.7803  magn=  0.0002
     atom  72 (R=0.057)  charge=  1.7816  magn= -0.0001
     atom  73 (R=0.057)  charge=  1.7811  magn=  0.0004
     atom  74 (R=0.057)  charge=  1.7801  magn=  0.0000
     atom  75 (R=0.057)  charge=  1.7819  magn=  0.0001
     atom  76 (R=0.057)  charge=  1.7818  magn=  0.0000
     atom  77 (R=0.057)  charge=  1.7820  magn=  0.0001
     atom  78 (R=0.057)  charge=  1.7822  magn= -0.0000
     atom  79 (R=0.057)  charge=  1.7820  magn=  0.0001
     atom  80 (R=0.057)  charge=  1.7822  magn= -0.0000
     atom  81 (R=0.057)  charge=  1.7820  magn=  0.0001
     atom  82 (R=0.057)  charge=  1.7822  magn= -0.0000
     atom  83 (R=0.057)  charge=  1.7842  magn=  0.0002
     atom  84 (R=0.057)  charge=  1.7870  magn=  0.0001
     atom  85 (R=0.057)  charge=  1.7805  magn=  0.0001
     atom  86 (R=0.057)  charge=  1.7813  magn= -0.0002
     atom  87 (R=0.057)  charge=  1.7845  magn=  0.0000
     atom  88 (R=0.057)  charge=  1.7832  magn= -0.0001
     atom  89 (R=0.057)  charge=  1.7817  magn=  0.0015
     atom  90 (R=0.057)  charge=  1.7811  magn= -0.0001
     atom  91 (R=0.057)  charge=  1.7816  magn=  0.0001
     atom  92 (R=0.057)  charge=  1.7804  magn=  0.0001
     atom  93 (R=0.057)  charge=  1.7815  magn=  0.0011
     atom  94 (R=0.057)  charge=  1.7800  magn= -0.0001
     atom  95 (R=0.057)  charge=  1.7804  magn=  0.0002
     atom  96 (R=0.057)  charge=  1.7756  magn= -0.0003
     atom  97 (R=0.057)  charge=  1.7820  magn=  0.0001
     atom  98 (R=0.057)  charge=  1.7822  magn= -0.0000
     atom  99 (R=0.057)  charge=  1.7842  magn=  0.0002
     atom 100 (R=0.057)  charge=  1.7870  magn=  0.0001
     atom 101 (R=0.057)  charge=  1.7845  magn=  0.0000
     atom 102 (R=0.057)  charge=  1.7832  magn= -0.0001
     atom 103 (R=0.057)  charge=  1.7805  magn=  0.0001
     atom 104 (R=0.057)  charge=  1.7813  magn= -0.0002
     atom 105 (R=0.057)  charge=  1.7845  magn=  0.0000
     atom 106 (R=0.057)  charge=  1.7832  magn= -0.0001
     atom 107 (R=0.057)  charge=  1.7810  magn=  0.0007
     atom 108 (R=0.057)  charge=  1.7850  magn= -0.0007
     atom 109 (R=0.057)  charge=  1.7915  magn=  0.0001
     atom 110 (R=0.057)  charge=  1.7611  magn=  0.0005
     atom 111 (R=0.057)  charge=  1.7915  magn=  0.0001
     atom 112 (R=0.057)  charge=  1.7611  magn=  0.0005
     atom 113 (R=0.057)  charge=  1.7804  magn=  0.0002
     atom 114 (R=0.057)  charge=  1.7756  magn= -0.0003
     atom 115 (R=0.057)  charge=  1.7788  magn=  0.0002
     atom 116 (R=0.057)  charge=  1.7834  magn=  0.0027
     atom 117 (R=0.057)  charge=  1.7819  magn=  0.0003
     atom 118 (R=0.057)  charge=  1.7795  magn= -0.0009
     atom 119 (R=0.057)  charge=  1.7765  magn=  0.0038
     atom 120 (R=0.057)  charge=  1.7822  magn= -0.0063
     atom 121 (R=0.057)  charge=  1.7817  magn=  0.0015
     atom 122 (R=0.057)  charge=  1.7811  magn= -0.0001
     atom 123 (R=0.057)  charge=  1.7816  magn=  0.0001
     atom 124 (R=0.057)  charge=  1.7804  magn=  0.0001
     atom 125 (R=0.057)  charge=  1.7804  magn=  0.0002
     atom 126 (R=0.057)  charge=  1.7756  magn= -0.0003
     atom 127 (R=0.057)  charge=  1.7815  magn=  0.0011
     atom 128 (R=0.057)  charge=  1.7800  magn= -0.0001
     atom 129 (R=0.057)  charge=  1.7804  magn=  0.0002
     atom 130 (R=0.057)  charge=  1.7756  magn= -0.0003
     atom 131 (R=0.057)  charge=  1.7788  magn=  0.0002
     atom 132 (R=0.057)  charge=  1.7834  magn=  0.0027
     atom 133 (R=0.057)  charge=  1.7765  magn=  0.0038
     atom 134 (R=0.057)  charge=  1.7822  magn= -0.0063
     atom 135 (R=0.057)  charge=  1.7819  magn=  0.0003
     atom 136 (R=0.057)  charge=  1.7795  magn= -0.0009
     atom 137 (R=0.057)  charge=  1.7812  magn=  0.0008
     atom 138 (R=0.057)  charge=  1.7809  magn= -0.0014
     atom 139 (R=0.057)  charge=  1.7812  magn=  0.0011
     atom 140 (R=0.057)  charge=  1.7808  magn= -0.0001
     atom 141 (R=0.057)  charge=  1.7769  magn=  0.0181
     atom 142 (R=0.057)  charge=  1.7803  magn= -0.0014
     atom 143 (R=0.057)  charge=  1.7769  magn=  0.0181
     atom 144 (R=0.057)  charge=  1.7803  magn= -0.0014
     atom 145 (R=0.057)  charge=  1.7826  magn=  0.0011
     atom 146 (R=0.057)  charge=  1.7850  magn=  0.0011
     atom 147 (R=0.057)  charge=  1.7842  magn=  0.0002
     atom 148 (R=0.057)  charge=  1.7870  magn=  0.0001
     atom 149 (R=0.057)  charge=  1.7817  magn=  0.0015
     atom 150 (R=0.057)  charge=  1.7811  magn= -0.0001
     atom 151 (R=0.057)  charge=  1.7817  magn=  0.0015
     atom 152 (R=0.057)  charge=  1.7811  magn= -0.0001
     atom 153 (R=0.057)  charge=  1.7805  magn=  0.0001
     atom 154 (R=0.057)  charge=  1.7813  magn= -0.0002
     atom 155 (R=0.057)  charge=  1.7810  magn=  0.0007
     atom 156 (R=0.057)  charge=  1.7850  magn= -0.0007
     atom 157 (R=0.057)  charge=  1.7809  magn=  0.0015
     atom 158 (R=0.057)  charge=  1.7814  magn= -0.0002
     atom 159 (R=0.057)  charge=  1.7804  magn=  0.0002
     atom 160 (R=0.057)  charge=  1.7756  magn= -0.0003
     atom 161 (R=0.057)  charge=  1.7809  magn=  0.0015
     atom 162 (R=0.057)  charge=  1.7814  magn= -0.0002
     atom 163 (R=0.057)  charge=  1.7788  magn=  0.0002
     atom 164 (R=0.057)  charge=  1.7834  magn=  0.0027
     atom 165 (R=0.057)  charge=  1.7803  magn=  0.0002
     atom 166 (R=0.057)  charge=  1.7816  magn= -0.0001
     atom 167 (R=0.057)  charge=  1.7812  magn=  0.0008
     atom 168 (R=0.057)  charge=  1.7809  magn= -0.0014
     atom 169 (R=0.057)  charge=  1.7805  magn=  0.0001
     atom 170 (R=0.057)  charge=  1.7813  magn= -0.0002
     atom 171 (R=0.057)  charge=  1.7810  magn=  0.0007
     atom 172 (R=0.057)  charge=  1.7850  magn= -0.0007
     atom 173 (R=0.057)  charge=  1.7804  magn=  0.0002
     atom 174 (R=0.057)  charge=  1.7756  magn= -0.0003
     atom 175 (R=0.057)  charge=  1.7809  magn=  0.0015
     atom 176 (R=0.057)  charge=  1.7814  magn= -0.0002
     atom 177 (R=0.057)  charge=  1.7915  magn=  0.0001
     atom 178 (R=0.057)  charge=  1.7611  magn=  0.0005
     atom 179 (R=0.057)  charge=  1.7765  magn=  0.0038
     atom 180 (R=0.057)  charge=  1.7822  magn= -0.0063
     atom 181 (R=0.057)  charge=  1.7765  magn=  0.0038
     atom 182 (R=0.057)  charge=  1.7822  magn= -0.0063
     atom 183 (R=0.057)  charge=  1.7765  magn=  0.0038
     atom 184 (R=0.057)  charge=  1.7822  magn= -0.0063
     atom 185 (R=0.057)  charge=  1.7820  magn=  0.0061
     atom 186 (R=0.057)  charge=  1.7825  magn= -0.0012
     atom 187 (R=0.057)  charge=  1.7769  magn=  0.0181
     atom 188 (R=0.057)  charge=  1.7803  magn= -0.0014
     atom 189 (R=0.057)  charge=  1.7894  magn=  0.2584
     atom 190 (R=0.057)  charge=  1.7893  magn= -0.0108
     atom 191 (R=0.057)  charge=  1.7809  magn=  0.0015
     atom 192 (R=0.057)  charge=  1.7814  magn= -0.0002
     atom 193 (R=0.057)  charge=  1.7788  magn=  0.0002
     atom 194 (R=0.057)  charge=  1.7834  magn=  0.0027
     atom 195 (R=0.057)  charge=  1.7812  magn=  0.0008
     atom 196 (R=0.057)  charge=  1.7809  magn= -0.0014
     atom 197 (R=0.057)  charge=  1.7803  magn=  0.0002
     atom 198 (R=0.057)  charge=  1.7816  magn= -0.0001
     atom 199 (R=0.057)  charge=  1.7765  magn=  0.0038
     atom 200 (R=0.057)  charge=  1.7822  magn= -0.0063
     atom 201 (R=0.057)  charge=  1.7820  magn=  0.0061
     atom 202 (R=0.057)  charge=  1.7825  magn= -0.0012
     atom 203 (R=0.057)  charge=  1.7894  magn=  0.2584
     atom 204 (R=0.057)  charge=  1.7893  magn= -0.0108
     atom 205 (R=0.057)  charge=  1.7769  magn=  0.0181
     atom 206 (R=0.057)  charge=  1.7803  magn= -0.0014
     atom 207 (R=0.057)  charge=  1.7894  magn=  0.2584
     atom 208 (R=0.057)  charge=  1.7893  magn= -0.0108
     atom 209 (R=0.057)  charge=  1.7817  magn=  0.0171
     atom 210 (R=0.057)  charge=  1.7861  magn=  0.0014
     atom 211 (R=0.057)  charge=  1.7799  magn=  0.0073
     atom 212 (R=0.057)  charge=  1.7797  magn= -0.0005
     atom 213 (R=0.057)  charge=  1.7799  magn=  0.0073
     atom 214 (R=0.057)  charge=  1.7797  magn= -0.0005
     atom 215 (R=0.057)  charge=  2.8736  magn= -0.0013

     total cpu time spent up to now is      763.7 secs

     End of self-consistent calculation

 ------ SPIN UP ------------


          k = 0.0000 0.0000 0.0000 ( 31995 PWs)   bands (ev):

   -10.4675  -9.5905  -9.3847  -9.3847  -9.3380  -9.3380  -9.2527  -8.6885
    -8.3123  -8.3123  -8.3031  -8.3031  -8.2868  -8.2617  -8.2617  -8.2487
    -8.2060  -8.2060  -8.0298  -7.4926  -7.2166  -7.2085  -7.2085  -7.1886
    -7.1886  -7.1826  -7.0202  -6.3562  -6.1441  -6.1441  -6.1255  -6.1255
    -6.0646  -5.7216  -5.1886  -5.1886  -5.1790  -5.1786  -5.1786  -5.1640
    -5.1634  -5.1634  -5.1517  -5.1437  -5.1437  -5.1372  -5.1372  -5.1341
    -5.1101  -5.1101  -5.0914  -5.0914  -5.0874  -5.0669  -5.0111  -5.0111
    -4.8173  -4.6033  -4.3620  -4.3620  -4.3279  -4.3270  -4.3270  -4.3130
    -4.3082  -4.3082  -4.3046  -4.2974  -4.2974  -4.2761  -4.2684  -4.2684
    -4.2492  -4.2492  -4.2128  -4.2128  -4.2115  -4.1742  -4.0865  -4.0865
    -3.3615  -2.7027  -2.5214  -2.5214  -2.4797  -2.4797  -2.4734  -2.4718
    -2.4718  -2.4580  -2.4254  -2.4254  -2.0550  -1.1735  -1.1133  -1.1133
    -1.0893  -1.0893  -1.0478  -0.8171  -0.6194  -0.6194  -0.5777  -0.5697
    -0.5697  -0.5593  -0.5593  -0.5568  -0.5560  -0.5361  -0.5361  -0.5292
    -0.5292  -0.5058  -0.4672  -0.4571  -0.4571  -0.4283  -0.4283  -0.4260
    -0.4116  -0.4116  -0.3466  -0.3212  -0.3212  -0.3161  -0.2951  -0.2937
    -0.2937  -0.2881  -0.2834  -0.2834  -0.2772  -0.2613  -0.2613  -0.2407
    -0.2407  -0.2338  -0.2278  -0.2278  -0.2249  -0.2249  -0.2194   0.0119
     0.1257   0.1257   0.5471   0.8307   0.8334   0.8334   0.8784   0.8815
     0.8815   0.8897   0.9114   0.9114   1.0369   1.0369   2.0810   2.5107
     2.5107   2.5176   2.5863   2.5900   2.5991   2.5991   2.6026   2.6065
     2.6065   2.6195   2.6200   2.6259   2.6259   2.6436   2.6436   2.7723
     2.7723   2.7759   2.7942   3.1804   3.1804   3.1989   3.2832   3.2880
     3.2898   3.2898   3.2922   3.2922   3.3039   3.3039   3.3065   3.3142
     3.3142   3.3152   3.3253   3.3253   3.3435   3.3510   3.3548   3.3548
     3.5577   3.5577   4.1788   4.1828   4.1828   4.2516   4.2533   4.2533
     4.2569   4.2641   4.2641   4.2757   4.2757   4.2844   4.2955   4.2955
     4.3484   4.3484   4.3541   4.3655   4.3797   4.4059   4.4059   4.4743
     4.4947   4.4947   4.5452   4.7153   4.7153   4.7868   4.8222   4.8222
     4.8376   4.8396   4.8396   4.8453   4.8453   4.8492   4.8517   4.8665
     4.8712   4.8712   4.8816   4.8854   4.8854   4.8964   4.9055   4.9153
     4.9153   4.9322   4.9322   4.9708   4.9708   5.2958   5.3372   5.3372
     5.9015   5.9015   5.9651   5.9795   5.9950   5.9950   6.0711   6.4679
     6.4679   6.5429   6.5553   6.5553   6.5715   6.5715   6.5719   6.5961
     6.6578   6.6578   6.8503   6.8503   6.9532   6.9907   7.0056   7.0084
     7.0084   7.0093   7.0093   7.0422   7.0722   7.0722   7.0747   7.2270
     7.2270   7.2517   7.2810   7.2853   7.2853   7.3010   7.3045   7.3045
     7.3060   7.3060   7.3140   7.3151   7.3236   7.3236   7.3507   7.3507
     7.3654   7.3654   7.3727   7.3781   7.3781   7.3827   7.4467   7.4467
     7.4732   7.5115   7.5117   7.5169   7.5169   7.5173   7.5240   7.5240
     7.5288   7.5295   7.5295   7.5319   7.5450   7.5450   7.5531   7.5576
     7.5576   7.5610   7.5610   7.5661   7.5661   7.5670   7.5706   7.5739
     7.5739   7.5945   7.5945   7.5953   7.6132   7.6210   7.6210   7.6449
     7.6449   7.6636   7.6636   7.6766   7.6883   7.7254   7.7254   7.7320
     7.7449   7.8280   7.8280   8.1343   8.1429   8.1429   8.3347   8.3347
     8.4045   8.4045   8.4070   8.4147   8.4356   8.4404   8.4418   8.4418
     8.4624   8.4624   8.4678   8.4678   8.4777   8.4809   8.4809   8.5085
     8.5499   8.5499   8.6222   9.3037   9.4461   9.4461   9.7378   9.9070
     9.9070   9.9705   9.9706   9.9708   9.9789   9.9868   9.9868   9.9931
    10.0606  10.0606  10.0706  10.1567  10.1567  10.2145  10.2228  10.2228
    10.2271  10.2271  10.2352  10.2352  10.2509  10.2624  10.2624  10.2835
    10.2895  10.2895  10.2993  10.3225  10.3225  10.9223  10.9565  10.9565
    11.1427  11.2078  11.2078  11.2208  11.2480  11.2482  11.2482  11.2768
    11.3076  11.3076  12.4197  12.5619  12.5619  13.3134  14.4532  14.4532
    18.3358  18.3358  18.3553  18.3892  18.3892  18.4148  18.9112  18.9785
    18.9785  18.9936  18.9936  19.0667  19.1970  19.1971  19.2386  19.2962
    19.2962  19.3158  19.9907  19.9907  20.0178  20.5397  20.6086  20.6086
    20.6201  20.6596  20.6596  20.6684  20.6684  20.6781  20.6895  20.6895
    20.7321  21.2415  21.4034  21.4034  21.4373  21.4373  21.4377  21.4429
    21.4429  21.4453  21.4497  21.4497  21.4669  21.4767  21.4859  21.4859
    21.5055  21.5070  21.5070  21.5575  21.5576  21.5693  21.5952  21.5986
    21.5986  21.9239  21.9825  21.9825  22.0571  22.0599  22.0599  22.0676
    22.0683  22.0683  22.0731  22.0811  22.0811  22.0817  22.0987  22.0987
    22.1022  22.1022  22.1103  22.1156  22.1156  22.1194  22.1272  22.1272
    22.1430  22.1535  22.1535  22.1539  22.1738  22.1738  22.1764  22.1813
    22.1813  22.1828  22.2236  22.2236  22.2580  22.3017  22.3030  22.3030
    22.4024  22.4028  22.4028  22.5112  22.5661  22.5661  22.5692  22.6002
    22.6002  22.6028  22.6079  22.6079  22.6153  22.6343  22.6343  22.6728
    22.6728  22.6833  22.6920  22.6920  22.6950  22.7390  22.7390  22.7489
    22.7673  22.7696  22.7696  22.7839  22.7839  22.7871  22.7871  22.8005
    22.8133  22.8133  22.8141  22.8248  22.8248  22.8472  23.0247  23.0247
    23.0284  23.0519  23.0519  23.0640  23.0801  23.0900  23.0941  23.0941
    23.1018  23.1018  23.1451  23.1673  23.1673  23.1803  23.2119  23.2364
    23.2364  23.3581  23.3581  23.3870  23.3907  23.3907  23.5587  23.5587
    23.5631  23.6069  23.6069  23.6363  23.6370  23.6399  23.6399  23.7294
    23.7535  23.7535  23.8190  23.8636  23.8636  23.8841  23.8936  23.8936
    24.0693  24.0693  24.0753  24.2414  24.3194  24.3194  24.3249  24.3947
    24.3947  24.3985  24.4061  24.4061  24.4143  24.4143  24.4291  24.4339
    24.4345  24.4345  24.4458  24.4770  24.5145  24.5145  24.5470  24.5909
    24.6232  24.6232  24.7067  24.7067  24.8289  24.8618  24.8618  25.3325
    25.3409  25.3409  25.3444  25.3586  25.3602  25.3603  25.3828  25.3828
    25.3863  25.4062  25.4062  25.4181  25.4181  25.4463  25.4509  25.4890
    25.5209  25.5268  25.5268  25.6850  25.6850  25.7927  25.7927  25.8641
    25.8684  25.8684  25.8870  25.9223  25.9223  25.9274  25.9274  25.9279
    25.9447  25.9851  25.9851  25.9876  26.0294  26.0294  26.0341  26.0341
    26.0581  26.0582  26.0670  26.0962  26.1344  26.1370  26.1370  26.1536
    26.1648  26.1692  26.1692  26.1815  26.2078  26.2078  26.2142  26.2322
    26.2322  26.2518  26.2518  26.2710  26.2883  26.3122  26.3122  26.4341
    26.4341  26.5182  26.5182  27.1422  27.1813  27.1813  27.2995  27.4666
    27.4749  27.4749  27.4904  27.4904  27.7898  27.8057  27.8115  27.8115
    27.8494  27.8716  27.8716  27.9247  27.9425  27.9425  27.9913  28.0629
    28.0629  28.3321  28.3916  28.3916  28.4025  28.4253  28.4456  28.4499
    28.4499  28.4766  28.4766  28.4838  28.4838  28.5001  28.5499  28.5499
    28.5547  28.5640  28.5828  28.5828  28.6293  28.6293  28.6454  28.7135
    28.7135  28.9047  28.9226  28.9226  28.9845  28.9906  28.9906  28.9924
    29.0073  29.0084  29.0084  29.0206  29.0206  29.0246  29.0246  29.0274
    29.0410  29.0573  29.0609  29.0609  29.0807  29.0807  29.0887  29.0950
    29.0950  29.1013  29.1065  29.1065  29.1207  29.1227  29.1272  29.1272
    29.1350  29.1350  29.1428  29.1428  29.1483  29.1483  29.1485  29.1575
    29.1612  29.1718  29.1718  29.1719  29.1881  29.1881  29.2113  29.2517
    29.2517  29.2653  29.2830  29.2830  29.3061  29.3061  29.3159  29.3841
    29.4027  29.4027  29.4159  29.4216  29.4216  29.4386  29.4719  29.4813
    29.4813  29.4921  29.4947  29.4947  29.5010  29.5174  29.5174  29.5536
    29.5735  29.5735  29.6017  29.6057  29.6057  29.6979  29.6979  29.7955
    29.8449  29.8449  29.8549  29.9111  30.0103  30.0103  30.0513  30.0513
    30.0608  30.0920  30.0920  30.1410  30.1560  30.1560  30.1687  30.1850
    30.2018  30.2018  30.3669  30.4506  30.4506  30.4619  31.3642  31.5705
    31.5879  31.5879  31.6924  31.7126  31.7126  31.7908  31.7908  31.8730

     occupation numbers 
     1.0000   1.0000   1.0000   1.0000   1.0000   1.0000   1.0000   1.0000
     1.0000   1.0000   1.0000   1.0000   1.0000   1.0000   1.0000   1.0000
     1.0000   1.0000   1.0000   1.0000   1.0000   1.0000   1.0000   1.0000
     1.0000   1.0000   1.0000   1.0000   1.0000   1.0000   1.0000   1.0000
     1.0000   1.0000   1.0000   1.0000   1.0000   1.0000   1.0000   1.0000
     1.0000   1.0000   1.0000   1.0000   1.0000   1.0000   1.0000   1.0000
     1.0000   1.0000   1.0000   1.0000   1.0000   1.0000   1.0000   1.0000
     1.0000   1.0000   1.0000   1.0000   1.0000   1.0000   1.0000   1.0000
     1.0000   1.0000   1.0000   1.0000   1.0000   1.0000   1.0000   1.0000
     1.0000   1.0000   1.0000   1.0000   1.0000   1.0000   1.0000   1.0000
     1.0000   1.0000   1.0000   1.0000   1.0000   1.0000   1.0000   1.0000
     1.0000   1.0000   1.0000   1.0000   1.0000   1.0000   1.0000   1.0000
     1.0000   1.0000   1.0000   1.0000   1.0000   1.0000   1.0000   1.0000
     1.0000   1.0000   1.0000   1.0000   1.0000   1.0000   1.0000   1.0000
     1.0000   1.0000   1.0000   1.0000   1.0000   1.0000   1.0000   1.0000
     1.0000   1.0000   1.0000   1.0000   1.0000   1.0000   1.0000   1.0000
     1.0000   1.0000   1.0000   1.0000   1.0000   1.0000   1.0000   1.0000
     1.0000   1.0000   1.0000   1.0000   1.0000   1.0000   1.0000   1.0000
     1.0000   1.0000   1.0000   1.0000   1.0000   1.0000   1.0000   1.0000
     1.0000   1.0000   1.0000   1.0000   1.0000   1.0000   1.0000   1.0000
     1.0000   1.0000   1.0000   1.0000   1.0000   1.0000   1.0000   1.0000
     1.0000   1.0000   1.0000   1.0000   1.0000   1.0000   1.0000   1.0000
     1.0000   1.0000   1.0000   1.0000   1.0000   1.0000   1.0000   1.0000
     1.0000   1.0000   1.0000   1.0000   1.0000   1.0000   1.0000   1.0000
     1.0000   1.0000   1.0000   1.0000   1.0000   1.0000   1.0000   1.0000
     1.0000   1.0000   1.0000   1.0000   1.0000   1.0000   1.0000   1.0000
     1.0000   1.0000   1.0000   1.0000   1.0000   1.0000   1.0000   1.0000
     1.0000   1.0000   1.0000   1.0000   1.0000   1.0000   1.0000   1.0000
     1.0000   1.0000   1.0000   1.0000   1.0000   1.0000   1.0000   1.0000
     1.0000   1.0000   1.0000   1.0000   1.0000   1.0000   1.0000   1.0000
     1.0000   1.0000   1.0000   1.0000   1.0000   1.0000   1.0000   1.0000
     1.0000   1.0000   1.0000   1.0000   1.0000   1.0000   1.0000   1.0000
     1.0000   1.0000   1.0000   1.0000   1.0000   1.0000   1.0000   1.0000
     1.0000   1.0000   1.0000   1.0000   1.0000   1.0000   1.0000   1.0000
     1.0000   1.0000   1.0000   1.0000   1.0000   1.0000   1.0000   1.0000
     1.0000   1.0000   1.0000   1.0000   1.0000   1.0000   1.0000   1.0000
     1.0000   1.0000   1.0000   1.0000   1.0000   1.0000   1.0000   1.0000
     1.0000   1.0000   1.0000   1.0000   1.0000   1.0000   1.0000   1.0000
     1.0000   1.0000   1.0000   1.0000   1.0000   1.0000   1.0000   1.0000
     1.0000   1.0000   1.0000   1.0000   1.0000   1.0000   1.0000   1.0000
     1.0000   1.0000   1.0000   1.0000   1.0000   1.0000   1.0000   1.0000
     1.0000   1.0000   1.0000   1.0000   1.0000   1.0000   1.0000   1.0000
     1.0000   1.0000   1.0000   1.0000   1.0000   1.0000   1.0000   1.0000
     1.0000   1.0000   1.0000   1.0000   1.0000   1.0000   1.0000   1.0000
     1.0000   1.0000   1.0000   1.0000   1.0000   1.0000   1.0000   1.0000
     1.0000   1.0000   1.0000   1.0000   1.0000   1.0000   1.0000   1.0000
     1.0000   1.0000   1.0000   1.0000   1.0000   1.0000   1.0000   1.0000
     1.0000   1.0000   1.0000   1.0000   1.0000   1.0000   1.0000   1.0000
     1.0000   1.0000   1.0000   1.0000   1.0000   1.0000   1.0000   1.0000
     1.0000   1.0000   1.0000   1.0000   1.0000   1.0000   1.0000   1.0000
     1.0000   1.0000   1.0000   1.0000   1.0000   1.0000   1.0000   1.0000
     1.0000   1.0000   1.0000   1.0000   1.0000   1.0000   1.0000   1.0000
     1.0000   1.0000   1.0000   1.0000   1.0000   1.0000   1.0000   1.0000
     1.0000   1.0000   1.0000   1.0000   1.0000   1.0000   1.0000   1.0000
     0.0000   0.0000   0.0000   0.0000   0.0000   0.0000   0.0000   0.0000
     0.0000   0.0000   0.0000   0.0000   0.0000   0.0000   0.0000   0.0000
     0.0000   0.0000   0.0000   0.0000   0.0000   0.0000   0.0000   0.0000
     0.0000   0.0000   0.0000   0.0000   0.0000   0.0000   0.0000   0.0000
     0.0000   0.0000   0.0000   0.0000   0.0000   0.0000   0.0000   0.0000
     0.0000   0.0000   0.0000   0.0000   0.0000   0.0000   0.0000   0.0000
     0.0000   0.0000   0.0000   0.0000   0.0000   0.0000   0.0000   0.0000
     0.0000   0.0000   0.0000   0.0000   0.0000   0.0000   0.0000   0.0000
     0.0000   0.0000   0.0000   0.0000   0.0000   0.0000   0.0000   0.0000
     0.0000   0.0000   0.0000   0.0000   0.0000   0.0000   0.0000   0.0000
     0.0000   0.0000   0.0000   0.0000   0.0000   0.0000   0.0000   0.0000
     0.0000   0.0000   0.0000   0.0000   0.0000   0.0000   0.0000   0.0000
     0.0000   0.0000   0.0000   0.0000   0.0000   0.0000   0.0000   0.0000
     0.0000   0.0000   0.0000   0.0000   0.0000   0.0000   0.0000   0.0000
     0.0000   0.0000   0.0000   0.0000   0.0000   0.0000   0.0000   0.0000
     0.0000   0.0000   0.0000   0.0000   0.0000   0.0000   0.0000   0.0000
     0.0000   0.0000   0.0000   0.0000   0.0000   0.0000   0.0000   0.0000
     0.0000   0.0000   0.0000   0.0000   0.0000   0.0000   0.0000   0.0000
     0.0000   0.0000   0.0000   0.0000   0.0000   0.0000   0.0000   0.0000
     0.0000   0.0000   0.0000   0.0000   0.0000   0.0000   0.0000   0.0000
     0.0000   0.0000   0.0000   0.0000   0.0000   0.0000   0.0000   0.0000
     0.0000   0.0000   0.0000   0.0000   0.0000   0.0000   0.0000   0.0000
     0.0000   0.0000   0.0000   0.0000   0.0000   0.0000   0.0000   0.0000
     0.0000   0.0000   0.0000   0.0000   0.0000   0.0000   0.0000   0.0000
     0.0000   0.0000   0.0000   0.0000   0.0000   0.0000   0.0000   0.0000
     0.0000   0.0000   0.0000   0.0000   0.0000   0.0000   0.0000   0.0000
     0.0000   0.0000   0.0000   0.0000   0.0000   0.0000   0.0000   0.0000
     0.0000   0.0000   0.0000   0.0000   0.0000   0.0000   0.0000   0.0000
     0.0000   0.0000   0.0000   0.0000   0.0000   0.0000   0.0000   0.0000
     0.0000   0.0000   0.0000   0.0000   0.0000   0.0000   0.0000   0.0000
     0.0000   0.0000   0.0000   0.0000   0.0000   0.0000   0.0000   0.0000
     0.0000   0.0000   0.0000   0.0000   0.0000   0.0000   0.0000   0.0000
     0.0000   0.0000   0.0000   0.0000   0.0000   0.0000   0.0000   0.0000
     0.0000   0.0000   0.0000   0.0000   0.0000   0.0000   0.0000   0.0000
     0.0000   0.0000   0.0000   0.0000   0.0000   0.0000   0.0000   0.0000
     0.0000   0.0000   0.0000   0.0000   0.0000   0.0000   0.0000   0.0000
     0.0000   0.0000   0.0000   0.0000   0.0000   0.0000   0.0000   0.0000
     0.0000   0.0000   0.0000   0.0000   0.0000   0.0000   0.0000   0.0000
     0.0000   0.0000   0.0000   0.0000   0.0000   0.0000   0.0000   0.0000
     0.0000   0.0000   0.0000   0.0000   0.0000   0.0000   0.0000   0.0000
     0.0000   0.0000   0.0000   0.0000   0.0000   0.0000   0.0000   0.0000
     0.0000   0.0000   0.0000   0.0000   0.0000   0.0000   0.0000   0.0000
     0.0000   0.0000   0.0000   0.0000   0.0000   0.0000   0.0000   0.0000
     0.0000   0.0000   0.0000   0.0000   0.0000   0.0000   0.0000   0.0000
     0.0000   0.0000   0.0000   0.0000   0.0000   0.0000   0.0000   0.0000
     0.0000   0.0000   0.0000   0.0000   0.0000   0.0000   0.0000   0.0000
     0.0000   0.0000   0.0000   0.0000   0.0000   0.0000   0.0000   0.0000
     0.0000   0.0000   0.0000   0.0000   0.0000   0.0000   0.0000   0.0000
     0.0000   0.0000   0.0000   0.0000   0.0000   0.0000   0.0000   0.0000
     0.0000   0.0000   0.0000   0.0000   0.0000   0.0000   0.0000   0.0000
     0.0000   0.0000   0.0000   0.0000   0.0000   0.0000   0.0000   0.0000
     0.0000   0.0000   0.0000   0.0000   0.0000   0.0000   0.0000   0.0000
     0.0000   0.0000   0.0000   0.0000   0.0000   0.0000   0.0000   0.0000
     0.0000   0.0000   0.0000   0.0000   0.0000   0.0000   0.0000   0.0000

 ------ SPIN DOWN ----------


          k = 0.0000 0.0000 0.0000 ( 31995 PWs)   bands (ev):

   -10.4614  -9.5869  -9.3818  -9.3818  -9.3294  -9.3294  -9.2382  -8.6845
    -8.3099  -8.3099  -8.3008  -8.3008  -8.2817  -8.2538  -8.2538  -8.2451
    -8.1856  -8.1856  -8.0006  -7.4870  -7.2108  -7.2017  -7.2017  -7.1753
    -7.1683  -7.1683  -6.9897  -6.3411  -6.1378  -6.1378  -6.1130  -6.1130
    -6.0548  -5.7059  -5.1848  -5.1848  -5.1782  -5.1753  -5.1753  -5.1605
    -5.1589  -5.1589  -5.1502  -5.1407  -5.1407  -5.1325  -5.1325  -5.1313
    -5.0927  -5.0927  -5.0796  -5.0796  -5.0743  -5.0636  -4.9773  -4.9773
    -4.8008  -4.5990  -4.3598  -4.3598  -4.3254  -4.3217  -4.3217  -4.3103
    -4.3029  -4.3029  -4.2941  -4.2902  -4.2902  -4.2660  -4.2627  -4.2627
    -4.2442  -4.2442  -4.1980  -4.1962  -4.1962  -4.1639  -3.9996  -3.9996
    -3.2788  -2.6924  -2.5164  -2.5164  -2.4684  -2.4674  -2.4674  -2.4644
    -2.4644  -2.4513  -2.3836  -2.3836  -1.9775  -1.1573  -1.1090  -1.1090
    -1.0797  -1.0797  -1.0393  -0.7915  -0.6160  -0.6160  -0.5775  -0.5678
    -0.5678  -0.5559  -0.5559  -0.5545  -0.5537  -0.5306  -0.5305  -0.5256
    -0.5256  -0.4966  -0.4529  -0.4454  -0.4454  -0.4188  -0.4161  -0.4161
    -0.3798  -0.3798  -0.3432  -0.3175  -0.3175  -0.3066  -0.2915  -0.2894
    -0.2894  -0.2850  -0.2758  -0.2758  -0.2630  -0.2539  -0.2539  -0.2311
    -0.2311  -0.2258  -0.2182  -0.2182  -0.2074  -0.2074  -0.1778   0.0300
     0.1952   0.1952   0.5766   0.8403   0.8403   0.8512   0.8817   0.8862
     0.8862   0.9012   0.9184   0.9184   1.1181   1.1181   2.1799   2.5181
     2.5181   2.5335   2.5911   2.5978   2.6032   2.6032   2.6114   2.6114
     2.6126   2.6226   2.6281   2.6316   2.6316   2.6560   2.6560   2.7908
     2.7945   2.7945   2.8195   3.1887   3.1887   3.2252   3.2840   3.2924
     3.2924   3.2925   3.2996   3.2996   3.3096   3.3096   3.3102   3.3214
     3.3214   3.3309   3.3341   3.3341   3.3579   3.3639   3.3701   3.3701
     3.6413   3.6413   4.1882   4.1882   4.2033   4.2548   4.2548   4.2556
     4.2584   4.2671   4.2671   4.2803   4.2803   4.2876   4.2994   4.2994
     4.3575   4.3575   4.3675   4.3761   4.3864   4.4237   4.4237   4.4773
     4.5087   4.5087   4.5996   4.7230   4.7230   4.8013   4.8245   4.8245
     4.8437   4.8442   4.8442   4.8544   4.8546   4.8546   4.8602   4.8771
     4.8773   4.8773   4.8941   4.8991   4.8991   4.9119   4.9248   4.9312
     4.9312   4.9542   4.9542   4.9875   4.9875   5.3269   5.4058   5.4058
     5.9099   5.9099   5.9770   5.9890   6.0176   6.0176   6.1828   6.4867
     6.4867   6.5536   6.5590   6.5590   6.5781   6.5818   6.5818   6.6161
     6.6806   6.6806   6.8560   6.8560   6.9807   7.0124   7.0137   7.0137
     7.0211   7.0239   7.0239   7.0552   7.0863   7.0863   7.0921   7.2384
     7.2384   7.2552   7.2843   7.2880   7.2880   7.3041   7.3067   7.3067
     7.3102   7.3102   7.3181   7.3203   7.3270   7.3270   7.3585   7.3585
     7.3789   7.3790   7.3797   7.3891   7.3904   7.3904   7.4549   7.4549
     7.4828   7.5127   7.5196   7.5196   7.5211   7.5280   7.5280   7.5290
     7.5323   7.5323   7.5355   7.5386   7.5495   7.5495   7.5594   7.5640
     7.5641   7.5647   7.5647   7.5723   7.5760   7.5760   7.5889   7.5889
     7.5909   7.6021   7.6048   7.6048   7.6234   7.6352   7.6352   7.6531
     7.6531   7.6788   7.6788   7.7113   7.7152   7.7413   7.7546   7.7546
     7.7568   7.8817   7.8817   8.1510   8.1737   8.1737   8.3417   8.3417
     8.4079   8.4079   8.4112   8.4170   8.4461   8.4477   8.4477   8.4514
     8.4719   8.4719   8.4864   8.4916   8.4916   8.5008   8.5008   8.5153
     8.5822   8.5822   8.6676   9.3232   9.5605   9.5605   9.9303   9.9303
     9.9545   9.9737   9.9737   9.9788   9.9983  10.0074  10.0074  10.0205
    10.0680  10.0680  10.0791  10.1623  10.1623  10.2242  10.2278  10.2278
    10.2377  10.2377  10.2484  10.2484  10.2585  10.2839  10.2839  10.2956
    10.3050  10.3050  10.3260  10.3324  10.3324  10.9356  11.0053  11.0053
    11.2166  11.2166  11.2230  11.2553  11.2553  11.2556  11.2943  11.3307
    11.3307  11.6167  12.6254  12.6305  12.6305  14.2373  17.3982  17.3982
    18.3397  18.3397  18.3673  18.4056  18.4056  18.4261  18.9168  18.9872
    18.9872  19.0013  19.0013  19.0786  19.2021  19.2021  19.2705  19.3230
    19.3230  19.3259  20.0194  20.0194  20.0296  20.5486  20.6117  20.6117
    20.6226  20.6706  20.6706  20.6760  20.6760  20.6826  20.6953  20.6953
    20.7402  21.2467  21.4066  21.4066  21.4396  21.4409  21.4409  21.4470
    21.4492  21.4492  21.4568  21.4568  21.4738  21.4801  21.4919  21.4919
    21.5131  21.5183  21.5183  21.5663  21.5663  21.5781  21.6059  21.6080
    21.6080  21.9284  21.9911  21.9911  22.0588  22.0691  22.0699  22.0699
    22.0720  22.0720  22.0797  22.0839  22.0839  22.0846  22.1031  22.1031
    22.1069  22.1069  22.1127  22.1183  22.1183  22.1239  22.1316  22.1316
    22.1474  22.1593  22.1671  22.1671  22.1857  22.1870  22.1873  22.1873
    22.1953  22.1953  22.2310  22.2310  22.2737  22.3119  22.3119  22.3171
    22.4092  22.4124  22.4124  22.5168  22.5730  22.5730  22.5736  22.6032
    22.6032  22.6080  22.6118  22.6118  22.6162  22.6501  22.6501  22.6879
    22.6879  22.6931  22.7042  22.7042  22.7117  22.7543  22.7543  22.7579
    22.7738  22.7762  22.7762  22.7921  22.7921  22.7982  22.7982  22.8087
    22.8289  22.8289  22.8305  22.8488  22.8488  22.8918  23.0331  23.0387
    23.0388  23.0633  23.0633  23.0698  23.0827  23.0953  23.0996  23.0996
    23.1095  23.1095  23.1562  23.1720  23.1720  23.1868  23.2346  23.2602
    23.2602  23.3915  23.3915  23.3952  23.4046  23.4046  23.5622  23.5622
    23.5667  23.6213  23.6213  23.6422  23.6492  23.6492  23.6512  23.7419
    23.7651  23.7651  23.8349  23.8736  23.8736  23.8947  23.8973  23.8973
    24.0955  24.1179  24.1179  24.3135  24.3329  24.3329  24.3521  24.4007
    24.4026  24.4026  24.4086  24.4086  24.4219  24.4219  24.4354  24.4371
    24.4371  24.4411  24.4524  24.4914  24.5331  24.5331  24.5639  24.6539
    24.7171  24.7171  24.7581  24.7581  24.8535  24.9258  24.9258  25.3350
    25.3459  25.3459  25.3547  25.3612  25.3648  25.3648  25.3855  25.3855
    25.3942  25.4247  25.4247  25.4308  25.4308  25.4586  25.4631  25.5256
    25.5358  25.5558  25.5558  25.7078  25.7078  25.8198  25.8198  25.8712
    25.8739  25.8739  25.8913  25.9255  25.9255  25.9329  25.9329  25.9367
    25.9518  25.9916  25.9916  25.9951  26.0427  26.0427  26.0666  26.0666
    26.0683  26.0683  26.0725  26.1062  26.1411  26.1669  26.1741  26.1741
    26.1801  26.1860  26.1860  26.1878  26.2118  26.2118  26.2201  26.2500
    26.2500  26.2794  26.2794  26.2957  26.3186  26.3408  26.3408  26.5761
    26.5761  26.6088  26.6088  27.2044  27.2420  27.2420  27.3276  27.4724
    27.4932  27.4932  27.5056  27.5056  27.7949  27.8093  27.8173  27.8173
    27.8766  27.8818  27.8818  27.9386  27.9618  27.9618  28.0085  28.0960
    28.0960  28.3505  28.4026  28.4026  28.4145  28.4349  28.4504  28.4562
    28.4562  28.4833  28.4833  28.4934  28.4934  28.5126  28.5604  28.5604
    28.5612  28.5789  28.5888  28.5888  28.6439  28.6439  28.6493  28.7408
    28.7408  28.9232  28.9316  28.9316  28.9875  28.9950  28.9950  28.9997
    29.0128  29.0146  29.0146  29.0251  29.0251  29.0310  29.0310  29.0370
    29.0491  29.0626  29.0653  29.0653  29.0871  29.0871  29.0939  29.1057
    29.1057  29.1137  29.1138  29.1221  29.1299  29.1307  29.1319  29.1319
    29.1418  29.1418  29.1479  29.1479  29.1576  29.1605  29.1605  29.1620
    29.1679  29.1758  29.1778  29.1778  29.1950  29.1950  29.2211  29.2634
    29.2634  29.3015  29.3108  29.3108  29.3225  29.3225  29.3287  29.3899
    29.4135  29.4135  29.4203  29.4326  29.4326  29.4448  29.4771  29.4928
    29.4928  29.4967  29.5012  29.5012  29.5198  29.5226  29.5227  29.6138
    29.6149  29.6149  29.6513  29.6594  29.6594  29.7588  29.7588  29.8119
    29.8751  29.8789  29.8789  29.9321  30.0318  30.0318  30.0672  30.0837
    30.0837  30.1064  30.1064  30.1527  30.1940  30.2013  30.2013  30.2544
    30.2748  30.2748  30.4356  30.5690  30.5690  30.6018  31.4397  31.5753
    31.5975  31.5975  31.6651  31.7092  31.7092  31.7525  31.7525  31.8978

     occupation numbers 
     1.0000   1.0000   1.0000   1.0000   1.0000   1.0000   1.0000   1.0000
     1.0000   1.0000   1.0000   1.0000   1.0000   1.0000   1.0000   1.0000
     1.0000   1.0000   1.0000   1.0000   1.0000   1.0000   1.0000   1.0000
     1.0000   1.0000   1.0000   1.0000   1.0000   1.0000   1.0000   1.0000
     1.0000   1.0000   1.0000   1.0000   1.0000   1.0000   1.0000   1.0000
     1.0000   1.0000   1.0000   1.0000   1.0000   1.0000   1.0000   1.0000
     1.0000   1.0000   1.0000   1.0000   1.0000   1.0000   1.0000   1.0000
     1.0000   1.0000   1.0000   1.0000   1.0000   1.0000   1.0000   1.0000
     1.0000   1.0000   1.0000   1.0000   1.0000   1.0000   1.0000   1.0000
     1.0000   1.0000   1.0000   1.0000   1.0000   1.0000   1.0000   1.0000
     1.0000   1.0000   1.0000   1.0000   1.0000   1.0000   1.0000   1.0000
     1.0000   1.0000   1.0000   1.0000   1.0000   1.0000   1.0000   1.0000
     1.0000   1.0000   1.0000   1.0000   1.0000   1.0000   1.0000   1.0000
     1.0000   1.0000   1.0000   1.0000   1.0000   1.0000   1.0000   1.0000
     1.0000   1.0000   1.0000   1.0000   1.0000   1.0000   1.0000   1.0000
     1.0000   1.0000   1.0000   1.0000   1.0000   1.0000   1.0000   1.0000
     1.0000   1.0000   1.0000   1.0000   1.0000   1.0000   1.0000   1.0000
     1.0000   1.0000   1.0000   1.0000   1.0000   1.0000   1.0000   1.0000
     1.0000   1.0000   1.0000   1.0000   1.0000   1.0000   1.0000   1.0000
     1.0000   1.0000   1.0000   1.0000   1.0000   1.0000   1.0000   1.0000
     1.0000   1.0000   1.0000   1.0000   1.0000   1.0000   1.0000   1.0000
     1.0000   1.0000   1.0000   1.0000   1.0000   1.0000   1.0000   1.0000
     1.0000   1.0000   1.0000   1.0000   1.0000   1.0000   1.0000   1.0000
     1.0000   1.0000   1.0000   1.0000   1.0000   1.0000   1.0000   1.0000
     1.0000   1.0000   1.0000   1.0000   1.0000   1.0000   1.0000   1.0000
     1.0000   1.0000   1.0000   1.0000   1.0000   1.0000   1.0000   1.0000
     1.0000   1.0000   1.0000   1.0000   1.0000   1.0000   1.0000   1.0000
     1.0000   1.0000   1.0000   1.0000   1.0000   1.0000   1.0000   1.0000
     1.0000   1.0000   1.0000   1.0000   1.0000   1.0000   1.0000   1.0000
     1.0000   1.0000   1.0000   1.0000   1.0000   1.0000   1.0000   1.0000
     1.0000   1.0000   1.0000   1.0000   1.0000   1.0000   1.0000   1.0000
     1.0000   1.0000   1.0000   1.0000   1.0000   1.0000   1.0000   1.0000
     1.0000   1.0000   1.0000   1.0000   1.0000   1.0000   1.0000   1.0000
     1.0000   1.0000   1.0000   1.0000   1.0000   1.0000   1.0000   1.0000
     1.0000   1.0000   1.0000   1.0000   1.0000   1.0000   1.0000   1.0000
     1.0000   1.0000   1.0000   1.0000   1.0000   1.0000   1.0000   1.0000
     1.0000   1.0000   1.0000   1.0000   1.0000   1.0000   1.0000   1.0000
     1.0000   1.0000   1.0000   1.0000   1.0000   1.0000   1.0000   1.0000
     1.0000   1.0000   1.0000   1.0000   1.0000   1.0000   1.0000   1.0000
     1.0000   1.0000   1.0000   1.0000   1.0000   1.0000   1.0000   1.0000
     1.0000   1.0000   1.0000   1.0000   1.0000   1.0000   1.0000   1.0000
     1.0000   1.0000   1.0000   1.0000   1.0000   1.0000   1.0000   1.0000
     1.0000   1.0000   1.0000   1.0000   1.0000   1.0000   1.0000   1.0000
     1.0000   1.0000   1.0000   1.0000   1.0000   1.0000   1.0000   1.0000
     1.0000   1.0000   1.0000   1.0000   1.0000   1.0000   1.0000   1.0000
     1.0000   1.0000   1.0000   1.0000   1.0000   1.0000   1.0000   1.0000
     1.0000   1.0000   1.0000   1.0000   1.0000   1.0000   1.0000   1.0000
     1.0000   1.0000   1.0000   1.0000   1.0000   1.0000   1.0000   1.0000
     1.0000   1.0000   1.0000   1.0000   1.0000   1.0000   1.0000   1.0000
     1.0000   1.0000   1.0000   1.0000   1.0000   1.0000   1.0000   1.0000
     1.0000   1.0000   1.0000   1.0000   1.0000   1.0000   1.0000   1.0000
     1.0000   1.0000   1.0000   1.0000   1.0000   1.0000   1.0000   1.0000
     1.0000   1.0000   1.0000   1.0000   1.0000   1.0000   1.0000   1.0000
     1.0000   1.0000   1.0000   1.0000   1.0000   1.0000   0.0000   0.0000
     0.0000   0.0000   0.0000   0.0000   0.0000   0.0000   0.0000   0.0000
     0.0000   0.0000   0.0000   0.0000   0.0000   0.0000   0.0000   0.0000
     0.0000   0.0000   0.0000   0.0000   0.0000   0.0000   0.0000   0.0000
     0.0000   0.0000   0.0000   0.0000   0.0000   0.0000   0.0000   0.0000
     0.0000   0.0000   0.0000   0.0000   0.0000   0.0000   0.0000   0.0000
     0.0000   0.0000   0.0000   0.0000   0.0000   0.0000   0.0000   0.0000
     0.0000   0.0000   0.0000   0.0000   0.0000   0.0000   0.0000   0.0000
     0.0000   0.0000   0.0000   0.0000   0.0000   0.0000   0.0000   0.0000
     0.0000   0.0000   0.0000   0.0000   0.0000   0.0000   0.0000   0.0000
     0.0000   0.0000   0.0000   0.0000   0.0000   0.0000   0.0000   0.0000
     0.0000   0.0000   0.0000   0.0000   0.0000   0.0000   0.0000   0.0000
     0.0000   0.0000   0.0000   0.0000   0.0000   0.0000   0.0000   0.0000
     0.0000   0.0000   0.0000   0.0000   0.0000   0.0000   0.0000   0.0000
     0.0000   0.0000   0.0000   0.0000   0.0000   0.0000   0.0000   0.0000
     0.0000   0.0000   0.0000   0.0000   0.0000   0.0000   0.0000   0.0000
     0.0000   0.0000   0.0000   0.0000   0.0000   0.0000   0.0000   0.0000
     0.0000   0.0000   0.0000   0.0000   0.0000   0.0000   0.0000   0.0000
     0.0000   0.0000   0.0000   0.0000   0.0000   0.0000   0.0000   0.0000
     0.0000   0.0000   0.0000   0.0000   0.0000   0.0000   0.0000   0.0000
     0.0000   0.0000   0.0000   0.0000   0.0000   0.0000   0.0000   0.0000
     0.0000   0.0000   0.0000   0.0000   0.0000   0.0000   0.0000   0.0000
     0.0000   0.0000   0.0000   0.0000   0.0000   0.0000   0.0000   0.0000
     0.0000   0.0000   0.0000   0.0000   0.0000   0.0000   0.0000   0.0000
     0.0000   0.0000   0.0000   0.0000   0.0000   0.0000   0.0000   0.0000
     0.0000   0.0000   0.0000   0.0000   0.0000   0.0000   0.0000   0.0000
     0.0000   0.0000   0.0000   0.0000   0.0000   0.0000   0.0000   0.0000
     0.0000   0.0000   0.0000   0.0000   0.0000   0.0000   0.0000   0.0000
     0.0000   0.0000   0.0000   0.0000   0.0000   0.0000   0.0000   0.0000
     0.0000   0.0000   0.0000   0.0000   0.0000   0.0000   0.0000   0.0000
     0.0000   0.0000   0.0000   0.0000   0.0000   0.0000   0.0000   0.0000
     0.0000   0.0000   0.0000   0.0000   0.0000   0.0000   0.0000   0.0000
     0.0000   0.0000   0.0000   0.0000   0.0000   0.0000   0.0000   0.0000
     0.0000   0.0000   0.0000   0.0000   0.0000   0.0000   0.0000   0.0000
     0.0000   0.0000   0.0000   0.0000   0.0000   0.0000   0.0000   0.0000
     0.0000   0.0000   0.0000   0.0000   0.0000   0.0000   0.0000   0.0000
     0.0000   0.0000   0.0000   0.0000   0.0000   0.0000   0.0000   0.0000
     0.0000   0.0000   0.0000   0.0000   0.0000   0.0000   0.0000   0.0000
     0.0000   0.0000   0.0000   0.0000   0.0000   0.0000   0.0000   0.0000
     0.0000   0.0000   0.0000   0.0000   0.0000   0.0000   0.0000   0.0000
     0.0000   0.0000   0.0000   0.0000   0.0000   0.0000   0.0000   0.0000
     0.0000   0.0000   0.0000   0.0000   0.0000   0.0000   0.0000   0.0000
     0.0000   0.0000   0.0000   0.0000   0.0000   0.0000   0.0000   0.0000
     0.0000   0.0000   0.0000   0.0000   0.0000   0.0000   0.0000   0.0000
     0.0000   0.0000   0.0000   0.0000   0.0000   0.0000   0.0000   0.0000
     0.0000   0.0000   0.0000   0.0000   0.0000   0.0000   0.0000   0.0000
     0.0000   0.0000   0.0000   0.0000   0.0000   0.0000   0.0000   0.0000
     0.0000   0.0000   0.0000   0.0000   0.0000   0.0000   0.0000   0.0000
     0.0000   0.0000   0.0000   0.0000   0.0000   0.0000   0.0000   0.0000
     0.0000   0.0000   0.0000   0.0000   0.0000   0.0000   0.0000   0.0000
     0.0000   0.0000   0.0000   0.0000   0.0000   0.0000   0.0000   0.0000
     0.0000   0.0000   0.0000   0.0000   0.0000   0.0000   0.0000   0.0000
     0.0000   0.0000   0.0000   0.0000   0.0000   0.0000   0.0000   0.0000
     0.0000   0.0000   0.0000   0.0000   0.0000   0.0000   0.0000   0.0000
     0.0000   0.0000   0.0000   0.0000   0.0000   0.0000   0.0000   0.0000

     highest occupied, lowest unoccupied level (ev):    14.4532   17.3982

!    total energy              =   -2456.20010863 Ry
     estimated scf accuracy    <          2.6E-09 Ry

     total magnetization       =     2.00 Bohr mag/cell
     absolute magnetization    =     2.37 Bohr mag/cell

     convergence has been achieved in   6 iterations

     Using ACE for calculation of exact exchange
     ACE projected onto   864 (nbndproj) and applied to   864 (nbnd) bands

     total energy              =   -2456.20014757 Ry
     Harris-Foulkes estimate   =   -2456.20014756 Ry
     est. exchange err (dexx)  =       0.00003894 Ry
     - averaged Fock potential =     249.80622591 Ry
     + Fock energy (ACE)       =    -124.90953952 Ry

     EXX: now go back to refine exchange calculation

     total cpu time spent up to now is      921.1 secs

     Self-consistent Calculation

     iteration #  1     ecut=    60.00 Ry     beta= 0.30
     Davidson diagonalization with overlap

---- Real-time Memory Report at c_bands before calling an iterative solver
          1530 MiB given to the printing process from OS
             0 MiB allocation reported by mallinfo(arena+hblkhd)
         28695 MiB available memory on the node where the printing process lives
------------------
     ethr =  1.87E-12,  avg # of iterations = 35.0

     total cpu time spent up to now is      973.9 secs

     total energy              =   -2456.20015175 Ry
     estimated scf accuracy    <       0.00000032 Ry

     total magnetization       =     2.00 Bohr mag/cell
     absolute magnetization    =     2.37 Bohr mag/cell

     iteration #  2     ecut=    60.00 Ry     beta= 0.30
     Davidson diagonalization with overlap

---- Real-time Memory Report at c_bands before calling an iterative solver
          1530 MiB given to the printing process from OS
             0 MiB allocation reported by mallinfo(arena+hblkhd)
         29111 MiB available memory on the node where the printing process lives
------------------
     ethr =  3.73E-11,  avg # of iterations =  2.0

     total cpu time spent up to now is      983.0 secs

     total energy              =   -2456.20015182 Ry
     estimated scf accuracy    <       0.00000015 Ry

     total magnetization       =     2.00 Bohr mag/cell
     absolute magnetization    =     2.37 Bohr mag/cell

     iteration #  3     ecut=    60.00 Ry     beta= 0.30
     Davidson diagonalization with overlap

---- Real-time Memory Report at c_bands before calling an iterative solver
          1530 MiB given to the printing process from OS
             0 MiB allocation reported by mallinfo(arena+hblkhd)
         29159 MiB available memory on the node where the printing process lives
------------------
     ethr =  1.75E-11,  avg # of iterations =  5.0
 
     Magnetic moment per site  (integrated on atomic sphere of radius R)
     atom   1 (R=0.057)  charge=  1.7811  magn=  0.0001
     atom   2 (R=0.057)  charge=  1.7806  magn= -0.0000
     atom   3 (R=0.057)  charge=  1.7816  magn=  0.0001
     atom   4 (R=0.057)  charge=  1.7804  magn=  0.0001
     atom   5 (R=0.057)  charge=  1.7811  magn=  0.0004
     atom   6 (R=0.057)  charge=  1.7801  magn=  0.0000
     atom   7 (R=0.057)  charge=  1.7811  magn=  0.0004
     atom   8 (R=0.057)  charge=  1.7801  magn=  0.0000
     atom   9 (R=0.057)  charge=  1.7815  magn=  0.0011
     atom  10 (R=0.057)  charge=  1.7800  magn= -0.0001
     atom  11 (R=0.057)  charge=  1.7788  magn=  0.0002
     atom  12 (R=0.057)  charge=  1.7834  magn=  0.0027
     atom  13 (R=0.057)  charge=  1.7826  magn=  0.0011
     atom  14 (R=0.057)  charge=  1.7850  magn=  0.0011
     atom  15 (R=0.057)  charge=  1.7820  magn=  0.0001
     atom  16 (R=0.057)  charge=  1.7822  magn= -0.0000
     atom  17 (R=0.057)  charge=  1.7803  magn=  0.0002
     atom  18 (R=0.057)  charge=  1.7816  magn= -0.0001
     atom  19 (R=0.057)  charge=  1.7812  magn=  0.0011
     atom  20 (R=0.057)  charge=  1.7808  magn= -0.0001
     atom  21 (R=0.057)  charge=  1.7811  magn=  0.0001
     atom  22 (R=0.057)  charge=  1.7806  magn= -0.0000
     atom  23 (R=0.057)  charge=  1.7817  magn=  0.0015
     atom  24 (R=0.057)  charge=  1.7811  magn= -0.0001
     atom  25 (R=0.057)  charge=  1.7815  magn=  0.0011
     atom  26 (R=0.057)  charge=  1.7800  magn= -0.0001
     atom  27 (R=0.057)  charge=  1.7788  magn=  0.0002
     atom  28 (R=0.057)  charge=  1.7834  magn=  0.0027
     atom  29 (R=0.057)  charge=  1.7820  magn=  0.0001
     atom  30 (R=0.057)  charge=  1.7822  magn= -0.0000
     atom  31 (R=0.057)  charge=  1.7826  magn=  0.0011
     atom  32 (R=0.057)  charge=  1.7850  magn=  0.0011
     atom  33 (R=0.057)  charge=  1.7819  magn=  0.0003
     atom  34 (R=0.057)  charge=  1.7795  magn= -0.0009
     atom  35 (R=0.057)  charge=  1.7820  magn=  0.0061
     atom  36 (R=0.057)  charge=  1.7825  magn= -0.0012
     atom  37 (R=0.057)  charge=  1.7805  magn=  0.0001
     atom  38 (R=0.057)  charge=  1.7813  magn= -0.0002
     atom  39 (R=0.057)  charge=  1.7805  magn=  0.0001
     atom  40 (R=0.057)  charge=  1.7813  magn= -0.0002
     atom  41 (R=0.057)  charge=  1.7769  magn=  0.0181
     atom  42 (R=0.057)  charge=  1.7803  magn= -0.0014
     atom  43 (R=0.057)  charge=  1.7817  magn=  0.0171
     atom  44 (R=0.057)  charge=  1.7861  magn=  0.0014
     atom  45 (R=0.057)  charge=  1.7815  magn=  0.0011
     atom  46 (R=0.057)  charge=  1.7800  magn= -0.0001
     atom  47 (R=0.057)  charge=  1.7809  magn=  0.0015
     atom  48 (R=0.057)  charge=  1.7814  magn= -0.0002
     atom  49 (R=0.057)  charge=  1.7803  magn=  0.0002
     atom  50 (R=0.057)  charge=  1.7816  magn= -0.0001
     atom  51 (R=0.057)  charge=  1.7812  magn=  0.0011
     atom  52 (R=0.057)  charge=  1.7808  magn= -0.0001
     atom  53 (R=0.057)  charge=  1.7817  magn=  0.0015
     atom  54 (R=0.057)  charge=  1.7811  magn= -0.0001
     atom  55 (R=0.057)  charge=  1.7811  magn=  0.0001
     atom  56 (R=0.057)  charge=  1.7806  magn= -0.0000
     atom  57 (R=0.057)  charge=  1.7769  magn=  0.0181
     atom  58 (R=0.057)  charge=  1.7803  magn= -0.0014
     atom  59 (R=0.057)  charge=  1.7817  magn=  0.0171
     atom  60 (R=0.057)  charge=  1.7861  magn=  0.0014
     atom  61 (R=0.057)  charge=  1.7809  magn=  0.0015
     atom  62 (R=0.057)  charge=  1.7814  magn= -0.0002
     atom  63 (R=0.057)  charge=  1.7815  magn=  0.0011
     atom  64 (R=0.057)  charge=  1.7800  magn= -0.0001
     atom  65 (R=0.057)  charge=  1.7799  magn=  0.0073
     atom  66 (R=0.057)  charge=  1.7797  magn= -0.0005
     atom  67 (R=0.057)  charge=  1.7801  magn=  0.0002
     atom  68 (R=0.057)  charge=  1.7810  magn= -0.0001
     atom  69 (R=0.057)  charge=  1.7803  magn=  0.0002
     atom  70 (R=0.057)  charge=  1.7816  magn= -0.0001
     atom  71 (R=0.057)  charge=  1.7803  magn=  0.0002
     atom  72 (R=0.057)  charge=  1.7816  magn= -0.0001
     atom  73 (R=0.057)  charge=  1.7811  magn=  0.0004
     atom  74 (R=0.057)  charge=  1.7801  magn=  0.0000
     atom  75 (R=0.057)  charge=  1.7819  magn=  0.0001
     atom  76 (R=0.057)  charge=  1.7818  magn=  0.0000
     atom  77 (R=0.057)  charge=  1.7820  magn=  0.0001
     atom  78 (R=0.057)  charge=  1.7822  magn= -0.0000
     atom  79 (R=0.057)  charge=  1.7820  magn=  0.0001
     atom  80 (R=0.057)  charge=  1.7822  magn= -0.0000
     atom  81 (R=0.057)  charge=  1.7820  magn=  0.0001
     atom  82 (R=0.057)  charge=  1.7822  magn= -0.0000
     atom  83 (R=0.057)  charge=  1.7842  magn=  0.0002
     atom  84 (R=0.057)  charge=  1.7870  magn=  0.0001
     atom  85 (R=0.057)  charge=  1.7805  magn=  0.0001
     atom  86 (R=0.057)  charge=  1.7813  magn= -0.0002
     atom  87 (R=0.057)  charge=  1.7845  magn=  0.0000
     atom  88 (R=0.057)  charge=  1.7831  magn= -0.0001
     atom  89 (R=0.057)  charge=  1.7817  magn=  0.0015
     atom  90 (R=0.057)  charge=  1.7811  magn= -0.0001
     atom  91 (R=0.057)  charge=  1.7816  magn=  0.0001
     atom  92 (R=0.057)  charge=  1.7804  magn=  0.0001
     atom  93 (R=0.057)  charge=  1.7815  magn=  0.0011
     atom  94 (R=0.057)  charge=  1.7800  magn= -0.0001
     atom  95 (R=0.057)  charge=  1.7804  magn=  0.0002
     atom  96 (R=0.057)  charge=  1.7756  magn= -0.0003
     atom  97 (R=0.057)  charge=  1.7820  magn=  0.0001
     atom  98 (R=0.057)  charge=  1.7822  magn= -0.0000
     atom  99 (R=0.057)  charge=  1.7842  magn=  0.0002
     atom 100 (R=0.057)  charge=  1.7870  magn=  0.0001
     atom 101 (R=0.057)  charge=  1.7845  magn=  0.0000
     atom 102 (R=0.057)  charge=  1.7831  magn= -0.0001
     atom 103 (R=0.057)  charge=  1.7805  magn=  0.0001
     atom 104 (R=0.057)  charge=  1.7813  magn= -0.0002
     atom 105 (R=0.057)  charge=  1.7845  magn=  0.0000
     atom 106 (R=0.057)  charge=  1.7831  magn= -0.0001
     atom 107 (R=0.057)  charge=  1.7810  magn=  0.0007
     atom 108 (R=0.057)  charge=  1.7850  magn= -0.0007
     atom 109 (R=0.057)  charge=  1.7915  magn=  0.0001
     atom 110 (R=0.057)  charge=  1.7611  magn=  0.0005
     atom 111 (R=0.057)  charge=  1.7915  magn=  0.0001
     atom 112 (R=0.057)  charge=  1.7611  magn=  0.0005
     atom 113 (R=0.057)  charge=  1.7804  magn=  0.0002
     atom 114 (R=0.057)  charge=  1.7756  magn= -0.0003
     atom 115 (R=0.057)  charge=  1.7788  magn=  0.0002
     atom 116 (R=0.057)  charge=  1.7834  magn=  0.0027
     atom 117 (R=0.057)  charge=  1.7819  magn=  0.0003
     atom 118 (R=0.057)  charge=  1.7795  magn= -0.0009
     atom 119 (R=0.057)  charge=  1.7765  magn=  0.0039
     atom 120 (R=0.057)  charge=  1.7822  magn= -0.0065
     atom 121 (R=0.057)  charge=  1.7817  magn=  0.0015
     atom 122 (R=0.057)  charge=  1.7811  magn= -0.0001
     atom 123 (R=0.057)  charge=  1.7816  magn=  0.0001
     atom 124 (R=0.057)  charge=  1.7804  magn=  0.0001
     atom 125 (R=0.057)  charge=  1.7804  magn=  0.0002
     atom 126 (R=0.057)  charge=  1.7756  magn= -0.0003
     atom 127 (R=0.057)  charge=  1.7815  magn=  0.0011
     atom 128 (R=0.057)  charge=  1.7800  magn= -0.0001
     atom 129 (R=0.057)  charge=  1.7804  magn=  0.0002
     atom 130 (R=0.057)  charge=  1.7756  magn= -0.0003
     atom 131 (R=0.057)  charge=  1.7788  magn=  0.0002
     atom 132 (R=0.057)  charge=  1.7834  magn=  0.0027
     atom 133 (R=0.057)  charge=  1.7765  magn=  0.0039
     atom 134 (R=0.057)  charge=  1.7822  magn= -0.0065
     atom 135 (R=0.057)  charge=  1.7819  magn=  0.0003
     atom 136 (R=0.057)  charge=  1.7795  magn= -0.0009
     atom 137 (R=0.057)  charge=  1.7811  magn=  0.0008
     atom 138 (R=0.057)  charge=  1.7809  magn= -0.0014
     atom 139 (R=0.057)  charge=  1.7812  magn=  0.0011
     atom 140 (R=0.057)  charge=  1.7808  magn= -0.0001
     atom 141 (R=0.057)  charge=  1.7769  magn=  0.0181
     atom 142 (R=0.057)  charge=  1.7803  magn= -0.0014
     atom 143 (R=0.057)  charge=  1.7769  magn=  0.0181
     atom 144 (R=0.057)  charge=  1.7803  magn= -0.0014
     atom 145 (R=0.057)  charge=  1.7826  magn=  0.0011
     atom 146 (R=0.057)  charge=  1.7850  magn=  0.0011
     atom 147 (R=0.057)  charge=  1.7842  magn=  0.0002
     atom 148 (R=0.057)  charge=  1.7870  magn=  0.0001
     atom 149 (R=0.057)  charge=  1.7817  magn=  0.0015
     atom 150 (R=0.057)  charge=  1.7811  magn= -0.0001
     atom 151 (R=0.057)  charge=  1.7817  magn=  0.0015
     atom 152 (R=0.057)  charge=  1.7811  magn= -0.0001
     atom 153 (R=0.057)  charge=  1.7805  magn=  0.0001
     atom 154 (R=0.057)  charge=  1.7813  magn= -0.0002
     atom 155 (R=0.057)  charge=  1.7810  magn=  0.0007
     atom 156 (R=0.057)  charge=  1.7850  magn= -0.0007
     atom 157 (R=0.057)  charge=  1.7809  magn=  0.0015
     atom 158 (R=0.057)  charge=  1.7814  magn= -0.0002
     atom 159 (R=0.057)  charge=  1.7804  magn=  0.0002
     atom 160 (R=0.057)  charge=  1.7756  magn= -0.0003
     atom 161 (R=0.057)  charge=  1.7809  magn=  0.0015
     atom 162 (R=0.057)  charge=  1.7814  magn= -0.0002
     atom 163 (R=0.057)  charge=  1.7788  magn=  0.0002
     atom 164 (R=0.057)  charge=  1.7834  magn=  0.0027
     atom 165 (R=0.057)  charge=  1.7803  magn=  0.0002
     atom 166 (R=0.057)  charge=  1.7816  magn= -0.0001
     atom 167 (R=0.057)  charge=  1.7811  magn=  0.0008
     atom 168 (R=0.057)  charge=  1.7809  magn= -0.0014
     atom 169 (R=0.057)  charge=  1.7805  magn=  0.0001
     atom 170 (R=0.057)  charge=  1.7813  magn= -0.0002
     atom 171 (R=0.057)  charge=  1.7810  magn=  0.0007
     atom 172 (R=0.057)  charge=  1.7850  magn= -0.0007
     atom 173 (R=0.057)  charge=  1.7804  magn=  0.0002
     atom 174 (R=0.057)  charge=  1.7756  magn= -0.0003
     atom 175 (R=0.057)  charge=  1.7809  magn=  0.0015
     atom 176 (R=0.057)  charge=  1.7814  magn= -0.0002
     atom 177 (R=0.057)  charge=  1.7915  magn=  0.0001
     atom 178 (R=0.057)  charge=  1.7611  magn=  0.0005
     atom 179 (R=0.057)  charge=  1.7765  magn=  0.0039
     atom 180 (R=0.057)  charge=  1.7822  magn= -0.0065
     atom 181 (R=0.057)  charge=  1.7765  magn=  0.0039
     atom 182 (R=0.057)  charge=  1.7822  magn= -0.0065
     atom 183 (R=0.057)  charge=  1.7765  magn=  0.0039
     atom 184 (R=0.057)  charge=  1.7822  magn= -0.0065
     atom 185 (R=0.057)  charge=  1.7820  magn=  0.0061
     atom 186 (R=0.057)  charge=  1.7825  magn= -0.0012
     atom 187 (R=0.057)  charge=  1.7769  magn=  0.0181
     atom 188 (R=0.057)  charge=  1.7803  magn= -0.0014
     atom 189 (R=0.057)  charge=  1.7894  magn=  0.2590
     atom 190 (R=0.057)  charge=  1.7893  magn= -0.0109
     atom 191 (R=0.057)  charge=  1.7809  magn=  0.0015
     atom 192 (R=0.057)  charge=  1.7814  magn= -0.0002
     atom 193 (R=0.057)  charge=  1.7788  magn=  0.0002
     atom 194 (R=0.057)  charge=  1.7834  magn=  0.0027
     atom 195 (R=0.057)  charge=  1.7811  magn=  0.0008
     atom 196 (R=0.057)  charge=  1.7809  magn= -0.0014
     atom 197 (R=0.057)  charge=  1.7803  magn=  0.0002
     atom 198 (R=0.057)  charge=  1.7816  magn= -0.0001
     atom 199 (R=0.057)  charge=  1.7765  magn=  0.0039
     atom 200 (R=0.057)  charge=  1.7822  magn= -0.0065
     atom 201 (R=0.057)  charge=  1.7820  magn=  0.0061
     atom 202 (R=0.057)  charge=  1.7825  magn= -0.0012
     atom 203 (R=0.057)  charge=  1.7894  magn=  0.2590
     atom 204 (R=0.057)  charge=  1.7893  magn= -0.0109
     atom 205 (R=0.057)  charge=  1.7769  magn=  0.0181
     atom 206 (R=0.057)  charge=  1.7803  magn= -0.0014
     atom 207 (R=0.057)  charge=  1.7894  magn=  0.2589
     atom 208 (R=0.057)  charge=  1.7893  magn= -0.0109
     atom 209 (R=0.057)  charge=  1.7817  magn=  0.0171
     atom 210 (R=0.057)  charge=  1.7861  magn=  0.0014
     atom 211 (R=0.057)  charge=  1.7799  magn=  0.0073
     atom 212 (R=0.057)  charge=  1.7797  magn= -0.0005
     atom 213 (R=0.057)  charge=  1.7799  magn=  0.0073
     atom 214 (R=0.057)  charge=  1.7797  magn= -0.0005
     atom 215 (R=0.057)  charge=  2.8736  magn= -0.0013

     total cpu time spent up to now is      993.3 secs

     End of self-consistent calculation

 ------ SPIN UP ------------


          k = 0.0000 0.0000 0.0000 ( 31995 PWs)   bands (ev):

   -10.4675  -9.5904  -9.3846  -9.3846  -9.3379  -9.3379  -9.2526  -8.6884
    -8.3122  -8.3122  -8.3030  -8.3030  -8.2867  -8.2617  -8.2617  -8.2486
    -8.2060  -8.2060  -8.0298  -7.4925  -7.2165  -7.2084  -7.2084  -7.1885
    -7.1885  -7.1826  -7.0202  -6.3561  -6.1440  -6.1440  -6.1255  -6.1255
    -6.0646  -5.7216  -5.1886  -5.1886  -5.1789  -5.1785  -5.1785  -5.1639
    -5.1633  -5.1633  -5.1517  -5.1437  -5.1437  -5.1371  -5.1371  -5.1341
    -5.1100  -5.1100  -5.0913  -5.0913  -5.0873  -5.0669  -5.0111  -5.0111
    -4.8172  -4.6033  -4.3620  -4.3620  -4.3279  -4.3270  -4.3270  -4.3130
    -4.3082  -4.3082  -4.3046  -4.2974  -4.2974  -4.2761  -4.2684  -4.2684
    -4.2492  -4.2492  -4.2128  -4.2128  -4.2115  -4.1742  -4.0866  -4.0866
    -3.3617  -2.7028  -2.5214  -2.5214  -2.4798  -2.4798  -2.4734  -2.4719
    -2.4719  -2.4581  -2.4255  -2.4255  -2.0552  -1.1736  -1.1133  -1.1133
    -1.0894  -1.0894  -1.0478  -0.8172  -0.6194  -0.6194  -0.5778  -0.5698
    -0.5698  -0.5594  -0.5594  -0.5569  -0.5561  -0.5362  -0.5362  -0.5292
    -0.5292  -0.5058  -0.4673  -0.4572  -0.4572  -0.4283  -0.4283  -0.4260
    -0.4117  -0.4117  -0.3465  -0.3211  -0.3211  -0.3160  -0.2949  -0.2935
    -0.2935  -0.2880  -0.2833  -0.2833  -0.2772  -0.2612  -0.2612  -0.2406
    -0.2406  -0.2336  -0.2277  -0.2277  -0.2248  -0.2248  -0.2193   0.0120
     0.1257   0.1257   0.5470   0.8306   0.8334   0.8334   0.8783   0.8814
     0.8814   0.8897   0.9113   0.9113   1.0368   1.0368   2.0809   2.5109
     2.5109   2.5177   2.5864   2.5902   2.5992   2.5992   2.6027   2.6067
     2.6067   2.6197   2.6201   2.6261   2.6261   2.6438   2.6438   2.7725
     2.7725   2.7760   2.7943   3.1802   3.1802   3.1987   3.2831   3.2879
     3.2897   3.2897   3.2920   3.2920   3.3037   3.3037   3.3063   3.3141
     3.3141   3.3151   3.3251   3.3251   3.3433   3.3508   3.3547   3.3547
     3.5575   3.5575   4.1789   4.1829   4.1829   4.2517   4.2534   4.2534
     4.2570   4.2642   4.2642   4.2758   4.2758   4.2846   4.2957   4.2957
     4.3486   4.3486   4.3543   4.3657   4.3798   4.4060   4.4060   4.4744
     4.4948   4.4948   4.5452   4.7154   4.7154   4.7868   4.8223   4.8223
     4.8377   4.8397   4.8397   4.8454   4.8454   4.8493   4.8518   4.8666
     4.8713   4.8713   4.8816   4.8854   4.8854   4.8962   4.9056   4.9153
     4.9153   4.9321   4.9321   4.9706   4.9706   5.2959   5.3372   5.3372
     5.9014   5.9014   5.9650   5.9794   5.9949   5.9949   6.0707   6.4678
     6.4678   6.5427   6.5551   6.5551   6.5713   6.5713   6.5717   6.5959
     6.6576   6.6576   6.8502   6.8502   6.9530   6.9906   7.0055   7.0083
     7.0083   7.0093   7.0093   7.0421   7.0720   7.0720   7.0746   7.2268
     7.2268   7.2515   7.2809   7.2852   7.2852   7.3009   7.3044   7.3044
     7.3059   7.3059   7.3139   7.3150   7.3235   7.3235   7.3506   7.3506
     7.3652   7.3652   7.3725   7.3780   7.3780   7.3826   7.4467   7.4467
     7.4732   7.5114   7.5116   7.5169   7.5169   7.5172   7.5239   7.5239
     7.5287   7.5294   7.5294   7.5319   7.5449   7.5449   7.5530   7.5575
     7.5575   7.5610   7.5610   7.5661   7.5661   7.5669   7.5705   7.5738
     7.5738   7.5944   7.5944   7.5953   7.6132   7.6209   7.6209   7.6449
     7.6449   7.6635   7.6635   7.6765   7.6881   7.7253   7.7253   7.7319
     7.7447   7.8279   7.8279   8.1341   8.1428   8.1428   8.3345   8.3345
     8.4043   8.4043   8.4068   8.4145   8.4354   8.4402   8.4416   8.4416
     8.4622   8.4622   8.4675   8.4675   8.4775   8.4807   8.4807   8.5083
     8.5497   8.5497   8.6221   9.3034   9.4457   9.4457   9.7367   9.9067
     9.9067   9.9702   9.9702   9.9705   9.9786   9.9865   9.9865   9.9928
    10.0602  10.0602  10.0703  10.1563  10.1563  10.2141  10.2224  10.2224
    10.2267  10.2267  10.2348  10.2348  10.2505  10.2620  10.2620  10.2829
    10.2890  10.2890  10.2989  10.3220  10.3220  10.9218  10.9559  10.9559
    11.1413  11.2073  11.2073  11.2203  11.2475  11.2476  11.2476  11.2762
    11.3070  11.3070  12.4186  12.5608  12.5608  13.3117  14.4492  14.4492
    18.3364  18.3364  18.3559  18.3898  18.3898  18.4154  18.9117  18.9790
    18.9790  18.9940  18.9940  19.0672  19.1979  19.1979  19.2394  19.2971
    19.2971  19.3167  19.9917  19.9917  20.0188  20.5401  20.6090  20.6090
    20.6206  20.6600  20.6600  20.6688  20.6688  20.6787  20.6900  20.6900
    20.7325  21.2420  21.4040  21.4040  21.4379  21.4379  21.4382  21.4435
    21.4435  21.4458  21.4503  21.4503  21.4675  21.4773  21.4864  21.4864
    21.5060  21.5075  21.5075  21.5581  21.5581  21.5699  21.5957  21.5992
    21.5992  21.9244  21.9831  21.9831  22.0577  22.0603  22.0604  22.0682
    22.0689  22.0689  22.0735  22.0817  22.0817  22.0824  22.0992  22.0992
    22.1028  22.1028  22.1109  22.1161  22.1161  22.1199  22.1277  22.1277
    22.1434  22.1540  22.1540  22.1545  22.1744  22.1744  22.1768  22.1817
    22.1817  22.1834  22.2242  22.2242  22.2587  22.3021  22.3035  22.3035
    22.4029  22.4033  22.4033  22.5117  22.5664  22.5664  22.5695  22.6005
    22.6005  22.6032  22.6082  22.6082  22.6156  22.6346  22.6346  22.6731
    22.6731  22.6837  22.6924  22.6924  22.6954  22.7395  22.7395  22.7493
    22.7679  22.7703  22.7703  22.7844  22.7844  22.7876  22.7876  22.8011
    22.8138  22.8138  22.8146  22.8254  22.8254  22.8475  23.0252  23.0252
    23.0288  23.0524  23.0524  23.0645  23.0806  23.0904  23.0946  23.0946
    23.1022  23.1022  23.1455  23.1679  23.1679  23.1809  23.2123  23.2368
    23.2368  23.3585  23.3586  23.3875  23.3912  23.3912  23.5592  23.5592
    23.5636  23.6073  23.6073  23.6368  23.6374  23.6403  23.6403  23.7297
    23.7538  23.7538  23.8193  23.8638  23.8638  23.8843  23.8938  23.8938
    24.0695  24.0695  24.0755  24.2418  24.3197  24.3197  24.3251  24.3949
    24.3949  24.3988  24.4063  24.4063  24.4145  24.4145  24.4294  24.4341
    24.4348  24.4348  24.4460  24.4773  24.5147  24.5147  24.5472  24.5912
    24.6233  24.6233  24.7070  24.7070  24.8293  24.8621  24.8621  25.3330
    25.3414  25.3414  25.3449  25.3590  25.3607  25.3607  25.3832  25.3832
    25.3868  25.4066  25.4066  25.4186  25.4186  25.4467  25.4513  25.4894
    25.5213  25.5272  25.5272  25.6854  25.6854  25.7930  25.7930  25.8644
    25.8687  25.8687  25.8873  25.9226  25.9226  25.9278  25.9278  25.9283
    25.9451  25.9854  25.9854  25.9879  26.0297  26.0297  26.0344  26.0344
    26.0585  26.0585  26.0673  26.0966  26.1349  26.1373  26.1373  26.1540
    26.1652  26.1696  26.1696  26.1819  26.2083  26.2083  26.2146  26.2327
    26.2327  26.2523  26.2523  26.2714  26.2888  26.3127  26.3127  26.4343
    26.4343  26.5186  26.5186  27.1427  27.1817  27.1817  27.2999  27.4670
    27.4753  27.4753  27.4909  27.4909  27.7903  27.8062  27.8119  27.8119
    27.8498  27.8721  27.8721  27.9251  27.9430  27.9430  27.9917  28.0633
    28.0633  28.3325  28.3918  28.3918  28.4028  28.4256  28.4458  28.4502
    28.4502  28.4769  28.4769  28.4841  28.4841  28.5005  28.5503  28.5503
    28.5552  28.5643  28.5832  28.5832  28.6297  28.6297  28.6458  28.7138
    28.7138  28.9051  28.9230  28.9230  28.9848  28.9910  28.9910  28.9927
    29.0076  29.0088  29.0088  29.0210  29.0210  29.0249  29.0249  29.0277
    29.0414  29.0576  29.0612  29.0612  29.0811  29.0811  29.0890  29.0954
    29.0954  29.1016  29.1069  29.1069  29.1210  29.1230  29.1275  29.1275
    29.1353  29.1353  29.1431  29.1431  29.1486  29.1486  29.1488  29.1578
    29.1615  29.1721  29.1721  29.1723  29.1884  29.1884  29.2116  29.2521
    29.2521  29.2656  29.2833  29.2833  29.3064  29.3064  29.3163  29.3844
    29.4031  29.4031  29.4163  29.4220  29.4220  29.4390  29.4723  29.4818
    29.4818  29.4925  29.4951  29.4951  29.5013  29.5178  29.5178  29.5540
    29.5738  29.5738  29.6020  29.6060  29.6060  29.6983  29.6983  29.7960
    29.8452  29.8452  29.8552  29.9115  30.0107  30.0107  30.0517  30.0517
    30.0612  30.0924  30.0924  30.1414  30.1564  30.1564  30.1691  30.1854
    30.2022  30.2022  30.3671  30.4506  30.4506  30.4619  31.3642  31.5700
    31.5875  31.5875  31.6539  31.6561  31.6561  31.7171  31.7171  31.8539

     occupation numbers 
     1.0000   1.0000   1.0000   1.0000   1.0000   1.0000   1.0000   1.0000
     1.0000   1.0000   1.0000   1.0000   1.0000   1.0000   1.0000   1.0000
     1.0000   1.0000   1.0000   1.0000   1.0000   1.0000   1.0000   1.0000
     1.0000   1.0000   1.0000   1.0000   1.0000   1.0000   1.0000   1.0000
     1.0000   1.0000   1.0000   1.0000   1.0000   1.0000   1.0000   1.0000
     1.0000   1.0000   1.0000   1.0000   1.0000   1.0000   1.0000   1.0000
     1.0000   1.0000   1.0000   1.0000   1.0000   1.0000   1.0000   1.0000
     1.0000   1.0000   1.0000   1.0000   1.0000   1.0000   1.0000   1.0000
     1.0000   1.0000   1.0000   1.0000   1.0000   1.0000   1.0000   1.0000
     1.0000   1.0000   1.0000   1.0000   1.0000   1.0000   1.0000   1.0000
     1.0000   1.0000   1.0000   1.0000   1.0000   1.0000   1.0000   1.0000
     1.0000   1.0000   1.0000   1.0000   1.0000   1.0000   1.0000   1.0000
     1.0000   1.0000   1.0000   1.0000   1.0000   1.0000   1.0000   1.0000
     1.0000   1.0000   1.0000   1.0000   1.0000   1.0000   1.0000   1.0000
     1.0000   1.0000   1.0000   1.0000   1.0000   1.0000   1.0000   1.0000
     1.0000   1.0000   1.0000   1.0000   1.0000   1.0000   1.0000   1.0000
     1.0000   1.0000   1.0000   1.0000   1.0000   1.0000   1.0000   1.0000
     1.0000   1.0000   1.0000   1.0000   1.0000   1.0000   1.0000   1.0000
     1.0000   1.0000   1.0000   1.0000   1.0000   1.0000   1.0000   1.0000
     1.0000   1.0000   1.0000   1.0000   1.0000   1.0000   1.0000   1.0000
     1.0000   1.0000   1.0000   1.0000   1.0000   1.0000   1.0000   1.0000
     1.0000   1.0000   1.0000   1.0000   1.0000   1.0000   1.0000   1.0000
     1.0000   1.0000   1.0000   1.0000   1.0000   1.0000   1.0000   1.0000
     1.0000   1.0000   1.0000   1.0000   1.0000   1.0000   1.0000   1.0000
     1.0000   1.0000   1.0000   1.0000   1.0000   1.0000   1.0000   1.0000
     1.0000   1.0000   1.0000   1.0000   1.0000   1.0000   1.0000   1.0000
     1.0000   1.0000   1.0000   1.0000   1.0000   1.0000   1.0000   1.0000
     1.0000   1.0000   1.0000   1.0000   1.0000   1.0000   1.0000   1.0000
     1.0000   1.0000   1.0000   1.0000   1.0000   1.0000   1.0000   1.0000
     1.0000   1.0000   1.0000   1.0000   1.0000   1.0000   1.0000   1.0000
     1.0000   1.0000   1.0000   1.0000   1.0000   1.0000   1.0000   1.0000
     1.0000   1.0000   1.0000   1.0000   1.0000   1.0000   1.0000   1.0000
     1.0000   1.0000   1.0000   1.0000   1.0000   1.0000   1.0000   1.0000
     1.0000   1.0000   1.0000   1.0000   1.0000   1.0000   1.0000   1.0000
     1.0000   1.0000   1.0000   1.0000   1.0000   1.0000   1.0000   1.0000
     1.0000   1.0000   1.0000   1.0000   1.0000   1.0000   1.0000   1.0000
     1.0000   1.0000   1.0000   1.0000   1.0000   1.0000   1.0000   1.0000
     1.0000   1.0000   1.0000   1.0000   1.0000   1.0000   1.0000   1.0000
     1.0000   1.0000   1.0000   1.0000   1.0000   1.0000   1.0000   1.0000
     1.0000   1.0000   1.0000   1.0000   1.0000   1.0000   1.0000   1.0000
     1.0000   1.0000   1.0000   1.0000   1.0000   1.0000   1.0000   1.0000
     1.0000   1.0000   1.0000   1.0000   1.0000   1.0000   1.0000   1.0000
     1.0000   1.0000   1.0000   1.0000   1.0000   1.0000   1.0000   1.0000
     1.0000   1.0000   1.0000   1.0000   1.0000   1.0000   1.0000   1.0000
     1.0000   1.0000   1.0000   1.0000   1.0000   1.0000   1.0000   1.0000
     1.0000   1.0000   1.0000   1.0000   1.0000   1.0000   1.0000   1.0000
     1.0000   1.0000   1.0000   1.0000   1.0000   1.0000   1.0000   1.0000
     1.0000   1.0000   1.0000   1.0000   1.0000   1.0000   1.0000   1.0000
     1.0000   1.0000   1.0000   1.0000   1.0000   1.0000   1.0000   1.0000
     1.0000   1.0000   1.0000   1.0000   1.0000   1.0000   1.0000   1.0000
     1.0000   1.0000   1.0000   1.0000   1.0000   1.0000   1.0000   1.0000
     1.0000   1.0000   1.0000   1.0000   1.0000   1.0000   1.0000   1.0000
     1.0000   1.0000   1.0000   1.0000   1.0000   1.0000   1.0000   1.0000
     1.0000   1.0000   1.0000   1.0000   1.0000   1.0000   1.0000   1.0000
     0.0000   0.0000   0.0000   0.0000   0.0000   0.0000   0.0000   0.0000
     0.0000   0.0000   0.0000   0.0000   0.0000   0.0000   0.0000   0.0000
     0.0000   0.0000   0.0000   0.0000   0.0000   0.0000   0.0000   0.0000
     0.0000   0.0000   0.0000   0.0000   0.0000   0.0000   0.0000   0.0000
     0.0000   0.0000   0.0000   0.0000   0.0000   0.0000   0.0000   0.0000
     0.0000   0.0000   0.0000   0.0000   0.0000   0.0000   0.0000   0.0000
     0.0000   0.0000   0.0000   0.0000   0.0000   0.0000   0.0000   0.0000
     0.0000   0.0000   0.0000   0.0000   0.0000   0.0000   0.0000   0.0000
     0.0000   0.0000   0.0000   0.0000   0.0000   0.0000   0.0000   0.0000
     0.0000   0.0000   0.0000   0.0000   0.0000   0.0000   0.0000   0.0000
     0.0000   0.0000   0.0000   0.0000   0.0000   0.0000   0.0000   0.0000
     0.0000   0.0000   0.0000   0.0000   0.0000   0.0000   0.0000   0.0000
     0.0000   0.0000   0.0000   0.0000   0.0000   0.0000   0.0000   0.0000
     0.0000   0.0000   0.0000   0.0000   0.0000   0.0000   0.0000   0.0000
     0.0000   0.0000   0.0000   0.0000   0.0000   0.0000   0.0000   0.0000
     0.0000   0.0000   0.0000   0.0000   0.0000   0.0000   0.0000   0.0000
     0.0000   0.0000   0.0000   0.0000   0.0000   0.0000   0.0000   0.0000
     0.0000   0.0000   0.0000   0.0000   0.0000   0.0000   0.0000   0.0000
     0.0000   0.0000   0.0000   0.0000   0.0000   0.0000   0.0000   0.0000
     0.0000   0.0000   0.0000   0.0000   0.0000   0.0000   0.0000   0.0000
     0.0000   0.0000   0.0000   0.0000   0.0000   0.0000   0.0000   0.0000
     0.0000   0.0000   0.0000   0.0000   0.0000   0.0000   0.0000   0.0000
     0.0000   0.0000   0.0000   0.0000   0.0000   0.0000   0.0000   0.0000
     0.0000   0.0000   0.0000   0.0000   0.0000   0.0000   0.0000   0.0000
     0.0000   0.0000   0.0000   0.0000   0.0000   0.0000   0.0000   0.0000
     0.0000   0.0000   0.0000   0.0000   0.0000   0.0000   0.0000   0.0000
     0.0000   0.0000   0.0000   0.0000   0.0000   0.0000   0.0000   0.0000
     0.0000   0.0000   0.0000   0.0000   0.0000   0.0000   0.0000   0.0000
     0.0000   0.0000   0.0000   0.0000   0.0000   0.0000   0.0000   0.0000
     0.0000   0.0000   0.0000   0.0000   0.0000   0.0000   0.0000   0.0000
     0.0000   0.0000   0.0000   0.0000   0.0000   0.0000   0.0000   0.0000
     0.0000   0.0000   0.0000   0.0000   0.0000   0.0000   0.0000   0.0000
     0.0000   0.0000   0.0000   0.0000   0.0000   0.0000   0.0000   0.0000
     0.0000   0.0000   0.0000   0.0000   0.0000   0.0000   0.0000   0.0000
     0.0000   0.0000   0.0000   0.0000   0.0000   0.0000   0.0000   0.0000
     0.0000   0.0000   0.0000   0.0000   0.0000   0.0000   0.0000   0.0000
     0.0000   0.0000   0.0000   0.0000   0.0000   0.0000   0.0000   0.0000
     0.0000   0.0000   0.0000   0.0000   0.0000   0.0000   0.0000   0.0000
     0.0000   0.0000   0.0000   0.0000   0.0000   0.0000   0.0000   0.0000
     0.0000   0.0000   0.0000   0.0000   0.0000   0.0000   0.0000   0.0000
     0.0000   0.0000   0.0000   0.0000   0.0000   0.0000   0.0000   0.0000
     0.0000   0.0000   0.0000   0.0000   0.0000   0.0000   0.0000   0.0000
     0.0000   0.0000   0.0000   0.0000   0.0000   0.0000   0.0000   0.0000
     0.0000   0.0000   0.0000   0.0000   0.0000   0.0000   0.0000   0.0000
     0.0000   0.0000   0.0000   0.0000   0.0000   0.0000   0.0000   0.0000
     0.0000   0.0000   0.0000   0.0000   0.0000   0.0000   0.0000   0.0000
     0.0000   0.0000   0.0000   0.0000   0.0000   0.0000   0.0000   0.0000
     0.0000   0.0000   0.0000   0.0000   0.0000   0.0000   0.0000   0.0000
     0.0000   0.0000   0.0000   0.0000   0.0000   0.0000   0.0000   0.0000
     0.0000   0.0000   0.0000   0.0000   0.0000   0.0000   0.0000   0.0000
     0.0000   0.0000   0.0000   0.0000   0.0000   0.0000   0.0000   0.0000
     0.0000   0.0000   0.0000   0.0000   0.0000   0.0000   0.0000   0.0000
     0.0000   0.0000   0.0000   0.0000   0.0000   0.0000   0.0000   0.0000
     0.0000   0.0000   0.0000   0.0000   0.0000   0.0000   0.0000   0.0000

 ------ SPIN DOWN ----------


          k = 0.0000 0.0000 0.0000 ( 31995 PWs)   bands (ev):

   -10.4613  -9.5869  -9.3817  -9.3817  -9.3294  -9.3294  -9.2382  -8.6845
    -8.3099  -8.3099  -8.3007  -8.3007  -8.2817  -8.2537  -8.2537  -8.2451
    -8.1856  -8.1856  -8.0005  -7.4869  -7.2107  -7.2017  -7.2017  -7.1752
    -7.1683  -7.1683  -6.9896  -6.3411  -6.1377  -6.1377  -6.1129  -6.1129
    -6.0547  -5.7059  -5.1848  -5.1848  -5.1781  -5.1753  -5.1753  -5.1605
    -5.1589  -5.1589  -5.1502  -5.1407  -5.1407  -5.1325  -5.1325  -5.1313
    -5.0927  -5.0927  -5.0796  -5.0796  -5.0743  -5.0636  -4.9772  -4.9772
    -4.8007  -4.5990  -4.3598  -4.3598  -4.3254  -4.3217  -4.3217  -4.3104
    -4.3030  -4.3030  -4.2941  -4.2902  -4.2902  -4.2660  -4.2628  -4.2628
    -4.2442  -4.2442  -4.1981  -4.1963  -4.1963  -4.1640  -3.9996  -3.9995
    -3.2787  -2.6925  -2.5165  -2.5165  -2.4685  -2.4676  -2.4676  -2.4645
    -2.4645  -2.4514  -2.3837  -2.3837  -1.9775  -1.1573  -1.1091  -1.1091
    -1.0798  -1.0798  -1.0393  -0.7915  -0.6161  -0.6161  -0.5776  -0.5679
    -0.5679  -0.5560  -0.5560  -0.5546  -0.5538  -0.5307  -0.5307  -0.5257
    -0.5257  -0.4967  -0.4531  -0.4455  -0.4455  -0.4190  -0.4163  -0.4163
    -0.3799  -0.3799  -0.3432  -0.3174  -0.3174  -0.3065  -0.2914  -0.2893
    -0.2893  -0.2849  -0.2758  -0.2758  -0.2629  -0.2538  -0.2538  -0.2310
    -0.2310  -0.2257  -0.2181  -0.2181  -0.2074  -0.2074  -0.1778   0.0300
     0.1953   0.1953   0.5766   0.8402   0.8402   0.8512   0.8816   0.8861
     0.8861   0.9011   0.9183   0.9183   1.1182   1.1182   2.1800   2.5183
     2.5183   2.5336   2.5913   2.5979   2.6033   2.6033   2.6115   2.6115
     2.6128   2.6228   2.6282   2.6317   2.6317   2.6561   2.6561   2.7909
     2.7947   2.7947   2.8195   3.1885   3.1885   3.2251   3.2838   3.2922
     3.2922   3.2923   3.2994   3.2994   3.3094   3.3094   3.3100   3.3212
     3.3212   3.3307   3.3339   3.3339   3.3577   3.3637   3.3699   3.3699
     3.6412   3.6412   4.1883   4.1883   4.2034   4.2549   4.2549   4.2557
     4.2585   4.2673   4.2673   4.2804   4.2804   4.2877   4.2995   4.2995
     4.3576   4.3576   4.3675   4.3761   4.3865   4.4238   4.4238   4.4773
     4.5088   4.5088   4.5996   4.7231   4.7231   4.8012   4.8246   4.8246
     4.8438   4.8442   4.8442   4.8545   4.8546   4.8546   4.8602   4.8771
     4.8773   4.8773   4.8940   4.8991   4.8991   4.9119   4.9247   4.9311
     4.9311   4.9541   4.9541   4.9874   4.9874   5.3268   5.4058   5.4058
     5.9098   5.9098   5.9768   5.9888   6.0174   6.0174   6.1827   6.4865
     6.4865   6.5534   6.5587   6.5587   6.5778   6.5816   6.5816   6.6159
     6.6804   6.6804   6.8559   6.8559   6.9805   7.0123   7.0135   7.0135
     7.0210   7.0238   7.0238   7.0551   7.0861   7.0861   7.0920   7.2382
     7.2382   7.2551   7.2842   7.2879   7.2879   7.3039   7.3066   7.3066
     7.3100   7.3100   7.3179   7.3202   7.3269   7.3269   7.3583   7.3583
     7.3788   7.3788   7.3795   7.3890   7.3903   7.3903   7.4548   7.4548
     7.4827   7.5126   7.5195   7.5195   7.5210   7.5279   7.5279   7.5289
     7.5322   7.5322   7.5354   7.5385   7.5494   7.5494   7.5593   7.5639
     7.5639   7.5647   7.5647   7.5722   7.5760   7.5760   7.5888   7.5888
     7.5909   7.6020   7.6046   7.6047   7.6233   7.6351   7.6351   7.6529
     7.6529   7.6786   7.6786   7.7110   7.7149   7.7410   7.7544   7.7544
     7.7566   7.8815   7.8815   8.1508   8.1735   8.1735   8.3415   8.3415
     8.4076   8.4076   8.4110   8.4168   8.4458   8.4474   8.4474   8.4512
     8.4716   8.4716   8.4862   8.4913   8.4913   8.5005   8.5005   8.5150
     8.5819   8.5819   8.6672   9.3228   9.5604   9.5604   9.9300   9.9300
     9.9542   9.9733   9.9733   9.9784   9.9979  10.0070  10.0070  10.0202
    10.0676  10.0676  10.0788  10.1619  10.1619  10.2237  10.2274  10.2274
    10.2373  10.2373  10.2479  10.2479  10.2580  10.2834  10.2834  10.2951
    10.3045  10.3045  10.3255  10.3319  10.3319  10.9351  11.0049  11.0049
    11.2160  11.2160  11.2225  11.2547  11.2547  11.2550  11.2936  11.3300
    11.3300  11.6162  12.6248  12.6297  12.6297  14.2385  17.4031  17.4031
    18.3403  18.3404  18.3679  18.4063  18.4063  18.4267  18.9173  18.9877
    18.9877  19.0018  19.0018  19.0791  19.2029  19.2029  19.2713  19.3239
    19.3239  19.3267  20.0205  20.0205  20.0306  20.5491  20.6121  20.6121
    20.6230  20.6710  20.6710  20.6765  20.6765  20.6830  20.6957  20.6957
    20.7406  21.2472  21.4071  21.4071  21.4401  21.4414  21.4414  21.4475
    21.4497  21.4497  21.4573  21.4573  21.4743  21.4806  21.4924  21.4924
    21.5136  21.5188  21.5188  21.5669  21.5669  21.5786  21.6064  21.6085
    21.6085  21.9288  21.9916  21.9916  22.0594  22.0698  22.0704  22.0704
    22.0725  22.0725  22.0801  22.0845  22.0845  22.0852  22.1035  22.1035
    22.1074  22.1074  22.1132  22.1188  22.1188  22.1243  22.1321  22.1321
    22.1478  22.1598  22.1676  22.1676  22.1861  22.1876  22.1877  22.1877
    22.1957  22.1957  22.2315  22.2315  22.2742  22.3124  22.3124  22.3175
    22.4096  22.4129  22.4129  22.5172  22.5733  22.5733  22.5739  22.6035
    22.6035  22.6083  22.6120  22.6121  22.6164  22.6504  22.6504  22.6883
    22.6883  22.6935  22.7046  22.7046  22.7120  22.7547  22.7547  22.7582
    22.7744  22.7767  22.7767  22.7926  22.7926  22.7986  22.7987  22.8093
    22.8295  22.8295  22.8311  22.8493  22.8493  22.8922  23.0335  23.0392
    23.0392  23.0638  23.0638  23.0702  23.0831  23.0957  23.1000  23.1000
    23.1099  23.1099  23.1566  23.1725  23.1725  23.1873  23.2351  23.2607
    23.2607  23.3920  23.3920  23.3957  23.4050  23.4050  23.5626  23.5626
    23.5671  23.6217  23.6217  23.6426  23.6496  23.6496  23.6516  23.7421
    23.7653  23.7653  23.8352  23.8738  23.8738  23.8949  23.8974  23.8974
    24.0957  24.1181  24.1181  24.3137  24.3331  24.3331  24.3523  24.4009
    24.4028  24.4028  24.4088  24.4088  24.4221  24.4221  24.4356  24.4373
    24.4373  24.4413  24.4526  24.4915  24.5334  24.5334  24.5641  24.6542
    24.7174  24.7174  24.7584  24.7584  24.8537  24.9262  24.9262  25.3355
    25.3463  25.3463  25.3551  25.3616  25.3652  25.3652  25.3859  25.3859
    25.3945  25.4251  25.4251  25.4312  25.4312  25.4590  25.4635  25.5260
    25.5362  25.5562  25.5562  25.7082  25.7082  25.8202  25.8202  25.8715
    25.8741  25.8741  25.8916  25.9258  25.9258  25.9332  25.9332  25.9370
    25.9521  25.9919  25.9919  25.9954  26.0430  26.0430  26.0669  26.0669
    26.0687  26.0687  26.0728  26.1065  26.1415  26.1674  26.1745  26.1745
    26.1805  26.1864  26.1864  26.1882  26.2122  26.2122  26.2205  26.2504
    26.2504  26.2798  26.2798  26.2960  26.3191  26.3413  26.3413  26.5766
    26.5766  26.6094  26.6094  27.2047  27.2424  27.2424  27.3279  27.4728
    27.4936  27.4936  27.5060  27.5060  27.7953  27.8097  27.8177  27.8177
    27.8768  27.8823  27.8823  27.9390  27.9622  27.9622  28.0088  28.0964
    28.0964  28.3510  28.4029  28.4029  28.4148  28.4352  28.4507  28.4565
    28.4565  28.4835  28.4835  28.4937  28.4937  28.5130  28.5608  28.5608
    28.5616  28.5793  28.5892  28.5892  28.6443  28.6443  28.6497  28.7412
    28.7412  28.9235  28.9319  28.9319  28.9879  28.9953  28.9953  29.0000
    29.0131  29.0149  29.0149  29.0255  29.0255  29.0313  29.0313  29.0373
    29.0494  29.0629  29.0656  29.0656  29.0874  29.0874  29.0942  29.1060
    29.1060  29.1141  29.1141  29.1224  29.1302  29.1310  29.1322  29.1322
    29.1421  29.1421  29.1482  29.1482  29.1579  29.1608  29.1608  29.1623
    29.1682  29.1761  29.1780  29.1780  29.1953  29.1953  29.2213  29.2637
    29.2637  29.3018  29.3111  29.3111  29.3228  29.3228  29.3290  29.3903
    29.4138  29.4138  29.4206  29.4329  29.4329  29.4451  29.4775  29.4931
    29.4931  29.4971  29.5016  29.5016  29.5201  29.5230  29.5230  29.6141
    29.6153  29.6153  29.6517  29.6598  29.6598  29.7592  29.7592  29.8122
    29.8755  29.8793  29.8793  29.9325  30.0322  30.0322  30.0676  30.0841
    30.0841  30.1068  30.1068  30.1530  30.1943  30.2017  30.2017  30.2548
    30.2752  30.2752  30.4360  30.5695  30.5695  30.6025  31.4397  31.5749
    31.5971  31.5971  31.6423  31.6533  31.6533  31.6939  31.6939  31.8834

     occupation numbers 
     1.0000   1.0000   1.0000   1.0000   1.0000   1.0000   1.0000   1.0000
     1.0000   1.0000   1.0000   1.0000   1.0000   1.0000   1.0000   1.0000
     1.0000   1.0000   1.0000   1.0000   1.0000   1.0000   1.0000   1.0000
     1.0000   1.0000   1.0000   1.0000   1.0000   1.0000   1.0000   1.0000
     1.0000   1.0000   1.0000   1.0000   1.0000   1.0000   1.0000   1.0000
     1.0000   1.0000   1.0000   1.0000   1.0000   1.0000   1.0000   1.0000
     1.0000   1.0000   1.0000   1.0000   1.0000   1.0000   1.0000   1.0000
     1.0000   1.0000   1.0000   1.0000   1.0000   1.0000   1.0000   1.0000
     1.0000   1.0000   1.0000   1.0000   1.0000   1.0000   1.0000   1.0000
     1.0000   1.0000   1.0000   1.0000   1.0000   1.0000   1.0000   1.0000
     1.0000   1.0000   1.0000   1.0000   1.0000   1.0000   1.0000   1.0000
     1.0000   1.0000   1.0000   1.0000   1.0000   1.0000   1.0000   1.0000
     1.0000   1.0000   1.0000   1.0000   1.0000   1.0000   1.0000   1.0000
     1.0000   1.0000   1.0000   1.0000   1.0000   1.0000   1.0000   1.0000
     1.0000   1.0000   1.0000   1.0000   1.0000   1.0000   1.0000   1.0000
     1.0000   1.0000   1.0000   1.0000   1.0000   1.0000   1.0000   1.0000
     1.0000   1.0000   1.0000   1.0000   1.0000   1.0000   1.0000   1.0000
     1.0000   1.0000   1.0000   1.0000   1.0000   1.0000   1.0000   1.0000
     1.0000   1.0000   1.0000   1.0000   1.0000   1.0000   1.0000   1.0000
     1.0000   1.0000   1.0000   1.0000   1.0000   1.0000   1.0000   1.0000
     1.0000   1.0000   1.0000   1.0000   1.0000   1.0000   1.0000   1.0000
     1.0000   1.0000   1.0000   1.0000   1.0000   1.0000   1.0000   1.0000
     1.0000   1.0000   1.0000   1.0000   1.0000   1.0000   1.0000   1.0000
     1.0000   1.0000   1.0000   1.0000   1.0000   1.0000   1.0000   1.0000
     1.0000   1.0000   1.0000   1.0000   1.0000   1.0000   1.0000   1.0000
     1.0000   1.0000   1.0000   1.0000   1.0000   1.0000   1.0000   1.0000
     1.0000   1.0000   1.0000   1.0000   1.0000   1.0000   1.0000   1.0000
     1.0000   1.0000   1.0000   1.0000   1.0000   1.0000   1.0000   1.0000
     1.0000   1.0000   1.0000   1.0000   1.0000   1.0000   1.0000   1.0000
     1.0000   1.0000   1.0000   1.0000   1.0000   1.0000   1.0000   1.0000
     1.0000   1.0000   1.0000   1.0000   1.0000   1.0000   1.0000   1.0000
     1.0000   1.0000   1.0000   1.0000   1.0000   1.0000   1.0000   1.0000
     1.0000   1.0000   1.0000   1.0000   1.0000   1.0000   1.0000   1.0000
     1.0000   1.0000   1.0000   1.0000   1.0000   1.0000   1.0000   1.0000
     1.0000   1.0000   1.0000   1.0000   1.0000   1.0000   1.0000   1.0000
     1.0000   1.0000   1.0000   1.0000   1.0000   1.0000   1.0000   1.0000
     1.0000   1.0000   1.0000   1.0000   1.0000   1.0000   1.0000   1.0000
     1.0000   1.0000   1.0000   1.0000   1.0000   1.0000   1.0000   1.0000
     1.0000   1.0000   1.0000   1.0000   1.0000   1.0000   1.0000   1.0000
     1.0000   1.0000   1.0000   1.0000   1.0000   1.0000   1.0000   1.0000
     1.0000   1.0000   1.0000   1.0000   1.0000   1.0000   1.0000   1.0000
     1.0000   1.0000   1.0000   1.0000   1.0000   1.0000   1.0000   1.0000
     1.0000   1.0000   1.0000   1.0000   1.0000   1.0000   1.0000   1.0000
     1.0000   1.0000   1.0000   1.0000   1.0000   1.0000   1.0000   1.0000
     1.0000   1.0000   1.0000   1.0000   1.0000   1.0000   1.0000   1.0000
     1.0000   1.0000   1.0000   1.0000   1.0000   1.0000   1.0000   1.0000
     1.0000   1.0000   1.0000   1.0000   1.0000   1.0000   1.0000   1.0000
     1.0000   1.0000   1.0000   1.0000   1.0000   1.0000   1.0000   1.0000
     1.0000   1.0000   1.0000   1.0000   1.0000   1.0000   1.0000   1.0000
     1.0000   1.0000   1.0000   1.0000   1.0000   1.0000   1.0000   1.0000
     1.0000   1.0000   1.0000   1.0000   1.0000   1.0000   1.0000   1.0000
     1.0000   1.0000   1.0000   1.0000   1.0000   1.0000   1.0000   1.0000
     1.0000   1.0000   1.0000   1.0000   1.0000   1.0000   1.0000   1.0000
     1.0000   1.0000   1.0000   1.0000   1.0000   1.0000   0.0000   0.0000
     0.0000   0.0000   0.0000   0.0000   0.0000   0.0000   0.0000   0.0000
     0.0000   0.0000   0.0000   0.0000   0.0000   0.0000   0.0000   0.0000
     0.0000   0.0000   0.0000   0.0000   0.0000   0.0000   0.0000   0.0000
     0.0000   0.0000   0.0000   0.0000   0.0000   0.0000   0.0000   0.0000
     0.0000   0.0000   0.0000   0.0000   0.0000   0.0000   0.0000   0.0000
     0.0000   0.0000   0.0000   0.0000   0.0000   0.0000   0.0000   0.0000
     0.0000   0.0000   0.0000   0.0000   0.0000   0.0000   0.0000   0.0000
     0.0000   0.0000   0.0000   0.0000   0.0000   0.0000   0.0000   0.0000
     0.0000   0.0000   0.0000   0.0000   0.0000   0.0000   0.0000   0.0000
     0.0000   0.0000   0.0000   0.0000   0.0000   0.0000   0.0000   0.0000
     0.0000   0.0000   0.0000   0.0000   0.0000   0.0000   0.0000   0.0000
     0.0000   0.0000   0.0000   0.0000   0.0000   0.0000   0.0000   0.0000
     0.0000   0.0000   0.0000   0.0000   0.0000   0.0000   0.0000   0.0000
     0.0000   0.0000   0.0000   0.0000   0.0000   0.0000   0.0000   0.0000
     0.0000   0.0000   0.0000   0.0000   0.0000   0.0000   0.0000   0.0000
     0.0000   0.0000   0.0000   0.0000   0.0000   0.0000   0.0000   0.0000
     0.0000   0.0000   0.0000   0.0000   0.0000   0.0000   0.0000   0.0000
     0.0000   0.0000   0.0000   0.0000   0.0000   0.0000   0.0000   0.0000
     0.0000   0.0000   0.0000   0.0000   0.0000   0.0000   0.0000   0.0000
     0.0000   0.0000   0.0000   0.0000   0.0000   0.0000   0.0000   0.0000
     0.0000   0.0000   0.0000   0.0000   0.0000   0.0000   0.0000   0.0000
     0.0000   0.0000   0.0000   0.0000   0.0000   0.0000   0.0000   0.0000
     0.0000   0.0000   0.0000   0.0000   0.0000   0.0000   0.0000   0.0000
     0.0000   0.0000   0.0000   0.0000   0.0000   0.0000   0.0000   0.0000
     0.0000   0.0000   0.0000   0.0000   0.0000   0.0000   0.0000   0.0000
     0.0000   0.0000   0.0000   0.0000   0.0000   0.0000   0.0000   0.0000
     0.0000   0.0000   0.0000   0.0000   0.0000   0.0000   0.0000   0.0000
     0.0000   0.0000   0.0000   0.0000   0.0000   0.0000   0.0000   0.0000
     0.0000   0.0000   0.0000   0.0000   0.0000   0.0000   0.0000   0.0000
     0.0000   0.0000   0.0000   0.0000   0.0000   0.0000   0.0000   0.0000
     0.0000   0.0000   0.0000   0.0000   0.0000   0.0000   0.0000   0.0000
     0.0000   0.0000   0.0000   0.0000   0.0000   0.0000   0.0000   0.0000
     0.0000   0.0000   0.0000   0.0000   0.0000   0.0000   0.0000   0.0000
     0.0000   0.0000   0.0000   0.0000   0.0000   0.0000   0.0000   0.0000
     0.0000   0.0000   0.0000   0.0000   0.0000   0.0000   0.0000   0.0000
     0.0000   0.0000   0.0000   0.0000   0.0000   0.0000   0.0000   0.0000
     0.0000   0.0000   0.0000   0.0000   0.0000   0.0000   0.0000   0.0000
     0.0000   0.0000   0.0000   0.0000   0.0000   0.0000   0.0000   0.0000
     0.0000   0.0000   0.0000   0.0000   0.0000   0.0000   0.0000   0.0000
     0.0000   0.0000   0.0000   0.0000   0.0000   0.0000   0.0000   0.0000
     0.0000   0.0000   0.0000   0.0000   0.0000   0.0000   0.0000   0.0000
     0.0000   0.0000   0.0000   0.0000   0.0000   0.0000   0.0000   0.0000
     0.0000   0.0000   0.0000   0.0000   0.0000   0.0000   0.0000   0.0000
     0.0000   0.0000   0.0000   0.0000   0.0000   0.0000   0.0000   0.0000
     0.0000   0.0000   0.0000   0.0000   0.0000   0.0000   0.0000   0.0000
     0.0000   0.0000   0.0000   0.0000   0.0000   0.0000   0.0000   0.0000
     0.0000   0.0000   0.0000   0.0000   0.0000   0.0000   0.0000   0.0000
     0.0000   0.0000   0.0000   0.0000   0.0000   0.0000   0.0000   0.0000
     0.0000   0.0000   0.0000   0.0000   0.0000   0.0000   0.0000   0.0000
     0.0000   0.0000   0.0000   0.0000   0.0000   0.0000   0.0000   0.0000
     0.0000   0.0000   0.0000   0.0000   0.0000   0.0000   0.0000   0.0000
     0.0000   0.0000   0.0000   0.0000   0.0000   0.0000   0.0000   0.0000
     0.0000   0.0000   0.0000   0.0000   0.0000   0.0000   0.0000   0.0000
     0.0000   0.0000   0.0000   0.0000   0.0000   0.0000   0.0000   0.0000

     highest occupied, lowest unoccupied level (ev):    14.4492   17.4031

!    total energy              =   -2456.20015184 Ry
     estimated scf accuracy    <          5.1E-09 Ry

     total magnetization       =     2.00 Bohr mag/cell
     absolute magnetization    =     2.37 Bohr mag/cell

     convergence has been achieved in   3 iterations

     Using ACE for calculation of exact exchange
     ACE projected onto   864 (nbndproj) and applied to   864 (nbnd) bands

     total energy              =   -2456.20015241 Ry
     Harris-Foulkes estimate   =   -2456.20015240 Ry
     est. exchange err (dexx)  =       0.00000057 Ry
     - averaged Fock potential =     249.82055052 Ry
     + Fock energy (ACE)       =    -124.91101157 Ry

     EXX: now go back to refine exchange calculation

     total cpu time spent up to now is     1150.8 secs

     Self-consistent Calculation

     iteration #  1     ecut=    60.00 Ry     beta= 0.30
     Davidson diagonalization with overlap

---- Real-time Memory Report at c_bands before calling an iterative solver
          1614 MiB given to the printing process from OS
             0 MiB allocation reported by mallinfo(arena+hblkhd)
         28162 MiB available memory on the node where the printing process lives
------------------
     ethr =  1.75E-11,  avg # of iterations = 15.5

     Threshold (ethr) on eigenvalues was too large:
     Diagonalizing with lowered threshold

     Davidson diagonalization with overlap

---- Real-time Memory Report at c_bands before calling an iterative solver
          1614 MiB given to the printing process from OS
             0 MiB allocation reported by mallinfo(arena+hblkhd)
         28671 MiB available memory on the node where the printing process lives
------------------
     ethr =  1.56E-12,  avg # of iterations =  2.0

     total cpu time spent up to now is     1184.0 secs

     total energy              =   -2456.20015251 Ry
     estimated scf accuracy    <       0.00000001 Ry

     total magnetization       =     2.00 Bohr mag/cell
     absolute magnetization    =     2.37 Bohr mag/cell

     iteration #  2     ecut=    60.00 Ry     beta= 0.30
     Davidson diagonalization with overlap

---- Real-time Memory Report at c_bands before calling an iterative solver
          1614 MiB given to the printing process from OS
             0 MiB allocation reported by mallinfo(arena+hblkhd)
         29009 MiB available memory on the node where the printing process lives
------------------
     ethr =  1.57E-12,  avg # of iterations =  5.5
 
     Magnetic moment per site  (integrated on atomic sphere of radius R)
     atom   1 (R=0.057)  charge=  1.7811  magn=  0.0001
     atom   2 (R=0.057)  charge=  1.7806  magn= -0.0000
     atom   3 (R=0.057)  charge=  1.7816  magn=  0.0001
     atom   4 (R=0.057)  charge=  1.7804  magn=  0.0001
     atom   5 (R=0.057)  charge=  1.7811  magn=  0.0004
     atom   6 (R=0.057)  charge=  1.7801  magn=  0.0000
     atom   7 (R=0.057)  charge=  1.7811  magn=  0.0004
     atom   8 (R=0.057)  charge=  1.7801  magn=  0.0000
     atom   9 (R=0.057)  charge=  1.7815  magn=  0.0011
     atom  10 (R=0.057)  charge=  1.7800  magn= -0.0001
     atom  11 (R=0.057)  charge=  1.7788  magn=  0.0002
     atom  12 (R=0.057)  charge=  1.7834  magn=  0.0027
     atom  13 (R=0.057)  charge=  1.7826  magn=  0.0011
     atom  14 (R=0.057)  charge=  1.7850  magn=  0.0011
     atom  15 (R=0.057)  charge=  1.7820  magn=  0.0001
     atom  16 (R=0.057)  charge=  1.7822  magn= -0.0000
     atom  17 (R=0.057)  charge=  1.7803  magn=  0.0002
     atom  18 (R=0.057)  charge=  1.7816  magn= -0.0001
     atom  19 (R=0.057)  charge=  1.7812  magn=  0.0011
     atom  20 (R=0.057)  charge=  1.7808  magn= -0.0001
     atom  21 (R=0.057)  charge=  1.7811  magn=  0.0001
     atom  22 (R=0.057)  charge=  1.7806  magn= -0.0000
     atom  23 (R=0.057)  charge=  1.7817  magn=  0.0015
     atom  24 (R=0.057)  charge=  1.7811  magn= -0.0001
     atom  25 (R=0.057)  charge=  1.7815  magn=  0.0011
     atom  26 (R=0.057)  charge=  1.7800  magn= -0.0001
     atom  27 (R=0.057)  charge=  1.7788  magn=  0.0002
     atom  28 (R=0.057)  charge=  1.7834  magn=  0.0027
     atom  29 (R=0.057)  charge=  1.7820  magn=  0.0001
     atom  30 (R=0.057)  charge=  1.7822  magn= -0.0000
     atom  31 (R=0.057)  charge=  1.7826  magn=  0.0011
     atom  32 (R=0.057)  charge=  1.7850  magn=  0.0011
     atom  33 (R=0.057)  charge=  1.7819  magn=  0.0003
     atom  34 (R=0.057)  charge=  1.7795  magn= -0.0009
     atom  35 (R=0.057)  charge=  1.7820  magn=  0.0061
     atom  36 (R=0.057)  charge=  1.7825  magn= -0.0012
     atom  37 (R=0.057)  charge=  1.7805  magn=  0.0001
     atom  38 (R=0.057)  charge=  1.7813  magn= -0.0002
     atom  39 (R=0.057)  charge=  1.7805  magn=  0.0001
     atom  40 (R=0.057)  charge=  1.7813  magn= -0.0002
     atom  41 (R=0.057)  charge=  1.7769  magn=  0.0181
     atom  42 (R=0.057)  charge=  1.7803  magn= -0.0014
     atom  43 (R=0.057)  charge=  1.7817  magn=  0.0171
     atom  44 (R=0.057)  charge=  1.7861  magn=  0.0014
     atom  45 (R=0.057)  charge=  1.7815  magn=  0.0011
     atom  46 (R=0.057)  charge=  1.7800  magn= -0.0001
     atom  47 (R=0.057)  charge=  1.7809  magn=  0.0014
     atom  48 (R=0.057)  charge=  1.7814  magn= -0.0002
     atom  49 (R=0.057)  charge=  1.7803  magn=  0.0002
     atom  50 (R=0.057)  charge=  1.7816  magn= -0.0001
     atom  51 (R=0.057)  charge=  1.7812  magn=  0.0011
     atom  52 (R=0.057)  charge=  1.7808  magn= -0.0001
     atom  53 (R=0.057)  charge=  1.7817  magn=  0.0015
     atom  54 (R=0.057)  charge=  1.7811  magn= -0.0001
     atom  55 (R=0.057)  charge=  1.7811  magn=  0.0001
     atom  56 (R=0.057)  charge=  1.7806  magn= -0.0000
     atom  57 (R=0.057)  charge=  1.7769  magn=  0.0181
     atom  58 (R=0.057)  charge=  1.7803  magn= -0.0014
     atom  59 (R=0.057)  charge=  1.7817  magn=  0.0171
     atom  60 (R=0.057)  charge=  1.7861  magn=  0.0014
     atom  61 (R=0.057)  charge=  1.7809  magn=  0.0014
     atom  62 (R=0.057)  charge=  1.7814  magn= -0.0002
     atom  63 (R=0.057)  charge=  1.7815  magn=  0.0011
     atom  64 (R=0.057)  charge=  1.7800  magn= -0.0001
     atom  65 (R=0.057)  charge=  1.7799  magn=  0.0073
     atom  66 (R=0.057)  charge=  1.7797  magn= -0.0005
     atom  67 (R=0.057)  charge=  1.7801  magn=  0.0002
     atom  68 (R=0.057)  charge=  1.7810  magn= -0.0001
     atom  69 (R=0.057)  charge=  1.7803  magn=  0.0002
     atom  70 (R=0.057)  charge=  1.7816  magn= -0.0001
     atom  71 (R=0.057)  charge=  1.7803  magn=  0.0002
     atom  72 (R=0.057)  charge=  1.7816  magn= -0.0001
     atom  73 (R=0.057)  charge=  1.7811  magn=  0.0004
     atom  74 (R=0.057)  charge=  1.7801  magn=  0.0000
     atom  75 (R=0.057)  charge=  1.7819  magn=  0.0001
     atom  76 (R=0.057)  charge=  1.7818  magn=  0.0000
     atom  77 (R=0.057)  charge=  1.7820  magn=  0.0001
     atom  78 (R=0.057)  charge=  1.7822  magn= -0.0000
     atom  79 (R=0.057)  charge=  1.7820  magn=  0.0001
     atom  80 (R=0.057)  charge=  1.7822  magn= -0.0000
     atom  81 (R=0.057)  charge=  1.7820  magn=  0.0001
     atom  82 (R=0.057)  charge=  1.7822  magn= -0.0000
     atom  83 (R=0.057)  charge=  1.7842  magn=  0.0002
     atom  84 (R=0.057)  charge=  1.7870  magn=  0.0001
     atom  85 (R=0.057)  charge=  1.7805  magn=  0.0001
     atom  86 (R=0.057)  charge=  1.7813  magn= -0.0002
     atom  87 (R=0.057)  charge=  1.7845  magn=  0.0000
     atom  88 (R=0.057)  charge=  1.7831  magn= -0.0001
     atom  89 (R=0.057)  charge=  1.7817  magn=  0.0015
     atom  90 (R=0.057)  charge=  1.7811  magn= -0.0001
     atom  91 (R=0.057)  charge=  1.7816  magn=  0.0001
     atom  92 (R=0.057)  charge=  1.7804  magn=  0.0001
     atom  93 (R=0.057)  charge=  1.7815  magn=  0.0011
     atom  94 (R=0.057)  charge=  1.7800  magn= -0.0001
     atom  95 (R=0.057)  charge=  1.7804  magn=  0.0002
     atom  96 (R=0.057)  charge=  1.7756  magn= -0.0003
     atom  97 (R=0.057)  charge=  1.7820  magn=  0.0001
     atom  98 (R=0.057)  charge=  1.7822  magn= -0.0000
     atom  99 (R=0.057)  charge=  1.7842  magn=  0.0002
     atom 100 (R=0.057)  charge=  1.7870  magn=  0.0001
     atom 101 (R=0.057)  charge=  1.7845  magn=  0.0000
     atom 102 (R=0.057)  charge=  1.7831  magn= -0.0001
     atom 103 (R=0.057)  charge=  1.7805  magn=  0.0001
     atom 104 (R=0.057)  charge=  1.7813  magn= -0.0002
     atom 105 (R=0.057)  charge=  1.7845  magn=  0.0000
     atom 106 (R=0.057)  charge=  1.7831  magn= -0.0001
     atom 107 (R=0.057)  charge=  1.7810  magn=  0.0007
     atom 108 (R=0.057)  charge=  1.7850  magn= -0.0007
     atom 109 (R=0.057)  charge=  1.7915  magn=  0.0001
     atom 110 (R=0.057)  charge=  1.7611  magn=  0.0005
     atom 111 (R=0.057)  charge=  1.7915  magn=  0.0001
     atom 112 (R=0.057)  charge=  1.7611  magn=  0.0005
     atom 113 (R=0.057)  charge=  1.7804  magn=  0.0002
     atom 114 (R=0.057)  charge=  1.7756  magn= -0.0003
     atom 115 (R=0.057)  charge=  1.7788  magn=  0.0002
     atom 116 (R=0.057)  charge=  1.7834  magn=  0.0027
     atom 117 (R=0.057)  charge=  1.7819  magn=  0.0003
     atom 118 (R=0.057)  charge=  1.7795  magn= -0.0009
     atom 119 (R=0.057)  charge=  1.7765  magn=  0.0039
     atom 120 (R=0.057)  charge=  1.7822  magn= -0.0065
     atom 121 (R=0.057)  charge=  1.7817  magn=  0.0015
     atom 122 (R=0.057)  charge=  1.7811  magn= -0.0001
     atom 123 (R=0.057)  charge=  1.7816  magn=  0.0001
     atom 124 (R=0.057)  charge=  1.7804  magn=  0.0001
     atom 125 (R=0.057)  charge=  1.7804  magn=  0.0002
     atom 126 (R=0.057)  charge=  1.7756  magn= -0.0003
     atom 127 (R=0.057)  charge=  1.7815  magn=  0.0011
     atom 128 (R=0.057)  charge=  1.7800  magn= -0.0001
     atom 129 (R=0.057)  charge=  1.7804  magn=  0.0002
     atom 130 (R=0.057)  charge=  1.7756  magn= -0.0003
     atom 131 (R=0.057)  charge=  1.7788  magn=  0.0002
     atom 132 (R=0.057)  charge=  1.7834  magn=  0.0027
     atom 133 (R=0.057)  charge=  1.7765  magn=  0.0039
     atom 134 (R=0.057)  charge=  1.7822  magn= -0.0065
     atom 135 (R=0.057)  charge=  1.7819  magn=  0.0003
     atom 136 (R=0.057)  charge=  1.7795  magn= -0.0009
     atom 137 (R=0.057)  charge=  1.7811  magn=  0.0008
     atom 138 (R=0.057)  charge=  1.7809  magn= -0.0014
     atom 139 (R=0.057)  charge=  1.7812  magn=  0.0011
     atom 140 (R=0.057)  charge=  1.7808  magn= -0.0001
     atom 141 (R=0.057)  charge=  1.7769  magn=  0.0181
     atom 142 (R=0.057)  charge=  1.7803  magn= -0.0014
     atom 143 (R=0.057)  charge=  1.7769  magn=  0.0181
     atom 144 (R=0.057)  charge=  1.7803  magn= -0.0014
     atom 145 (R=0.057)  charge=  1.7826  magn=  0.0011
     atom 146 (R=0.057)  charge=  1.7850  magn=  0.0011
     atom 147 (R=0.057)  charge=  1.7842  magn=  0.0002
     atom 148 (R=0.057)  charge=  1.7870  magn=  0.0001
     atom 149 (R=0.057)  charge=  1.7817  magn=  0.0015
     atom 150 (R=0.057)  charge=  1.7811  magn= -0.0001
     atom 151 (R=0.057)  charge=  1.7817  magn=  0.0015
     atom 152 (R=0.057)  charge=  1.7811  magn= -0.0001
     atom 153 (R=0.057)  charge=  1.7805  magn=  0.0001
     atom 154 (R=0.057)  charge=  1.7813  magn= -0.0002
     atom 155 (R=0.057)  charge=  1.7810  magn=  0.0007
     atom 156 (R=0.057)  charge=  1.7850  magn= -0.0007
     atom 157 (R=0.057)  charge=  1.7809  magn=  0.0014
     atom 158 (R=0.057)  charge=  1.7814  magn= -0.0002
     atom 159 (R=0.057)  charge=  1.7804  magn=  0.0002
     atom 160 (R=0.057)  charge=  1.7756  magn= -0.0003
     atom 161 (R=0.057)  charge=  1.7809  magn=  0.0014
     atom 162 (R=0.057)  charge=  1.7814  magn= -0.0002
     atom 163 (R=0.057)  charge=  1.7788  magn=  0.0002
     atom 164 (R=0.057)  charge=  1.7834  magn=  0.0027
     atom 165 (R=0.057)  charge=  1.7803  magn=  0.0002
     atom 166 (R=0.057)  charge=  1.7816  magn= -0.0001
     atom 167 (R=0.057)  charge=  1.7811  magn=  0.0008
     atom 168 (R=0.057)  charge=  1.7809  magn= -0.0014
     atom 169 (R=0.057)  charge=  1.7805  magn=  0.0001
     atom 170 (R=0.057)  charge=  1.7813  magn= -0.0002
     atom 171 (R=0.057)  charge=  1.7810  magn=  0.0007
     atom 172 (R=0.057)  charge=  1.7850  magn= -0.0007
     atom 173 (R=0.057)  charge=  1.7804  magn=  0.0002
     atom 174 (R=0.057)  charge=  1.7756  magn= -0.0003
     atom 175 (R=0.057)  charge=  1.7809  magn=  0.0014
     atom 176 (R=0.057)  charge=  1.7814  magn= -0.0002
     atom 177 (R=0.057)  charge=  1.7915  magn=  0.0001
     atom 178 (R=0.057)  charge=  1.7611  magn=  0.0005
     atom 179 (R=0.057)  charge=  1.7765  magn=  0.0039
     atom 180 (R=0.057)  charge=  1.7822  magn= -0.0065
     atom 181 (R=0.057)  charge=  1.7765  magn=  0.0039
     atom 182 (R=0.057)  charge=  1.7822  magn= -0.0065
     atom 183 (R=0.057)  charge=  1.7765  magn=  0.0039
     atom 184 (R=0.057)  charge=  1.7822  magn= -0.0065
     atom 185 (R=0.057)  charge=  1.7820  magn=  0.0061
     atom 186 (R=0.057)  charge=  1.7825  magn= -0.0012
     atom 187 (R=0.057)  charge=  1.7769  magn=  0.0181
     atom 188 (R=0.057)  charge=  1.7803  magn= -0.0014
     atom 189 (R=0.057)  charge=  1.7894  magn=  0.2591
     atom 190 (R=0.057)  charge=  1.7893  magn= -0.0109
     atom 191 (R=0.057)  charge=  1.7809  magn=  0.0014
     atom 192 (R=0.057)  charge=  1.7814  magn= -0.0002
     atom 193 (R=0.057)  charge=  1.7788  magn=  0.0002
     atom 194 (R=0.057)  charge=  1.7834  magn=  0.0027
     atom 195 (R=0.057)  charge=  1.7812  magn=  0.0008
     atom 196 (R=0.057)  charge=  1.7809  magn= -0.0014
     atom 197 (R=0.057)  charge=  1.7803  magn=  0.0002
     atom 198 (R=0.057)  charge=  1.7816  magn= -0.0001
     atom 199 (R=0.057)  charge=  1.7765  magn=  0.0039
     atom 200 (R=0.057)  charge=  1.7822  magn= -0.0065
     atom 201 (R=0.057)  charge=  1.7820  magn=  0.0061
     atom 202 (R=0.057)  charge=  1.7825  magn= -0.0012
     atom 203 (R=0.057)  charge=  1.7894  magn=  0.2591
     atom 204 (R=0.057)  charge=  1.7893  magn= -0.0109
     atom 205 (R=0.057)  charge=  1.7769  magn=  0.0181
     atom 206 (R=0.057)  charge=  1.7803  magn= -0.0014
     atom 207 (R=0.057)  charge=  1.7894  magn=  0.2591
     atom 208 (R=0.057)  charge=  1.7893  magn= -0.0109
     atom 209 (R=0.057)  charge=  1.7817  magn=  0.0171
     atom 210 (R=0.057)  charge=  1.7861  magn=  0.0014
     atom 211 (R=0.057)  charge=  1.7799  magn=  0.0073
     atom 212 (R=0.057)  charge=  1.7797  magn= -0.0005
     atom 213 (R=0.057)  charge=  1.7799  magn=  0.0073
     atom 214 (R=0.057)  charge=  1.7797  magn= -0.0005
     atom 215 (R=0.057)  charge=  2.8736  magn= -0.0014

     total cpu time spent up to now is     1195.3 secs

     End of self-consistent calculation

 ------ SPIN UP ------------


          k = 0.0000 0.0000 0.0000 ( 31995 PWs)   bands (ev):

   -10.4675  -9.5904  -9.3846  -9.3846  -9.3379  -9.3379  -9.2526  -8.6884
    -8.3122  -8.3122  -8.3030  -8.3030  -8.2867  -8.2616  -8.2616  -8.2486
    -8.2059  -8.2059  -8.0298  -7.4925  -7.2165  -7.2084  -7.2084  -7.1885
    -7.1885  -7.1825  -7.0202  -6.3562  -6.1440  -6.1440  -6.1255  -6.1255
    -6.0646  -5.7216  -5.1886  -5.1886  -5.1790  -5.1785  -5.1785  -5.1639
    -5.1633  -5.1633  -5.1517  -5.1437  -5.1437  -5.1371  -5.1371  -5.1341
    -5.1100  -5.1100  -5.0913  -5.0913  -5.0873  -5.0669  -5.0111  -5.0111
    -4.8172  -4.6033  -4.3620  -4.3620  -4.3279  -4.3270  -4.3270  -4.3130
    -4.3082  -4.3082  -4.3046  -4.2974  -4.2974  -4.2761  -4.2684  -4.2684
    -4.2492  -4.2492  -4.2128  -4.2128  -4.2115  -4.1742  -4.0867  -4.0866
    -3.3617  -2.7028  -2.5214  -2.5214  -2.4798  -2.4798  -2.4735  -2.4719
    -2.4719  -2.4581  -2.4255  -2.4255  -2.0553  -1.1736  -1.1133  -1.1133
    -1.0894  -1.0894  -1.0478  -0.8172  -0.6194  -0.6194  -0.5778  -0.5698
    -0.5698  -0.5594  -0.5594  -0.5569  -0.5561  -0.5362  -0.5362  -0.5293
    -0.5293  -0.5058  -0.4673  -0.4572  -0.4572  -0.4283  -0.4283  -0.4260
    -0.4117  -0.4117  -0.3465  -0.3211  -0.3211  -0.3160  -0.2949  -0.2935
    -0.2935  -0.2880  -0.2833  -0.2833  -0.2772  -0.2612  -0.2612  -0.2406
    -0.2406  -0.2336  -0.2277  -0.2277  -0.2248  -0.2248  -0.2193   0.0120
     0.1256   0.1256   0.5470   0.8306   0.8334   0.8334   0.8783   0.8814
     0.8814   0.8897   0.9113   0.9113   1.0368   1.0368   2.0808   2.5109
     2.5109   2.5177   2.5864   2.5902   2.5992   2.5992   2.6027   2.6067
     2.6067   2.6197   2.6201   2.6261   2.6261   2.6438   2.6438   2.7725
     2.7725   2.7760   2.7943   3.1802   3.1802   3.1987   3.2830   3.2878
     3.2897   3.2897   3.2920   3.2920   3.3037   3.3037   3.3063   3.3141
     3.3141   3.3150   3.3251   3.3251   3.3433   3.3508   3.3547   3.3547
     3.5575   3.5575   4.1789   4.1829   4.1829   4.2517   4.2534   4.2534
     4.2570   4.2642   4.2642   4.2758   4.2758   4.2846   4.2957   4.2957
     4.3486   4.3486   4.3543   4.3657   4.3798   4.4060   4.4060   4.4744
     4.4948   4.4948   4.5452   4.7154   4.7154   4.7868   4.8223   4.8223
     4.8377   4.8397   4.8397   4.8454   4.8454   4.8493   4.8518   4.8666
     4.8713   4.8713   4.8816   4.8854   4.8854   4.8962   4.9056   4.9153
     4.9153   4.9321   4.9321   4.9706   4.9706   5.2959   5.3371   5.3372
     5.9014   5.9014   5.9650   5.9793   5.9948   5.9948   6.0706   6.4677
     6.4677   6.5427   6.5551   6.5551   6.5713   6.5713   6.5717   6.5958
     6.6576   6.6576   6.8502   6.8502   6.9530   6.9906   7.0054   7.0083
     7.0083   7.0092   7.0092   7.0421   7.0720   7.0720   7.0746   7.2268
     7.2268   7.2515   7.2808   7.2852   7.2852   7.3009   7.3044   7.3044
     7.3059   7.3059   7.3139   7.3150   7.3235   7.3235   7.3505   7.3505
     7.3652   7.3652   7.3725   7.3780   7.3780   7.3826   7.4466   7.4466
     7.4731   7.5114   7.5116   7.5168   7.5168   7.5172   7.5239   7.5239
     7.5287   7.5294   7.5294   7.5318   7.5449   7.5449   7.5530   7.5575
     7.5575   7.5610   7.5610   7.5660   7.5661   7.5669   7.5704   7.5738
     7.5738   7.5944   7.5944   7.5953   7.6132   7.6209   7.6209   7.6449
     7.6449   7.6634   7.6634   7.6765   7.6881   7.7253   7.7253   7.7318
     7.7447   7.8279   7.8279   8.1341   8.1427   8.1427   8.3344   8.3344
     8.4043   8.4043   8.4068   8.4145   8.4353   8.4401   8.4416   8.4416
     8.4621   8.4621   8.4675   8.4675   8.4775   8.4807   8.4807   8.5083
     8.5497   8.5497   8.6221   9.3034   9.4456   9.4456   9.7365   9.9067
     9.9067   9.9702   9.9702   9.9705   9.9785   9.9865   9.9865   9.9928
    10.0602  10.0602  10.0702  10.1563  10.1563  10.2141  10.2224  10.2224
    10.2267  10.2267  10.2348  10.2348  10.2505  10.2619  10.2619  10.2829
    10.2890  10.2890  10.2989  10.3220  10.3220  10.9217  10.9558  10.9558
    11.1411  11.2072  11.2072  11.2202  11.2474  11.2476  11.2476  11.2762
    11.3070  11.3070  12.4184  12.5607  12.5607  13.3114  14.4483  14.4483
    18.3364  18.3364  18.3559  18.3899  18.3899  18.4154  18.9117  18.9791
    18.9791  18.9941  18.9941  19.0672  19.1980  19.1980  19.2394  19.2972
    19.2972  19.3168  19.9918  19.9918  20.0189  20.5402  20.6091  20.6091
    20.6206  20.6600  20.6600  20.6689  20.6689  20.6787  20.6900  20.6900
    20.7326  21.2420  21.4040  21.4040  21.4379  21.4379  21.4383  21.4435
    21.4435  21.4459  21.4503  21.4503  21.4675  21.4774  21.4864  21.4864
    21.5061  21.5075  21.5075  21.5582  21.5582  21.5700  21.5958  21.5992
    21.5992  21.9245  21.9831  21.9831  22.0577  22.0604  22.0604  22.0683
    22.0689  22.0689  22.0736  22.0818  22.0818  22.0824  22.0992  22.0992
    22.1028  22.1028  22.1109  22.1162  22.1162  22.1199  22.1277  22.1277
    22.1435  22.1541  22.1541  22.1545  22.1745  22.1745  22.1768  22.1818
    22.1818  22.1834  22.2243  22.2243  22.2587  22.3021  22.3036  22.3036
    22.4029  22.4033  22.4033  22.5117  22.5664  22.5664  22.5696  22.6005
    22.6005  22.6032  22.6083  22.6083  22.6156  22.6347  22.6347  22.6732
    22.6732  22.6838  22.6924  22.6924  22.6954  22.7395  22.7395  22.7493
    22.7680  22.7703  22.7703  22.7845  22.7845  22.7877  22.7877  22.8011
    22.8138  22.8138  22.8146  22.8254  22.8254  22.8475  23.0252  23.0252
    23.0289  23.0524  23.0524  23.0645  23.0806  23.0905  23.0946  23.0946
    23.1023  23.1023  23.1456  23.1679  23.1679  23.1810  23.2123  23.2369
    23.2369  23.3586  23.3586  23.3875  23.3912  23.3912  23.5592  23.5592
    23.5636  23.6073  23.6073  23.6368  23.6374  23.6404  23.6404  23.7297
    23.7538  23.7538  23.8193  23.8638  23.8638  23.8843  23.8938  23.8938
    24.0695  24.0695  24.0755  24.2418  24.3197  24.3197  24.3251  24.3949
    24.3949  24.3988  24.4063  24.4063  24.4146  24.4146  24.4294  24.4341
    24.4348  24.4348  24.4461  24.4773  24.5148  24.5148  24.5473  24.5912
    24.6233  24.6233  24.7070  24.7070  24.8293  24.8621  24.8621  25.3330
    25.3414  25.3414  25.3449  25.3591  25.3608  25.3608  25.3833  25.3833
    25.3869  25.4066  25.4066  25.4186  25.4186  25.4468  25.4514  25.4894
    25.5213  25.5272  25.5272  25.6854  25.6854  25.7931  25.7931  25.8645
    25.8687  25.8687  25.8873  25.9226  25.9226  25.9278  25.9278  25.9283
    25.9451  25.9854  25.9854  25.9879  26.0297  26.0297  26.0344  26.0344
    26.0585  26.0585  26.0674  26.0966  26.1349  26.1373  26.1373  26.1540
    26.1653  26.1697  26.1697  26.1820  26.2083  26.2083  26.2146  26.2327
    26.2327  26.2523  26.2523  26.2714  26.2888  26.3127  26.3127  26.4343
    26.4343  26.5186  26.5186  27.1427  27.1817  27.1817  27.2999  27.4670
    27.4753  27.4753  27.4909  27.4909  27.7903  27.8062  27.8120  27.8120
    27.8498  27.8721  27.8721  27.9251  27.9430  27.9430  27.9917  28.0633
    28.0633  28.3325  28.3918  28.3918  28.4029  28.4256  28.4458  28.4502
    28.4502  28.4769  28.4769  28.4841  28.4841  28.5005  28.5503  28.5503
    28.5552  28.5643  28.5833  28.5833  28.6297  28.6297  28.6458  28.7139
    28.7139  28.9051  28.9230  28.9230  28.9849  28.9910  28.9910  28.9927
    29.0077  29.0088  29.0088  29.0210  29.0210  29.0250  29.0250  29.0277
    29.0414  29.0576  29.0613  29.0613  29.0811  29.0811  29.0891  29.0954
    29.0954  29.1016  29.1069  29.1069  29.1211  29.1230  29.1276  29.1276
    29.1353  29.1353  29.1432  29.1432  29.1486  29.1486  29.1488  29.1578
    29.1615  29.1721  29.1721  29.1723  29.1884  29.1884  29.2117  29.2521
    29.2521  29.2657  29.2833  29.2833  29.3064  29.3064  29.3163  29.3844
    29.4031  29.4031  29.4163  29.4220  29.4220  29.4390  29.4723  29.4818
    29.4818  29.4925  29.4951  29.4951  29.5013  29.5179  29.5179  29.5540
    29.5738  29.5738  29.6020  29.6060  29.6060  29.6983  29.6983  29.7960
    29.8453  29.8453  29.8553  29.9115  30.0108  30.0108  30.0517  30.0517
    30.0612  30.0925  30.0925  30.1414  30.1565  30.1565  30.1691  30.1854
    30.2022  30.2022  30.3671  30.4505  30.4505  30.4618  31.3641  31.5696
    31.5869  31.5869  31.6186  31.6186  31.6346  31.6730  31.6730  31.8323

     occupation numbers 
     1.0000   1.0000   1.0000   1.0000   1.0000   1.0000   1.0000   1.0000
     1.0000   1.0000   1.0000   1.0000   1.0000   1.0000   1.0000   1.0000
     1.0000   1.0000   1.0000   1.0000   1.0000   1.0000   1.0000   1.0000
     1.0000   1.0000   1.0000   1.0000   1.0000   1.0000   1.0000   1.0000
     1.0000   1.0000   1.0000   1.0000   1.0000   1.0000   1.0000   1.0000
     1.0000   1.0000   1.0000   1.0000   1.0000   1.0000   1.0000   1.0000
     1.0000   1.0000   1.0000   1.0000   1.0000   1.0000   1.0000   1.0000
     1.0000   1.0000   1.0000   1.0000   1.0000   1.0000   1.0000   1.0000
     1.0000   1.0000   1.0000   1.0000   1.0000   1.0000   1.0000   1.0000
     1.0000   1.0000   1.0000   1.0000   1.0000   1.0000   1.0000   1.0000
     1.0000   1.0000   1.0000   1.0000   1.0000   1.0000   1.0000   1.0000
     1.0000   1.0000   1.0000   1.0000   1.0000   1.0000   1.0000   1.0000
     1.0000   1.0000   1.0000   1.0000   1.0000   1.0000   1.0000   1.0000
     1.0000   1.0000   1.0000   1.0000   1.0000   1.0000   1.0000   1.0000
     1.0000   1.0000   1.0000   1.0000   1.0000   1.0000   1.0000   1.0000
     1.0000   1.0000   1.0000   1.0000   1.0000   1.0000   1.0000   1.0000
     1.0000   1.0000   1.0000   1.0000   1.0000   1.0000   1.0000   1.0000
     1.0000   1.0000   1.0000   1.0000   1.0000   1.0000   1.0000   1.0000
     1.0000   1.0000   1.0000   1.0000   1.0000   1.0000   1.0000   1.0000
     1.0000   1.0000   1.0000   1.0000   1.0000   1.0000   1.0000   1.0000
     1.0000   1.0000   1.0000   1.0000   1.0000   1.0000   1.0000   1.0000
     1.0000   1.0000   1.0000   1.0000   1.0000   1.0000   1.0000   1.0000
     1.0000   1.0000   1.0000   1.0000   1.0000   1.0000   1.0000   1.0000
     1.0000   1.0000   1.0000   1.0000   1.0000   1.0000   1.0000   1.0000
     1.0000   1.0000   1.0000   1.0000   1.0000   1.0000   1.0000   1.0000
     1.0000   1.0000   1.0000   1.0000   1.0000   1.0000   1.0000   1.0000
     1.0000   1.0000   1.0000   1.0000   1.0000   1.0000   1.0000   1.0000
     1.0000   1.0000   1.0000   1.0000   1.0000   1.0000   1.0000   1.0000
     1.0000   1.0000   1.0000   1.0000   1.0000   1.0000   1.0000   1.0000
     1.0000   1.0000   1.0000   1.0000   1.0000   1.0000   1.0000   1.0000
     1.0000   1.0000   1.0000   1.0000   1.0000   1.0000   1.0000   1.0000
     1.0000   1.0000   1.0000   1.0000   1.0000   1.0000   1.0000   1.0000
     1.0000   1.0000   1.0000   1.0000   1.0000   1.0000   1.0000   1.0000
     1.0000   1.0000   1.0000   1.0000   1.0000   1.0000   1.0000   1.0000
     1.0000   1.0000   1.0000   1.0000   1.0000   1.0000   1.0000   1.0000
     1.0000   1.0000   1.0000   1.0000   1.0000   1.0000   1.0000   1.0000
     1.0000   1.0000   1.0000   1.0000   1.0000   1.0000   1.0000   1.0000
     1.0000   1.0000   1.0000   1.0000   1.0000   1.0000   1.0000   1.0000
     1.0000   1.0000   1.0000   1.0000   1.0000   1.0000   1.0000   1.0000
     1.0000   1.0000   1.0000   1.0000   1.0000   1.0000   1.0000   1.0000
     1.0000   1.0000   1.0000   1.0000   1.0000   1.0000   1.0000   1.0000
     1.0000   1.0000   1.0000   1.0000   1.0000   1.0000   1.0000   1.0000
     1.0000   1.0000   1.0000   1.0000   1.0000   1.0000   1.0000   1.0000
     1.0000   1.0000   1.0000   1.0000   1.0000   1.0000   1.0000   1.0000
     1.0000   1.0000   1.0000   1.0000   1.0000   1.0000   1.0000   1.0000
     1.0000   1.0000   1.0000   1.0000   1.0000   1.0000   1.0000   1.0000
     1.0000   1.0000   1.0000   1.0000   1.0000   1.0000   1.0000   1.0000
     1.0000   1.0000   1.0000   1.0000   1.0000   1.0000   1.0000   1.0000
     1.0000   1.0000   1.0000   1.0000   1.0000   1.0000   1.0000   1.0000
     1.0000   1.0000   1.0000   1.0000   1.0000   1.0000   1.0000   1.0000
     1.0000   1.0000   1.0000   1.0000   1.0000   1.0000   1.0000   1.0000
     1.0000   1.0000   1.0000   1.0000   1.0000   1.0000   1.0000   1.0000
     1.0000   1.0000   1.0000   1.0000   1.0000   1.0000   1.0000   1.0000
     1.0000   1.0000   1.0000   1.0000   1.0000   1.0000   1.0000   1.0000
     0.0000   0.0000   0.0000   0.0000   0.0000   0.0000   0.0000   0.0000
     0.0000   0.0000   0.0000   0.0000   0.0000   0.0000   0.0000   0.0000
     0.0000   0.0000   0.0000   0.0000   0.0000   0.0000   0.0000   0.0000
     0.0000   0.0000   0.0000   0.0000   0.0000   0.0000   0.0000   0.0000
     0.0000   0.0000   0.0000   0.0000   0.0000   0.0000   0.0000   0.0000
     0.0000   0.0000   0.0000   0.0000   0.0000   0.0000   0.0000   0.0000
     0.0000   0.0000   0.0000   0.0000   0.0000   0.0000   0.0000   0.0000
     0.0000   0.0000   0.0000   0.0000   0.0000   0.0000   0.0000   0.0000
     0.0000   0.0000   0.0000   0.0000   0.0000   0.0000   0.0000   0.0000
     0.0000   0.0000   0.0000   0.0000   0.0000   0.0000   0.0000   0.0000
     0.0000   0.0000   0.0000   0.0000   0.0000   0.0000   0.0000   0.0000
     0.0000   0.0000   0.0000   0.0000   0.0000   0.0000   0.0000   0.0000
     0.0000   0.0000   0.0000   0.0000   0.0000   0.0000   0.0000   0.0000
     0.0000   0.0000   0.0000   0.0000   0.0000   0.0000   0.0000   0.0000
     0.0000   0.0000   0.0000   0.0000   0.0000   0.0000   0.0000   0.0000
     0.0000   0.0000   0.0000   0.0000   0.0000   0.0000   0.0000   0.0000
     0.0000   0.0000   0.0000   0.0000   0.0000   0.0000   0.0000   0.0000
     0.0000   0.0000   0.0000   0.0000   0.0000   0.0000   0.0000   0.0000
     0.0000   0.0000   0.0000   0.0000   0.0000   0.0000   0.0000   0.0000
     0.0000   0.0000   0.0000   0.0000   0.0000   0.0000   0.0000   0.0000
     0.0000   0.0000   0.0000   0.0000   0.0000   0.0000   0.0000   0.0000
     0.0000   0.0000   0.0000   0.0000   0.0000   0.0000   0.0000   0.0000
     0.0000   0.0000   0.0000   0.0000   0.0000   0.0000   0.0000   0.0000
     0.0000   0.0000   0.0000   0.0000   0.0000   0.0000   0.0000   0.0000
     0.0000   0.0000   0.0000   0.0000   0.0000   0.0000   0.0000   0.0000
     0.0000   0.0000   0.0000   0.0000   0.0000   0.0000   0.0000   0.0000
     0.0000   0.0000   0.0000   0.0000   0.0000   0.0000   0.0000   0.0000
     0.0000   0.0000   0.0000   0.0000   0.0000   0.0000   0.0000   0.0000
     0.0000   0.0000   0.0000   0.0000   0.0000   0.0000   0.0000   0.0000
     0.0000   0.0000   0.0000   0.0000   0.0000   0.0000   0.0000   0.0000
     0.0000   0.0000   0.0000   0.0000   0.0000   0.0000   0.0000   0.0000
     0.0000   0.0000   0.0000   0.0000   0.0000   0.0000   0.0000   0.0000
     0.0000   0.0000   0.0000   0.0000   0.0000   0.0000   0.0000   0.0000
     0.0000   0.0000   0.0000   0.0000   0.0000   0.0000   0.0000   0.0000
     0.0000   0.0000   0.0000   0.0000   0.0000   0.0000   0.0000   0.0000
     0.0000   0.0000   0.0000   0.0000   0.0000   0.0000   0.0000   0.0000
     0.0000   0.0000   0.0000   0.0000   0.0000   0.0000   0.0000   0.0000
     0.0000   0.0000   0.0000   0.0000   0.0000   0.0000   0.0000   0.0000
     0.0000   0.0000   0.0000   0.0000   0.0000   0.0000   0.0000   0.0000
     0.0000   0.0000   0.0000   0.0000   0.0000   0.0000   0.0000   0.0000
     0.0000   0.0000   0.0000   0.0000   0.0000   0.0000   0.0000   0.0000
     0.0000   0.0000   0.0000   0.0000   0.0000   0.0000   0.0000   0.0000
     0.0000   0.0000   0.0000   0.0000   0.0000   0.0000   0.0000   0.0000
     0.0000   0.0000   0.0000   0.0000   0.0000   0.0000   0.0000   0.0000
     0.0000   0.0000   0.0000   0.0000   0.0000   0.0000   0.0000   0.0000
     0.0000   0.0000   0.0000   0.0000   0.0000   0.0000   0.0000   0.0000
     0.0000   0.0000   0.0000   0.0000   0.0000   0.0000   0.0000   0.0000
     0.0000   0.0000   0.0000   0.0000   0.0000   0.0000   0.0000   0.0000
     0.0000   0.0000   0.0000   0.0000   0.0000   0.0000   0.0000   0.0000
     0.0000   0.0000   0.0000   0.0000   0.0000   0.0000   0.0000   0.0000
     0.0000   0.0000   0.0000   0.0000   0.0000   0.0000   0.0000   0.0000
     0.0000   0.0000   0.0000   0.0000   0.0000   0.0000   0.0000   0.0000
     0.0000   0.0000   0.0000   0.0000   0.0000   0.0000   0.0000   0.0000
     0.0000   0.0000   0.0000   0.0000   0.0000   0.0000   0.0000   0.0000

 ------ SPIN DOWN ----------


          k = 0.0000 0.0000 0.0000 ( 31995 PWs)   bands (ev):

   -10.4613  -9.5869  -9.3817  -9.3817  -9.3294  -9.3294  -9.2382  -8.6845
    -8.3099  -8.3099  -8.3007  -8.3007  -8.2817  -8.2537  -8.2537  -8.2451
    -8.1856  -8.1856  -8.0005  -7.4869  -7.2107  -7.2017  -7.2017  -7.1752
    -7.1683  -7.1683  -6.9896  -6.3411  -6.1378  -6.1378  -6.1129  -6.1129
    -6.0547  -5.7059  -5.1848  -5.1848  -5.1782  -5.1753  -5.1753  -5.1605
    -5.1589  -5.1589  -5.1502  -5.1407  -5.1407  -5.1325  -5.1325  -5.1313
    -5.0928  -5.0928  -5.0796  -5.0796  -5.0743  -5.0636  -4.9772  -4.9772
    -4.8007  -4.5990  -4.3598  -4.3598  -4.3254  -4.3218  -4.3218  -4.3104
    -4.3030  -4.3030  -4.2941  -4.2902  -4.2902  -4.2661  -4.2628  -4.2628
    -4.2442  -4.2442  -4.1981  -4.1964  -4.1964  -4.1640  -3.9995  -3.9995
    -3.2787  -2.6925  -2.5165  -2.5165  -2.4685  -2.4676  -2.4676  -2.4645
    -2.4645  -2.4514  -2.3837  -2.3837  -1.9775  -1.1573  -1.1091  -1.1091
    -1.0798  -1.0798  -1.0393  -0.7915  -0.6161  -0.6161  -0.5776  -0.5679
    -0.5679  -0.5561  -0.5561  -0.5546  -0.5538  -0.5307  -0.5307  -0.5258
    -0.5258  -0.4968  -0.4531  -0.4455  -0.4455  -0.4190  -0.4163  -0.4163
    -0.3799  -0.3799  -0.3432  -0.3175  -0.3174  -0.3065  -0.2914  -0.2893
    -0.2893  -0.2849  -0.2758  -0.2758  -0.2629  -0.2538  -0.2538  -0.2310
    -0.2310  -0.2257  -0.2181  -0.2181  -0.2074  -0.2074  -0.1777   0.0300
     0.1954   0.1954   0.5766   0.8402   0.8402   0.8512   0.8815   0.8861
     0.8861   0.9011   0.9183   0.9183   1.1182   1.1182   2.1800   2.5183
     2.5183   2.5336   2.5913   2.5978   2.6033   2.6033   2.6115   2.6115
     2.6128   2.6228   2.6281   2.6317   2.6317   2.6562   2.6562   2.7909
     2.7947   2.7947   2.8195   3.1885   3.1885   3.2251   3.2838   3.2922
     3.2922   3.2923   3.2994   3.2994   3.3093   3.3093   3.3100   3.3211
     3.3211   3.3306   3.3338   3.3338   3.3577   3.3636   3.3699   3.3699
     3.6412   3.6412   4.1883   4.1883   4.2034   4.2549   4.2549   4.2557
     4.2585   4.2673   4.2673   4.2804   4.2804   4.2877   4.2995   4.2995
     4.3576   4.3576   4.3675   4.3761   4.3865   4.4237   4.4237   4.4773
     4.5088   4.5088   4.5996   4.7231   4.7231   4.8012   4.8246   4.8246
     4.8438   4.8442   4.8442   4.8545   4.8546   4.8546   4.8602   4.8771
     4.8773   4.8773   4.8940   4.8991   4.8991   4.9119   4.9247   4.9311
     4.9311   4.9541   4.9541   4.9874   4.9874   5.3268   5.4058   5.4058
     5.9098   5.9098   5.9768   5.9888   6.0174   6.0174   6.1827   6.4865
     6.4865   6.5534   6.5587   6.5587   6.5778   6.5816   6.5816   6.6158
     6.6804   6.6804   6.8559   6.8559   6.9805   7.0122   7.0135   7.0135
     7.0209   7.0237   7.0237   7.0551   7.0861   7.0861   7.0919   7.2382
     7.2382   7.2550   7.2841   7.2879   7.2879   7.3039   7.3065   7.3065
     7.3100   7.3100   7.3179   7.3201   7.3268   7.3268   7.3583   7.3583
     7.3788   7.3788   7.3794   7.3890   7.3903   7.3903   7.4548   7.4548
     7.4827   7.5126   7.5195   7.5195   7.5210   7.5279   7.5279   7.5289
     7.5322   7.5322   7.5354   7.5385   7.5494   7.5494   7.5593   7.5639
     7.5639   7.5646   7.5646   7.5722   7.5759   7.5759   7.5888   7.5888
     7.5909   7.6019   7.6046   7.6046   7.6233   7.6351   7.6351   7.6528
     7.6528   7.6786   7.6786   7.7109   7.7149   7.7410   7.7543   7.7543
     7.7565   7.8814   7.8814   8.1507   8.1735   8.1735   8.3415   8.3415
     8.4076   8.4076   8.4109   8.4168   8.4458   8.4474   8.4474   8.4511
     8.4716   8.4716   8.4861   8.4913   8.4913   8.5005   8.5005   8.5150
     8.5818   8.5818   8.6672   9.3228   9.5604   9.5604   9.9299   9.9299
     9.9542   9.9732   9.9732   9.9784   9.9979  10.0070  10.0070  10.0202
    10.0676  10.0676  10.0787  10.1618  10.1618  10.2237  10.2273  10.2273
    10.2372  10.2372  10.2479  10.2479  10.2579  10.2833  10.2833  10.2950
    10.3044  10.3044  10.3254  10.3318  10.3318  10.9350  11.0048  11.0048
    11.2159  11.2159  11.2224  11.2546  11.2546  11.2549  11.2935  11.3299
    11.3299  11.6160  12.6247  12.6296  12.6296  14.2387  17.4041  17.4041
    18.3404  18.3404  18.3680  18.4063  18.4063  18.4267  18.9173  18.9877
    18.9877  19.0018  19.0018  19.0791  19.2030  19.2030  19.2714  19.3240
    19.3240  19.3268  20.0206  20.0206  20.0306  20.5491  20.6121  20.6121
    20.6230  20.6711  20.6711  20.6765  20.6765  20.6830  20.6957  20.6958
    20.7406  21.2473  21.4071  21.4071  21.4401  21.4414  21.4414  21.4476
    21.4498  21.4498  21.4574  21.4574  21.4744  21.4806  21.4924  21.4924
    21.5136  21.5189  21.5189  21.5669  21.5669  21.5786  21.6064  21.6086
    21.6086  21.9288  21.9916  21.9916  22.0594  22.0698  22.0704  22.0704
    22.0725  22.0725  22.0801  22.0845  22.0845  22.0853  22.1036  22.1036
    22.1074  22.1074  22.1133  22.1189  22.1189  22.1243  22.1321  22.1321
    22.1478  22.1598  22.1676  22.1676  22.1861  22.1876  22.1878  22.1878
    22.1958  22.1958  22.2315  22.2315  22.2743  22.3124  22.3124  22.3176
    22.4096  22.4129  22.4129  22.5172  22.5733  22.5733  22.5739  22.6035
    22.6035  22.6083  22.6121  22.6121  22.6165  22.6505  22.6505  22.6883
    22.6883  22.6935  22.7046  22.7046  22.7121  22.7548  22.7548  22.7582
    22.7744  22.7768  22.7768  22.7926  22.7926  22.7987  22.7987  22.8093
    22.8295  22.8295  22.8311  22.8494  22.8494  22.8922  23.0335  23.0393
    23.0393  23.0638  23.0638  23.0703  23.0831  23.0957  23.1000  23.1000
    23.1099  23.1099  23.1567  23.1725  23.1725  23.1873  23.2351  23.2608
    23.2608  23.3921  23.3921  23.3957  23.4051  23.4051  23.5626  23.5626
    23.5672  23.6217  23.6217  23.6426  23.6496  23.6496  23.6516  23.7421
    23.7653  23.7653  23.8352  23.8738  23.8738  23.8949  23.8974  23.8974
    24.0957  24.1181  24.1181  24.3137  24.3331  24.3332  24.3524  24.4009
    24.4029  24.4029  24.4089  24.4089  24.4221  24.4221  24.4357  24.4373
    24.4373  24.4413  24.4526  24.4915  24.5334  24.5334  24.5641  24.6542
    24.7174  24.7174  24.7584  24.7584  24.8537  24.9262  24.9262  25.3355
    25.3463  25.3463  25.3551  25.3617  25.3652  25.3652  25.3859  25.3859
    25.3946  25.4252  25.4252  25.4313  25.4313  25.4590  25.4635  25.5260
    25.5362  25.5562  25.5562  25.7083  25.7083  25.8202  25.8202  25.8715
    25.8741  25.8741  25.8916  25.9258  25.9258  25.9332  25.9332  25.9370
    25.9521  25.9919  25.9919  25.9955  26.0430  26.0430  26.0669  26.0669
    26.0687  26.0687  26.0728  26.1065  26.1415  26.1674  26.1745  26.1745
    26.1805  26.1864  26.1864  26.1882  26.2122  26.2122  26.2206  26.2505
    26.2505  26.2798  26.2798  26.2960  26.3191  26.3413  26.3413  26.5766
    26.5766  26.6094  26.6094  27.2047  27.2424  27.2424  27.3280  27.4728
    27.4936  27.4936  27.5060  27.5060  27.7954  27.8098  27.8177  27.8177
    27.8768  27.8823  27.8823  27.9390  27.9623  27.9623  28.0089  28.0964
    28.0964  28.3510  28.4029  28.4029  28.4149  28.4352  28.4507  28.4565
    28.4565  28.4835  28.4835  28.4937  28.4937  28.5130  28.5608  28.5608
    28.5616  28.5793  28.5892  28.5892  28.6443  28.6443  28.6497  28.7412
    28.7412  28.9236  28.9319  28.9319  28.9879  28.9954  28.9954  29.0000
    29.0131  29.0149  29.0149  29.0255  29.0255  29.0313  29.0313  29.0373
    29.0495  29.0629  29.0656  29.0656  29.0874  29.0874  29.0943  29.1060
    29.1060  29.1141  29.1141  29.1225  29.1302  29.1310  29.1322  29.1322
    29.1421  29.1421  29.1482  29.1482  29.1579  29.1608  29.1608  29.1623
    29.1682  29.1761  29.1780  29.1780  29.1953  29.1953  29.2214  29.2637
    29.2637  29.3018  29.3111  29.3111  29.3228  29.3228  29.3291  29.3903
    29.4138  29.4138  29.4206  29.4329  29.4329  29.4451  29.4775  29.4931
    29.4931  29.4971  29.5016  29.5016  29.5201  29.5230  29.5230  29.6141
    29.6153  29.6153  29.6517  29.6598  29.6598  29.7593  29.7593  29.8122
    29.8755  29.8793  29.8793  29.9325  30.0322  30.0322  30.0676  30.0842
    30.0842  30.1068  30.1068  30.1531  30.1943  30.2017  30.2017  30.2548
    30.2752  30.2752  30.4360  30.5696  30.5696  30.6026  31.4396  31.5746
    31.5967  31.5967  31.6179  31.6179  31.6317  31.6617  31.6617  31.8661

     occupation numbers 
     1.0000   1.0000   1.0000   1.0000   1.0000   1.0000   1.0000   1.0000
     1.0000   1.0000   1.0000   1.0000   1.0000   1.0000   1.0000   1.0000
     1.0000   1.0000   1.0000   1.0000   1.0000   1.0000   1.0000   1.0000
     1.0000   1.0000   1.0000   1.0000   1.0000   1.0000   1.0000   1.0000
     1.0000   1.0000   1.0000   1.0000   1.0000   1.0000   1.0000   1.0000
     1.0000   1.0000   1.0000   1.0000   1.0000   1.0000   1.0000   1.0000
     1.0000   1.0000   1.0000   1.0000   1.0000   1.0000   1.0000   1.0000
     1.0000   1.0000   1.0000   1.0000   1.0000   1.0000   1.0000   1.0000
     1.0000   1.0000   1.0000   1.0000   1.0000   1.0000   1.0000   1.0000
     1.0000   1.0000   1.0000   1.0000   1.0000   1.0000   1.0000   1.0000
     1.0000   1.0000   1.0000   1.0000   1.0000   1.0000   1.0000   1.0000
     1.0000   1.0000   1.0000   1.0000   1.0000   1.0000   1.0000   1.0000
     1.0000   1.0000   1.0000   1.0000   1.0000   1.0000   1.0000   1.0000
     1.0000   1.0000   1.0000   1.0000   1.0000   1.0000   1.0000   1.0000
     1.0000   1.0000   1.0000   1.0000   1.0000   1.0000   1.0000   1.0000
     1.0000   1.0000   1.0000   1.0000   1.0000   1.0000   1.0000   1.0000
     1.0000   1.0000   1.0000   1.0000   1.0000   1.0000   1.0000   1.0000
     1.0000   1.0000   1.0000   1.0000   1.0000   1.0000   1.0000   1.0000
     1.0000   1.0000   1.0000   1.0000   1.0000   1.0000   1.0000   1.0000
     1.0000   1.0000   1.0000   1.0000   1.0000   1.0000   1.0000   1.0000
     1.0000   1.0000   1.0000   1.0000   1.0000   1.0000   1.0000   1.0000
     1.0000   1.0000   1.0000   1.0000   1.0000   1.0000   1.0000   1.0000
     1.0000   1.0000   1.0000   1.0000   1.0000   1.0000   1.0000   1.0000
     1.0000   1.0000   1.0000   1.0000   1.0000   1.0000   1.0000   1.0000
     1.0000   1.0000   1.0000   1.0000   1.0000   1.0000   1.0000   1.0000
     1.0000   1.0000   1.0000   1.0000   1.0000   1.0000   1.0000   1.0000
     1.0000   1.0000   1.0000   1.0000   1.0000   1.0000   1.0000   1.0000
     1.0000   1.0000   1.0000   1.0000   1.0000   1.0000   1.0000   1.0000
     1.0000   1.0000   1.0000   1.0000   1.0000   1.0000   1.0000   1.0000
     1.0000   1.0000   1.0000   1.0000   1.0000   1.0000   1.0000   1.0000
     1.0000   1.0000   1.0000   1.0000   1.0000   1.0000   1.0000   1.0000
     1.0000   1.0000   1.0000   1.0000   1.0000   1.0000   1.0000   1.0000
     1.0000   1.0000   1.0000   1.0000   1.0000   1.0000   1.0000   1.0000
     1.0000   1.0000   1.0000   1.0000   1.0000   1.0000   1.0000   1.0000
     1.0000   1.0000   1.0000   1.0000   1.0000   1.0000   1.0000   1.0000
     1.0000   1.0000   1.0000   1.0000   1.0000   1.0000   1.0000   1.0000
     1.0000   1.0000   1.0000   1.0000   1.0000   1.0000   1.0000   1.0000
     1.0000   1.0000   1.0000   1.0000   1.0000   1.0000   1.0000   1.0000
     1.0000   1.0000   1.0000   1.0000   1.0000   1.0000   1.0000   1.0000
     1.0000   1.0000   1.0000   1.0000   1.0000   1.0000   1.0000   1.0000
     1.0000   1.0000   1.0000   1.0000   1.0000   1.0000   1.0000   1.0000
     1.0000   1.0000   1.0000   1.0000   1.0000   1.0000   1.0000   1.0000
     1.0000   1.0000   1.0000   1.0000   1.0000   1.0000   1.0000   1.0000
     1.0000   1.0000   1.0000   1.0000   1.0000   1.0000   1.0000   1.0000
     1.0000   1.0000   1.0000   1.0000   1.0000   1.0000   1.0000   1.0000
     1.0000   1.0000   1.0000   1.0000   1.0000   1.0000   1.0000   1.0000
     1.0000   1.0000   1.0000   1.0000   1.0000   1.0000   1.0000   1.0000
     1.0000   1.0000   1.0000   1.0000   1.0000   1.0000   1.0000   1.0000
     1.0000   1.0000   1.0000   1.0000   1.0000   1.0000   1.0000   1.0000
     1.0000   1.0000   1.0000   1.0000   1.0000   1.0000   1.0000   1.0000
     1.0000   1.0000   1.0000   1.0000   1.0000   1.0000   1.0000   1.0000
     1.0000   1.0000   1.0000   1.0000   1.0000   1.0000   1.0000   1.0000
     1.0000   1.0000   1.0000   1.0000   1.0000   1.0000   1.0000   1.0000
     1.0000   1.0000   1.0000   1.0000   1.0000   1.0000   0.0000   0.0000
     0.0000   0.0000   0.0000   0.0000   0.0000   0.0000   0.0000   0.0000
     0.0000   0.0000   0.0000   0.0000   0.0000   0.0000   0.0000   0.0000
     0.0000   0.0000   0.0000   0.0000   0.0000   0.0000   0.0000   0.0000
     0.0000   0.0000   0.0000   0.0000   0.0000   0.0000   0.0000   0.0000
     0.0000   0.0000   0.0000   0.0000   0.0000   0.0000   0.0000   0.0000
     0.0000   0.0000   0.0000   0.0000   0.0000   0.0000   0.0000   0.0000
     0.0000   0.0000   0.0000   0.0000   0.0000   0.0000   0.0000   0.0000
     0.0000   0.0000   0.0000   0.0000   0.0000   0.0000   0.0000   0.0000
     0.0000   0.0000   0.0000   0.0000   0.0000   0.0000   0.0000   0.0000
     0.0000   0.0000   0.0000   0.0000   0.0000   0.0000   0.0000   0.0000
     0.0000   0.0000   0.0000   0.0000   0.0000   0.0000   0.0000   0.0000
     0.0000   0.0000   0.0000   0.0000   0.0000   0.0000   0.0000   0.0000
     0.0000   0.0000   0.0000   0.0000   0.0000   0.0000   0.0000   0.0000
     0.0000   0.0000   0.0000   0.0000   0.0000   0.0000   0.0000   0.0000
     0.0000   0.0000   0.0000   0.0000   0.0000   0.0000   0.0000   0.0000
     0.0000   0.0000   0.0000   0.0000   0.0000   0.0000   0.0000   0.0000
     0.0000   0.0000   0.0000   0.0000   0.0000   0.0000   0.0000   0.0000
     0.0000   0.0000   0.0000   0.0000   0.0000   0.0000   0.0000   0.0000
     0.0000   0.0000   0.0000   0.0000   0.0000   0.0000   0.0000   0.0000
     0.0000   0.0000   0.0000   0.0000   0.0000   0.0000   0.0000   0.0000
     0.0000   0.0000   0.0000   0.0000   0.0000   0.0000   0.0000   0.0000
     0.0000   0.0000   0.0000   0.0000   0.0000   0.0000   0.0000   0.0000
     0.0000   0.0000   0.0000   0.0000   0.0000   0.0000   0.0000   0.0000
     0.0000   0.0000   0.0000   0.0000   0.0000   0.0000   0.0000   0.0000
     0.0000   0.0000   0.0000   0.0000   0.0000   0.0000   0.0000   0.0000
     0.0000   0.0000   0.0000   0.0000   0.0000   0.0000   0.0000   0.0000
     0.0000   0.0000   0.0000   0.0000   0.0000   0.0000   0.0000   0.0000
     0.0000   0.0000   0.0000   0.0000   0.0000   0.0000   0.0000   0.0000
     0.0000   0.0000   0.0000   0.0000   0.0000   0.0000   0.0000   0.0000
     0.0000   0.0000   0.0000   0.0000   0.0000   0.0000   0.0000   0.0000
     0.0000   0.0000   0.0000   0.0000   0.0000   0.0000   0.0000   0.0000
     0.0000   0.0000   0.0000   0.0000   0.0000   0.0000   0.0000   0.0000
     0.0000   0.0000   0.0000   0.0000   0.0000   0.0000   0.0000   0.0000
     0.0000   0.0000   0.0000   0.0000   0.0000   0.0000   0.0000   0.0000
     0.0000   0.0000   0.0000   0.0000   0.0000   0.0000   0.0000   0.0000
     0.0000   0.0000   0.0000   0.0000   0.0000   0.0000   0.0000   0.0000
     0.0000   0.0000   0.0000   0.0000   0.0000   0.0000   0.0000   0.0000
     0.0000   0.0000   0.0000   0.0000   0.0000   0.0000   0.0000   0.0000
     0.0000   0.0000   0.0000   0.0000   0.0000   0.0000   0.0000   0.0000
     0.0000   0.0000   0.0000   0.0000   0.0000   0.0000   0.0000   0.0000
     0.0000   0.0000   0.0000   0.0000   0.0000   0.0000   0.0000   0.0000
     0.0000   0.0000   0.0000   0.0000   0.0000   0.0000   0.0000   0.0000
     0.0000   0.0000   0.0000   0.0000   0.0000   0.0000   0.0000   0.0000
     0.0000   0.0000   0.0000   0.0000   0.0000   0.0000   0.0000   0.0000
     0.0000   0.0000   0.0000   0.0000   0.0000   0.0000   0.0000   0.0000
     0.0000   0.0000   0.0000   0.0000   0.0000   0.0000   0.0000   0.0000
     0.0000   0.0000   0.0000   0.0000   0.0000   0.0000   0.0000   0.0000
     0.0000   0.0000   0.0000   0.0000   0.0000   0.0000   0.0000   0.0000
     0.0000   0.0000   0.0000   0.0000   0.0000   0.0000   0.0000   0.0000
     0.0000   0.0000   0.0000   0.0000   0.0000   0.0000   0.0000   0.0000
     0.0000   0.0000   0.0000   0.0000   0.0000   0.0000   0.0000   0.0000
     0.0000   0.0000   0.0000   0.0000   0.0000   0.0000   0.0000   0.0000
     0.0000   0.0000   0.0000   0.0000   0.0000   0.0000   0.0000   0.0000
     0.0000   0.0000   0.0000   0.0000   0.0000   0.0000   0.0000   0.0000

     highest occupied, lowest unoccupied level (ev):    14.4483   17.4041

!    total energy              =   -2456.20015252 Ry
     estimated scf accuracy    <          5.1E-09 Ry

     total magnetization       =     2.00 Bohr mag/cell
     absolute magnetization    =     2.37 Bohr mag/cell

     convergence has been achieved in   2 iterations

     Using ACE for calculation of exact exchange
     ACE projected onto   864 (nbndproj) and applied to   864 (nbnd) bands

     total energy              =   -2456.20015254 Ry
     Harris-Foulkes estimate   =   -2456.20015253 Ry
     est. exchange err (dexx)  =       0.00000002 Ry
     - averaged Fock potential =     249.82221720 Ry
     + Fock energy (ACE)       =    -124.91120565 Ry

     EXX: now go back to refine exchange calculation

     total cpu time spent up to now is     1353.4 secs

     Self-consistent Calculation

     iteration #  1     ecut=    60.00 Ry     beta= 0.30
     Davidson diagonalization with overlap

---- Real-time Memory Report at c_bands before calling an iterative solver
          1658 MiB given to the printing process from OS
             0 MiB allocation reported by mallinfo(arena+hblkhd)
         28235 MiB available memory on the node where the printing process lives
------------------
     ethr =  1.57E-12,  avg # of iterations = 18.5
 
     Magnetic moment per site  (integrated on atomic sphere of radius R)
     atom   1 (R=0.057)  charge=  1.7811  magn=  0.0001
     atom   2 (R=0.057)  charge=  1.7806  magn= -0.0000
     atom   3 (R=0.057)  charge=  1.7816  magn=  0.0001
     atom   4 (R=0.057)  charge=  1.7804  magn=  0.0001
     atom   5 (R=0.057)  charge=  1.7811  magn=  0.0004
     atom   6 (R=0.057)  charge=  1.7801  magn=  0.0000
     atom   7 (R=0.057)  charge=  1.7811  magn=  0.0004
     atom   8 (R=0.057)  charge=  1.7801  magn=  0.0000
     atom   9 (R=0.057)  charge=  1.7815  magn=  0.0011
     atom  10 (R=0.057)  charge=  1.7800  magn= -0.0001
     atom  11 (R=0.057)  charge=  1.7788  magn=  0.0002
     atom  12 (R=0.057)  charge=  1.7834  magn=  0.0027
     atom  13 (R=0.057)  charge=  1.7826  magn=  0.0011
     atom  14 (R=0.057)  charge=  1.7850  magn=  0.0011
     atom  15 (R=0.057)  charge=  1.7820  magn=  0.0001
     atom  16 (R=0.057)  charge=  1.7822  magn= -0.0000
     atom  17 (R=0.057)  charge=  1.7803  magn=  0.0002
     atom  18 (R=0.057)  charge=  1.7816  magn= -0.0001
     atom  19 (R=0.057)  charge=  1.7812  magn=  0.0011
     atom  20 (R=0.057)  charge=  1.7808  magn= -0.0001
     atom  21 (R=0.057)  charge=  1.7811  magn=  0.0001
     atom  22 (R=0.057)  charge=  1.7806  magn= -0.0000
     atom  23 (R=0.057)  charge=  1.7817  magn=  0.0015
     atom  24 (R=0.057)  charge=  1.7811  magn= -0.0001
     atom  25 (R=0.057)  charge=  1.7815  magn=  0.0011
     atom  26 (R=0.057)  charge=  1.7800  magn= -0.0001
     atom  27 (R=0.057)  charge=  1.7788  magn=  0.0002
     atom  28 (R=0.057)  charge=  1.7834  magn=  0.0027
     atom  29 (R=0.057)  charge=  1.7820  magn=  0.0001
     atom  30 (R=0.057)  charge=  1.7822  magn= -0.0000
     atom  31 (R=0.057)  charge=  1.7826  magn=  0.0011
     atom  32 (R=0.057)  charge=  1.7850  magn=  0.0011
     atom  33 (R=0.057)  charge=  1.7819  magn=  0.0003
     atom  34 (R=0.057)  charge=  1.7795  magn= -0.0009
     atom  35 (R=0.057)  charge=  1.7820  magn=  0.0061
     atom  36 (R=0.057)  charge=  1.7825  magn= -0.0012
     atom  37 (R=0.057)  charge=  1.7805  magn=  0.0001
     atom  38 (R=0.057)  charge=  1.7813  magn= -0.0002
     atom  39 (R=0.057)  charge=  1.7805  magn=  0.0001
     atom  40 (R=0.057)  charge=  1.7813  magn= -0.0002
     atom  41 (R=0.057)  charge=  1.7769  magn=  0.0181
     atom  42 (R=0.057)  charge=  1.7803  magn= -0.0014
     atom  43 (R=0.057)  charge=  1.7817  magn=  0.0171
     atom  44 (R=0.057)  charge=  1.7861  magn=  0.0014
     atom  45 (R=0.057)  charge=  1.7815  magn=  0.0011
     atom  46 (R=0.057)  charge=  1.7800  magn= -0.0001
     atom  47 (R=0.057)  charge=  1.7809  magn=  0.0014
     atom  48 (R=0.057)  charge=  1.7814  magn= -0.0002
     atom  49 (R=0.057)  charge=  1.7803  magn=  0.0002
     atom  50 (R=0.057)  charge=  1.7816  magn= -0.0001
     atom  51 (R=0.057)  charge=  1.7812  magn=  0.0011
     atom  52 (R=0.057)  charge=  1.7808  magn= -0.0001
     atom  53 (R=0.057)  charge=  1.7817  magn=  0.0015
     atom  54 (R=0.057)  charge=  1.7811  magn= -0.0001
     atom  55 (R=0.057)  charge=  1.7811  magn=  0.0001
     atom  56 (R=0.057)  charge=  1.7806  magn= -0.0000
     atom  57 (R=0.057)  charge=  1.7769  magn=  0.0181
     atom  58 (R=0.057)  charge=  1.7803  magn= -0.0014
     atom  59 (R=0.057)  charge=  1.7817  magn=  0.0171
     atom  60 (R=0.057)  charge=  1.7861  magn=  0.0014
     atom  61 (R=0.057)  charge=  1.7809  magn=  0.0014
     atom  62 (R=0.057)  charge=  1.7814  magn= -0.0002
     atom  63 (R=0.057)  charge=  1.7815  magn=  0.0011
     atom  64 (R=0.057)  charge=  1.7800  magn= -0.0001
     atom  65 (R=0.057)  charge=  1.7799  magn=  0.0073
     atom  66 (R=0.057)  charge=  1.7797  magn= -0.0005
     atom  67 (R=0.057)  charge=  1.7801  magn=  0.0002
     atom  68 (R=0.057)  charge=  1.7810  magn= -0.0001
     atom  69 (R=0.057)  charge=  1.7803  magn=  0.0002
     atom  70 (R=0.057)  charge=  1.7816  magn= -0.0001
     atom  71 (R=0.057)  charge=  1.7803  magn=  0.0002
     atom  72 (R=0.057)  charge=  1.7816  magn= -0.0001
     atom  73 (R=0.057)  charge=  1.7811  magn=  0.0004
     atom  74 (R=0.057)  charge=  1.7801  magn=  0.0000
     atom  75 (R=0.057)  charge=  1.7819  magn=  0.0001
     atom  76 (R=0.057)  charge=  1.7818  magn=  0.0000
     atom  77 (R=0.057)  charge=  1.7820  magn=  0.0001
     atom  78 (R=0.057)  charge=  1.7822  magn= -0.0000
     atom  79 (R=0.057)  charge=  1.7820  magn=  0.0001
     atom  80 (R=0.057)  charge=  1.7822  magn= -0.0000
     atom  81 (R=0.057)  charge=  1.7820  magn=  0.0001
     atom  82 (R=0.057)  charge=  1.7822  magn= -0.0000
     atom  83 (R=0.057)  charge=  1.7842  magn=  0.0002
     atom  84 (R=0.057)  charge=  1.7870  magn=  0.0001
     atom  85 (R=0.057)  charge=  1.7805  magn=  0.0001
     atom  86 (R=0.057)  charge=  1.7813  magn= -0.0002
     atom  87 (R=0.057)  charge=  1.7845  magn=  0.0000
     atom  88 (R=0.057)  charge=  1.7831  magn= -0.0001
     atom  89 (R=0.057)  charge=  1.7817  magn=  0.0015
     atom  90 (R=0.057)  charge=  1.7811  magn= -0.0001
     atom  91 (R=0.057)  charge=  1.7816  magn=  0.0001
     atom  92 (R=0.057)  charge=  1.7804  magn=  0.0001
     atom  93 (R=0.057)  charge=  1.7815  magn=  0.0011
     atom  94 (R=0.057)  charge=  1.7800  magn= -0.0001
     atom  95 (R=0.057)  charge=  1.7804  magn=  0.0002
     atom  96 (R=0.057)  charge=  1.7756  magn= -0.0003
     atom  97 (R=0.057)  charge=  1.7820  magn=  0.0001
     atom  98 (R=0.057)  charge=  1.7822  magn= -0.0000
     atom  99 (R=0.057)  charge=  1.7842  magn=  0.0002
     atom 100 (R=0.057)  charge=  1.7870  magn=  0.0001
     atom 101 (R=0.057)  charge=  1.7845  magn=  0.0000
     atom 102 (R=0.057)  charge=  1.7831  magn= -0.0001
     atom 103 (R=0.057)  charge=  1.7805  magn=  0.0001
     atom 104 (R=0.057)  charge=  1.7813  magn= -0.0002
     atom 105 (R=0.057)  charge=  1.7845  magn=  0.0000
     atom 106 (R=0.057)  charge=  1.7831  magn= -0.0001
     atom 107 (R=0.057)  charge=  1.7810  magn=  0.0007
     atom 108 (R=0.057)  charge=  1.7850  magn= -0.0007
     atom 109 (R=0.057)  charge=  1.7915  magn=  0.0001
     atom 110 (R=0.057)  charge=  1.7611  magn=  0.0005
     atom 111 (R=0.057)  charge=  1.7915  magn=  0.0001
     atom 112 (R=0.057)  charge=  1.7611  magn=  0.0005
     atom 113 (R=0.057)  charge=  1.7804  magn=  0.0002
     atom 114 (R=0.057)  charge=  1.7756  magn= -0.0003
     atom 115 (R=0.057)  charge=  1.7788  magn=  0.0002
     atom 116 (R=0.057)  charge=  1.7834  magn=  0.0027
     atom 117 (R=0.057)  charge=  1.7819  magn=  0.0003
     atom 118 (R=0.057)  charge=  1.7795  magn= -0.0009
     atom 119 (R=0.057)  charge=  1.7765  magn=  0.0039
     atom 120 (R=0.057)  charge=  1.7822  magn= -0.0065
     atom 121 (R=0.057)  charge=  1.7817  magn=  0.0015
     atom 122 (R=0.057)  charge=  1.7811  magn= -0.0001
     atom 123 (R=0.057)  charge=  1.7816  magn=  0.0001
     atom 124 (R=0.057)  charge=  1.7804  magn=  0.0001
     atom 125 (R=0.057)  charge=  1.7804  magn=  0.0002
     atom 126 (R=0.057)  charge=  1.7756  magn= -0.0003
     atom 127 (R=0.057)  charge=  1.7815  magn=  0.0011
     atom 128 (R=0.057)  charge=  1.7800  magn= -0.0001
     atom 129 (R=0.057)  charge=  1.7804  magn=  0.0002
     atom 130 (R=0.057)  charge=  1.7756  magn= -0.0003
     atom 131 (R=0.057)  charge=  1.7788  magn=  0.0002
     atom 132 (R=0.057)  charge=  1.7834  magn=  0.0027
     atom 133 (R=0.057)  charge=  1.7765  magn=  0.0039
     atom 134 (R=0.057)  charge=  1.7822  magn= -0.0065
     atom 135 (R=0.057)  charge=  1.7819  magn=  0.0003
     atom 136 (R=0.057)  charge=  1.7795  magn= -0.0009
     atom 137 (R=0.057)  charge=  1.7811  magn=  0.0008
     atom 138 (R=0.057)  charge=  1.7809  magn= -0.0014
     atom 139 (R=0.057)  charge=  1.7812  magn=  0.0011
     atom 140 (R=0.057)  charge=  1.7808  magn= -0.0001
     atom 141 (R=0.057)  charge=  1.7769  magn=  0.0181
     atom 142 (R=0.057)  charge=  1.7803  magn= -0.0014
     atom 143 (R=0.057)  charge=  1.7769  magn=  0.0181
     atom 144 (R=0.057)  charge=  1.7803  magn= -0.0014
     atom 145 (R=0.057)  charge=  1.7826  magn=  0.0011
     atom 146 (R=0.057)  charge=  1.7850  magn=  0.0011
     atom 147 (R=0.057)  charge=  1.7842  magn=  0.0002
     atom 148 (R=0.057)  charge=  1.7870  magn=  0.0001
     atom 149 (R=0.057)  charge=  1.7817  magn=  0.0015
     atom 150 (R=0.057)  charge=  1.7811  magn= -0.0001
     atom 151 (R=0.057)  charge=  1.7817  magn=  0.0015
     atom 152 (R=0.057)  charge=  1.7811  magn= -0.0001
     atom 153 (R=0.057)  charge=  1.7805  magn=  0.0001
     atom 154 (R=0.057)  charge=  1.7813  magn= -0.0002
     atom 155 (R=0.057)  charge=  1.7810  magn=  0.0007
     atom 156 (R=0.057)  charge=  1.7850  magn= -0.0007
     atom 157 (R=0.057)  charge=  1.7809  magn=  0.0014
     atom 158 (R=0.057)  charge=  1.7814  magn= -0.0002
     atom 159 (R=0.057)  charge=  1.7804  magn=  0.0002
     atom 160 (R=0.057)  charge=  1.7756  magn= -0.0003
     atom 161 (R=0.057)  charge=  1.7809  magn=  0.0014
     atom 162 (R=0.057)  charge=  1.7814  magn= -0.0002
     atom 163 (R=0.057)  charge=  1.7788  magn=  0.0002
     atom 164 (R=0.057)  charge=  1.7834  magn=  0.0027
     atom 165 (R=0.057)  charge=  1.7803  magn=  0.0002
     atom 166 (R=0.057)  charge=  1.7816  magn= -0.0001
     atom 167 (R=0.057)  charge=  1.7811  magn=  0.0008
     atom 168 (R=0.057)  charge=  1.7809  magn= -0.0014
     atom 169 (R=0.057)  charge=  1.7805  magn=  0.0001
     atom 170 (R=0.057)  charge=  1.7813  magn= -0.0002
     atom 171 (R=0.057)  charge=  1.7810  magn=  0.0007
     atom 172 (R=0.057)  charge=  1.7850  magn= -0.0007
     atom 173 (R=0.057)  charge=  1.7804  magn=  0.0002
     atom 174 (R=0.057)  charge=  1.7756  magn= -0.0003
     atom 175 (R=0.057)  charge=  1.7809  magn=  0.0014
     atom 176 (R=0.057)  charge=  1.7814  magn= -0.0002
     atom 177 (R=0.057)  charge=  1.7915  magn=  0.0001
     atom 178 (R=0.057)  charge=  1.7611  magn=  0.0005
     atom 179 (R=0.057)  charge=  1.7765  magn=  0.0039
     atom 180 (R=0.057)  charge=  1.7822  magn= -0.0065
     atom 181 (R=0.057)  charge=  1.7765  magn=  0.0039
     atom 182 (R=0.057)  charge=  1.7822  magn= -0.0065
     atom 183 (R=0.057)  charge=  1.7765  magn=  0.0039
     atom 184 (R=0.057)  charge=  1.7822  magn= -0.0065
     atom 185 (R=0.057)  charge=  1.7820  magn=  0.0061
     atom 186 (R=0.057)  charge=  1.7825  magn= -0.0012
     atom 187 (R=0.057)  charge=  1.7769  magn=  0.0181
     atom 188 (R=0.057)  charge=  1.7803  magn= -0.0014
     atom 189 (R=0.057)  charge=  1.7894  magn=  0.2591
     atom 190 (R=0.057)  charge=  1.7893  magn= -0.0109
     atom 191 (R=0.057)  charge=  1.7809  magn=  0.0014
     atom 192 (R=0.057)  charge=  1.7814  magn= -0.0002
     atom 193 (R=0.057)  charge=  1.7788  magn=  0.0002
     atom 194 (R=0.057)  charge=  1.7834  magn=  0.0027
     atom 195 (R=0.057)  charge=  1.7811  magn=  0.0008
     atom 196 (R=0.057)  charge=  1.7809  magn= -0.0014
     atom 197 (R=0.057)  charge=  1.7803  magn=  0.0002
     atom 198 (R=0.057)  charge=  1.7816  magn= -0.0001
     atom 199 (R=0.057)  charge=  1.7765  magn=  0.0039
     atom 200 (R=0.057)  charge=  1.7822  magn= -0.0065
     atom 201 (R=0.057)  charge=  1.7820  magn=  0.0061
     atom 202 (R=0.057)  charge=  1.7825  magn= -0.0012
     atom 203 (R=0.057)  charge=  1.7894  magn=  0.2591
     atom 204 (R=0.057)  charge=  1.7893  magn= -0.0109
     atom 205 (R=0.057)  charge=  1.7769  magn=  0.0181
     atom 206 (R=0.057)  charge=  1.7803  magn= -0.0014
     atom 207 (R=0.057)  charge=  1.7894  magn=  0.2591
     atom 208 (R=0.057)  charge=  1.7893  magn= -0.0109
     atom 209 (R=0.057)  charge=  1.7817  magn=  0.0171
     atom 210 (R=0.057)  charge=  1.7861  magn=  0.0014
     atom 211 (R=0.057)  charge=  1.7799  magn=  0.0073
     atom 212 (R=0.057)  charge=  1.7797  magn= -0.0005
     atom 213 (R=0.057)  charge=  1.7799  magn=  0.0073
     atom 214 (R=0.057)  charge=  1.7797  magn= -0.0005
     atom 215 (R=0.057)  charge=  2.8736  magn= -0.0014

     total cpu time spent up to now is     1378.8 secs

     End of self-consistent calculation

 ------ SPIN UP ------------


          k = 0.0000 0.0000 0.0000 ( 31995 PWs)   bands (ev):

   -10.4675  -9.5904  -9.3846  -9.3846  -9.3379  -9.3379  -9.2526  -8.6884
    -8.3122  -8.3122  -8.3030  -8.3030  -8.2867  -8.2616  -8.2616  -8.2486
    -8.2059  -8.2059  -8.0298  -7.4925  -7.2165  -7.2084  -7.2084  -7.1885
    -7.1885  -7.1825  -7.0202  -6.3561  -6.1440  -6.1440  -6.1255  -6.1255
    -6.0646  -5.7216  -5.1886  -5.1886  -5.1789  -5.1785  -5.1785  -5.1639
    -5.1633  -5.1633  -5.1517  -5.1437  -5.1437  -5.1371  -5.1371  -5.1341
    -5.1100  -5.1100  -5.0913  -5.0913  -5.0873  -5.0669  -5.0111  -5.0111
    -4.8172  -4.6033  -4.3620  -4.3620  -4.3279  -4.3270  -4.3270  -4.3130
    -4.3082  -4.3082  -4.3046  -4.2974  -4.2974  -4.2761  -4.2684  -4.2684
    -4.2492  -4.2492  -4.2127  -4.2127  -4.2115  -4.1741  -4.0866  -4.0866
    -3.3617  -2.7028  -2.5214  -2.5214  -2.4798  -2.4798  -2.4734  -2.4719
    -2.4719  -2.4581  -2.4255  -2.4255  -2.0553  -1.1736  -1.1133  -1.1133
    -1.0894  -1.0894  -1.0478  -0.8172  -0.6194  -0.6194  -0.5778  -0.5698
    -0.5698  -0.5594  -0.5594  -0.5569  -0.5561  -0.5362  -0.5362  -0.5292
    -0.5292  -0.5058  -0.4672  -0.4572  -0.4572  -0.4283  -0.4283  -0.4260
    -0.4117  -0.4117  -0.3465  -0.3211  -0.3211  -0.3160  -0.2949  -0.2935
    -0.2935  -0.2880  -0.2833  -0.2833  -0.2772  -0.2612  -0.2612  -0.2406
    -0.2406  -0.2336  -0.2276  -0.2276  -0.2248  -0.2248  -0.2193   0.0120
     0.1257   0.1257   0.5470   0.8306   0.8334   0.8334   0.8783   0.8814
     0.8814   0.8897   0.9113   0.9113   1.0368   1.0368   2.0808   2.5109
     2.5109   2.5177   2.5864   2.5902   2.5992   2.5992   2.6028   2.6067
     2.6067   2.6197   2.6201   2.6261   2.6261   2.6438   2.6438   2.7725
     2.7725   2.7760   2.7943   3.1802   3.1802   3.1987   3.2830   3.2879
     3.2897   3.2897   3.2920   3.2920   3.3037   3.3037   3.3063   3.3141
     3.3141   3.3151   3.3251   3.3251   3.3433   3.3508   3.3547   3.3547
     3.5575   3.5575   4.1789   4.1829   4.1829   4.2517   4.2534   4.2534
     4.2570   4.2642   4.2642   4.2758   4.2758   4.2846   4.2957   4.2957
     4.3486   4.3486   4.3543   4.3657   4.3798   4.4061   4.4061   4.4744
     4.4948   4.4948   4.5452   4.7155   4.7155   4.7868   4.8223   4.8223
     4.8377   4.8397   4.8397   4.8454   4.8454   4.8493   4.8518   4.8666
     4.8714   4.8714   4.8816   4.8854   4.8854   4.8962   4.9056   4.9153
     4.9153   4.9321   4.9321   4.9706   4.9706   5.2959   5.3372   5.3372
     5.9014   5.9014   5.9650   5.9793   5.9949   5.9949   6.0706   6.4678
     6.4678   6.5427   6.5551   6.5551   6.5713   6.5713   6.5717   6.5958
     6.6576   6.6576   6.8502   6.8502   6.9530   6.9906   7.0055   7.0083
     7.0083   7.0093   7.0093   7.0421   7.0720   7.0720   7.0746   7.2268
     7.2268   7.2515   7.2808   7.2852   7.2852   7.3008   7.3044   7.3044
     7.3059   7.3059   7.3139   7.3149   7.3235   7.3235   7.3505   7.3505
     7.3652   7.3652   7.3725   7.3780   7.3780   7.3826   7.4467   7.4467
     7.4731   7.5114   7.5116   7.5169   7.5169   7.5172   7.5239   7.5239
     7.5287   7.5294   7.5294   7.5319   7.5449   7.5449   7.5530   7.5575
     7.5575   7.5610   7.5610   7.5661   7.5661   7.5669   7.5704   7.5738
     7.5738   7.5944   7.5944   7.5953   7.6132   7.6209   7.6209   7.6449
     7.6449   7.6635   7.6635   7.6766   7.6881   7.7253   7.7253   7.7319
     7.7447   7.8279   7.8279   8.1341   8.1427   8.1427   8.3345   8.3345
     8.4043   8.4043   8.4068   8.4145   8.4353   8.4401   8.4416   8.4416
     8.4622   8.4622   8.4675   8.4675   8.4775   8.4807   8.4807   8.5083
     8.5497   8.5497   8.6221   9.3034   9.4456   9.4456   9.7365   9.9067
     9.9067   9.9702   9.9702   9.9705   9.9785   9.9865   9.9865   9.9928
    10.0602  10.0602  10.0702  10.1563  10.1563  10.2141  10.2224  10.2224
    10.2267  10.2267  10.2348  10.2348  10.2505  10.2619  10.2619  10.2829
    10.2890  10.2890  10.2989  10.3220  10.3220  10.9218  10.9558  10.9558
    11.1411  11.2072  11.2072  11.2203  11.2475  11.2476  11.2476  11.2762
    11.3070  11.3070  12.4184  12.5607  12.5607  13.3114  14.4482  14.4482
    18.3365  18.3365  18.3559  18.3899  18.3899  18.4154  18.9117  18.9791
    18.9791  18.9941  18.9941  19.0672  19.1980  19.1980  19.2395  19.2972
    19.2972  19.3168  19.9918  19.9918  20.0189  20.5402  20.6091  20.6091
    20.6207  20.6600  20.6600  20.6689  20.6689  20.6787  20.6900  20.6900
    20.7326  21.2421  21.4040  21.4040  21.4379  21.4379  21.4383  21.4435
    21.4435  21.4459  21.4503  21.4503  21.4675  21.4774  21.4865  21.4865
    21.5061  21.5075  21.5075  21.5582  21.5582  21.5700  21.5958  21.5992
    21.5992  21.9245  21.9831  21.9831  22.0577  22.0604  22.0604  22.0683
    22.0689  22.0689  22.0736  22.0818  22.0818  22.0824  22.0993  22.0993
    22.1028  22.1028  22.1109  22.1162  22.1162  22.1200  22.1277  22.1277
    22.1435  22.1541  22.1541  22.1546  22.1745  22.1745  22.1769  22.1818
    22.1818  22.1835  22.2243  22.2243  22.2588  22.3022  22.3036  22.3036
    22.4029  22.4033  22.4033  22.5117  22.5665  22.5665  22.5696  22.6005
    22.6005  22.6032  22.6083  22.6083  22.6156  22.6347  22.6347  22.6732
    22.6732  22.6838  22.6924  22.6924  22.6955  22.7396  22.7396  22.7493
    22.7680  22.7704  22.7704  22.7845  22.7845  22.7877  22.7877  22.8012
    22.8138  22.8138  22.8147  22.8254  22.8254  22.8475  23.0252  23.0252
    23.0288  23.0524  23.0524  23.0645  23.0806  23.0905  23.0946  23.0946
    23.1023  23.1023  23.1456  23.1680  23.1680  23.1810  23.2124  23.2369
    23.2369  23.3586  23.3586  23.3875  23.3912  23.3912  23.5592  23.5592
    23.5637  23.6073  23.6073  23.6368  23.6374  23.6404  23.6404  23.7297
    23.7538  23.7538  23.8193  23.8638  23.8638  23.8843  23.8938  23.8938
    24.0695  24.0695  24.0755  24.2418  24.3197  24.3197  24.3251  24.3949
    24.3949  24.3988  24.4063  24.4063  24.4146  24.4146  24.4294  24.4341
    24.4348  24.4348  24.4461  24.4773  24.5148  24.5148  24.5473  24.5912
    24.6233  24.6233  24.7071  24.7071  24.8294  24.8621  24.8621  25.3330
    25.3414  25.3414  25.3449  25.3591  25.3608  25.3608  25.3833  25.3833
    25.3869  25.4066  25.4066  25.4186  25.4186  25.4468  25.4514  25.4894
    25.5213  25.5272  25.5272  25.6854  25.6854  25.7931  25.7931  25.8645
    25.8687  25.8687  25.8873  25.9226  25.9226  25.9278  25.9278  25.9283
    25.9451  25.9854  25.9854  25.9879  26.0298  26.0298  26.0344  26.0345
    26.0585  26.0585  26.0674  26.0966  26.1350  26.1373  26.1373  26.1540
    26.1653  26.1697  26.1697  26.1820  26.2083  26.2083  26.2147  26.2327
    26.2327  26.2523  26.2523  26.2714  26.2888  26.3127  26.3127  26.4343
    26.4343  26.5186  26.5186  27.1427  27.1818  27.1818  27.3000  27.4670
    27.4753  27.4753  27.4909  27.4909  27.7903  27.8062  27.8120  27.8120
    27.8498  27.8721  27.8721  27.9251  27.9430  27.9430  27.9917  28.0633
    28.0633  28.3325  28.3918  28.3918  28.4029  28.4256  28.4458  28.4502
    28.4503  28.4769  28.4769  28.4841  28.4841  28.5005  28.5503  28.5503
    28.5552  28.5643  28.5833  28.5833  28.6297  28.6297  28.6458  28.7139
    28.7139  28.9051  28.9230  28.9230  28.9849  28.9910  28.9910  28.9927
    29.0077  29.0088  29.0088  29.0210  29.0210  29.0250  29.0250  29.0277
    29.0414  29.0576  29.0613  29.0613  29.0811  29.0811  29.0891  29.0954
    29.0954  29.1016  29.1069  29.1069  29.1211  29.1230  29.1276  29.1276
    29.1354  29.1354  29.1432  29.1432  29.1486  29.1486  29.1488  29.1578
    29.1615  29.1722  29.1722  29.1723  29.1885  29.1885  29.2117  29.2521
    29.2521  29.2657  29.2834  29.2834  29.3064  29.3064  29.3163  29.3845
    29.4031  29.4031  29.4163  29.4220  29.4220  29.4390  29.4723  29.4818
    29.4818  29.4926  29.4951  29.4951  29.5013  29.5179  29.5179  29.5540
    29.5739  29.5739  29.6020  29.6060  29.6060  29.6983  29.6983  29.7960
    29.8453  29.8453  29.8553  29.9115  30.0108  30.0108  30.0517  30.0517
    30.0612  30.0925  30.0925  30.1414  30.1565  30.1565  30.1691  30.1854
    30.2022  30.2022  30.3672  30.4506  30.4506  30.4618  31.3641  31.5693
    31.5856  31.5856  31.5963  31.5963  31.6253  31.6488  31.6488  31.8103

     occupation numbers 
     1.0000   1.0000   1.0000   1.0000   1.0000   1.0000   1.0000   1.0000
     1.0000   1.0000   1.0000   1.0000   1.0000   1.0000   1.0000   1.0000
     1.0000   1.0000   1.0000   1.0000   1.0000   1.0000   1.0000   1.0000
     1.0000   1.0000   1.0000   1.0000   1.0000   1.0000   1.0000   1.0000
     1.0000   1.0000   1.0000   1.0000   1.0000   1.0000   1.0000   1.0000
     1.0000   1.0000   1.0000   1.0000   1.0000   1.0000   1.0000   1.0000
     1.0000   1.0000   1.0000   1.0000   1.0000   1.0000   1.0000   1.0000
     1.0000   1.0000   1.0000   1.0000   1.0000   1.0000   1.0000   1.0000
     1.0000   1.0000   1.0000   1.0000   1.0000   1.0000   1.0000   1.0000
     1.0000   1.0000   1.0000   1.0000   1.0000   1.0000   1.0000   1.0000
     1.0000   1.0000   1.0000   1.0000   1.0000   1.0000   1.0000   1.0000
     1.0000   1.0000   1.0000   1.0000   1.0000   1.0000   1.0000   1.0000
     1.0000   1.0000   1.0000   1.0000   1.0000   1.0000   1.0000   1.0000
     1.0000   1.0000   1.0000   1.0000   1.0000   1.0000   1.0000   1.0000
     1.0000   1.0000   1.0000   1.0000   1.0000   1.0000   1.0000   1.0000
     1.0000   1.0000   1.0000   1.0000   1.0000   1.0000   1.0000   1.0000
     1.0000   1.0000   1.0000   1.0000   1.0000   1.0000   1.0000   1.0000
     1.0000   1.0000   1.0000   1.0000   1.0000   1.0000   1.0000   1.0000
     1.0000   1.0000   1.0000   1.0000   1.0000   1.0000   1.0000   1.0000
     1.0000   1.0000   1.0000   1.0000   1.0000   1.0000   1.0000   1.0000
     1.0000   1.0000   1.0000   1.0000   1.0000   1.0000   1.0000   1.0000
     1.0000   1.0000   1.0000   1.0000   1.0000   1.0000   1.0000   1.0000
     1.0000   1.0000   1.0000   1.0000   1.0000   1.0000   1.0000   1.0000
     1.0000   1.0000   1.0000   1.0000   1.0000   1.0000   1.0000   1.0000
     1.0000   1.0000   1.0000   1.0000   1.0000   1.0000   1.0000   1.0000
     1.0000   1.0000   1.0000   1.0000   1.0000   1.0000   1.0000   1.0000
     1.0000   1.0000   1.0000   1.0000   1.0000   1.0000   1.0000   1.0000
     1.0000   1.0000   1.0000   1.0000   1.0000   1.0000   1.0000   1.0000
     1.0000   1.0000   1.0000   1.0000   1.0000   1.0000   1.0000   1.0000
     1.0000   1.0000   1.0000   1.0000   1.0000   1.0000   1.0000   1.0000
     1.0000   1.0000   1.0000   1.0000   1.0000   1.0000   1.0000   1.0000
     1.0000   1.0000   1.0000   1.0000   1.0000   1.0000   1.0000   1.0000
     1.0000   1.0000   1.0000   1.0000   1.0000   1.0000   1.0000   1.0000
     1.0000   1.0000   1.0000   1.0000   1.0000   1.0000   1.0000   1.0000
     1.0000   1.0000   1.0000   1.0000   1.0000   1.0000   1.0000   1.0000
     1.0000   1.0000   1.0000   1.0000   1.0000   1.0000   1.0000   1.0000
     1.0000   1.0000   1.0000   1.0000   1.0000   1.0000   1.0000   1.0000
     1.0000   1.0000   1.0000   1.0000   1.0000   1.0000   1.0000   1.0000
     1.0000   1.0000   1.0000   1.0000   1.0000   1.0000   1.0000   1.0000
     1.0000   1.0000   1.0000   1.0000   1.0000   1.0000   1.0000   1.0000
     1.0000   1.0000   1.0000   1.0000   1.0000   1.0000   1.0000   1.0000
     1.0000   1.0000   1.0000   1.0000   1.0000   1.0000   1.0000   1.0000
     1.0000   1.0000   1.0000   1.0000   1.0000   1.0000   1.0000   1.0000
     1.0000   1.0000   1.0000   1.0000   1.0000   1.0000   1.0000   1.0000
     1.0000   1.0000   1.0000   1.0000   1.0000   1.0000   1.0000   1.0000
     1.0000   1.0000   1.0000   1.0000   1.0000   1.0000   1.0000   1.0000
     1.0000   1.0000   1.0000   1.0000   1.0000   1.0000   1.0000   1.0000
     1.0000   1.0000   1.0000   1.0000   1.0000   1.0000   1.0000   1.0000
     1.0000   1.0000   1.0000   1.0000   1.0000   1.0000   1.0000   1.0000
     1.0000   1.0000   1.0000   1.0000   1.0000   1.0000   1.0000   1.0000
     1.0000   1.0000   1.0000   1.0000   1.0000   1.0000   1.0000   1.0000
     1.0000   1.0000   1.0000   1.0000   1.0000   1.0000   1.0000   1.0000
     1.0000   1.0000   1.0000   1.0000   1.0000   1.0000   1.0000   1.0000
     1.0000   1.0000   1.0000   1.0000   1.0000   1.0000   1.0000   1.0000
     0.0000   0.0000   0.0000   0.0000   0.0000   0.0000   0.0000   0.0000
     0.0000   0.0000   0.0000   0.0000   0.0000   0.0000   0.0000   0.0000
     0.0000   0.0000   0.0000   0.0000   0.0000   0.0000   0.0000   0.0000
     0.0000   0.0000   0.0000   0.0000   0.0000   0.0000   0.0000   0.0000
     0.0000   0.0000   0.0000   0.0000   0.0000   0.0000   0.0000   0.0000
     0.0000   0.0000   0.0000   0.0000   0.0000   0.0000   0.0000   0.0000
     0.0000   0.0000   0.0000   0.0000   0.0000   0.0000   0.0000   0.0000
     0.0000   0.0000   0.0000   0.0000   0.0000   0.0000   0.0000   0.0000
     0.0000   0.0000   0.0000   0.0000   0.0000   0.0000   0.0000   0.0000
     0.0000   0.0000   0.0000   0.0000   0.0000   0.0000   0.0000   0.0000
     0.0000   0.0000   0.0000   0.0000   0.0000   0.0000   0.0000   0.0000
     0.0000   0.0000   0.0000   0.0000   0.0000   0.0000   0.0000   0.0000
     0.0000   0.0000   0.0000   0.0000   0.0000   0.0000   0.0000   0.0000
     0.0000   0.0000   0.0000   0.0000   0.0000   0.0000   0.0000   0.0000
     0.0000   0.0000   0.0000   0.0000   0.0000   0.0000   0.0000   0.0000
     0.0000   0.0000   0.0000   0.0000   0.0000   0.0000   0.0000   0.0000
     0.0000   0.0000   0.0000   0.0000   0.0000   0.0000   0.0000   0.0000
     0.0000   0.0000   0.0000   0.0000   0.0000   0.0000   0.0000   0.0000
     0.0000   0.0000   0.0000   0.0000   0.0000   0.0000   0.0000   0.0000
     0.0000   0.0000   0.0000   0.0000   0.0000   0.0000   0.0000   0.0000
     0.0000   0.0000   0.0000   0.0000   0.0000   0.0000   0.0000   0.0000
     0.0000   0.0000   0.0000   0.0000   0.0000   0.0000   0.0000   0.0000
     0.0000   0.0000   0.0000   0.0000   0.0000   0.0000   0.0000   0.0000
     0.0000   0.0000   0.0000   0.0000   0.0000   0.0000   0.0000   0.0000
     0.0000   0.0000   0.0000   0.0000   0.0000   0.0000   0.0000   0.0000
     0.0000   0.0000   0.0000   0.0000   0.0000   0.0000   0.0000   0.0000
     0.0000   0.0000   0.0000   0.0000   0.0000   0.0000   0.0000   0.0000
     0.0000   0.0000   0.0000   0.0000   0.0000   0.0000   0.0000   0.0000
     0.0000   0.0000   0.0000   0.0000   0.0000   0.0000   0.0000   0.0000
     0.0000   0.0000   0.0000   0.0000   0.0000   0.0000   0.0000   0.0000
     0.0000   0.0000   0.0000   0.0000   0.0000   0.0000   0.0000   0.0000
     0.0000   0.0000   0.0000   0.0000   0.0000   0.0000   0.0000   0.0000
     0.0000   0.0000   0.0000   0.0000   0.0000   0.0000   0.0000   0.0000
     0.0000   0.0000   0.0000   0.0000   0.0000   0.0000   0.0000   0.0000
     0.0000   0.0000   0.0000   0.0000   0.0000   0.0000   0.0000   0.0000
     0.0000   0.0000   0.0000   0.0000   0.0000   0.0000   0.0000   0.0000
     0.0000   0.0000   0.0000   0.0000   0.0000   0.0000   0.0000   0.0000
     0.0000   0.0000   0.0000   0.0000   0.0000   0.0000   0.0000   0.0000
     0.0000   0.0000   0.0000   0.0000   0.0000   0.0000   0.0000   0.0000
     0.0000   0.0000   0.0000   0.0000   0.0000   0.0000   0.0000   0.0000
     0.0000   0.0000   0.0000   0.0000   0.0000   0.0000   0.0000   0.0000
     0.0000   0.0000   0.0000   0.0000   0.0000   0.0000   0.0000   0.0000
     0.0000   0.0000   0.0000   0.0000   0.0000   0.0000   0.0000   0.0000
     0.0000   0.0000   0.0000   0.0000   0.0000   0.0000   0.0000   0.0000
     0.0000   0.0000   0.0000   0.0000   0.0000   0.0000   0.0000   0.0000
     0.0000   0.0000   0.0000   0.0000   0.0000   0.0000   0.0000   0.0000
     0.0000   0.0000   0.0000   0.0000   0.0000   0.0000   0.0000   0.0000
     0.0000   0.0000   0.0000   0.0000   0.0000   0.0000   0.0000   0.0000
     0.0000   0.0000   0.0000   0.0000   0.0000   0.0000   0.0000   0.0000
     0.0000   0.0000   0.0000   0.0000   0.0000   0.0000   0.0000   0.0000
     0.0000   0.0000   0.0000   0.0000   0.0000   0.0000   0.0000   0.0000
     0.0000   0.0000   0.0000   0.0000   0.0000   0.0000   0.0000   0.0000
     0.0000   0.0000   0.0000   0.0000   0.0000   0.0000   0.0000   0.0000
     0.0000   0.0000   0.0000   0.0000   0.0000   0.0000   0.0000   0.0000

 ------ SPIN DOWN ----------


          k = 0.0000 0.0000 0.0000 ( 31995 PWs)   bands (ev):

   -10.4613  -9.5869  -9.3817  -9.3817  -9.3294  -9.3294  -9.2382  -8.6845
    -8.3099  -8.3099  -8.3007  -8.3007  -8.2817  -8.2537  -8.2537  -8.2451
    -8.1856  -8.1856  -8.0005  -7.4869  -7.2107  -7.2017  -7.2017  -7.1752
    -7.1683  -7.1683  -6.9896  -6.3411  -6.1377  -6.1377  -6.1129  -6.1129
    -6.0547  -5.7059  -5.1848  -5.1848  -5.1781  -5.1753  -5.1753  -5.1605
    -5.1589  -5.1589  -5.1502  -5.1407  -5.1407  -5.1325  -5.1325  -5.1313
    -5.0928  -5.0927  -5.0796  -5.0796  -5.0743  -5.0636  -4.9772  -4.9772
    -4.8007  -4.5990  -4.3598  -4.3598  -4.3254  -4.3218  -4.3218  -4.3104
    -4.3030  -4.3030  -4.2941  -4.2902  -4.2902  -4.2660  -4.2628  -4.2628
    -4.2442  -4.2442  -4.1981  -4.1963  -4.1963  -4.1640  -3.9995  -3.9995
    -3.2787  -2.6925  -2.5165  -2.5165  -2.4685  -2.4676  -2.4676  -2.4645
    -2.4645  -2.4514  -2.3837  -2.3837  -1.9774  -1.1573  -1.1091  -1.1091
    -1.0798  -1.0798  -1.0393  -0.7915  -0.6161  -0.6161  -0.5776  -0.5679
    -0.5679  -0.5561  -0.5561  -0.5546  -0.5538  -0.5307  -0.5307  -0.5258
    -0.5258  -0.4967  -0.4531  -0.4455  -0.4455  -0.4190  -0.4163  -0.4163
    -0.3799  -0.3799  -0.3432  -0.3174  -0.3174  -0.3065  -0.2915  -0.2893
    -0.2893  -0.2849  -0.2758  -0.2758  -0.2629  -0.2538  -0.2538  -0.2310
    -0.2310  -0.2257  -0.2181  -0.2181  -0.2074  -0.2073  -0.1777   0.0300
     0.1954   0.1954   0.5766   0.8402   0.8402   0.8512   0.8816   0.8861
     0.8861   0.9011   0.9183   0.9183   1.1182   1.1183   2.1800   2.5183
     2.5183   2.5336   2.5913   2.5979   2.6033   2.6033   2.6115   2.6115
     2.6128   2.6228   2.6282   2.6317   2.6317   2.6562   2.6562   2.7909
     2.7947   2.7947   2.8196   3.1885   3.1885   3.2251   3.2838   3.2922
     3.2922   3.2923   3.2994   3.2994   3.3093   3.3093   3.3100   3.3212
     3.3212   3.3307   3.3339   3.3339   3.3577   3.3637   3.3699   3.3699
     3.6413   3.6413   4.1883   4.1883   4.2034   4.2549   4.2549   4.2557
     4.2585   4.2672   4.2672   4.2804   4.2804   4.2877   4.2995   4.2995
     4.3576   4.3576   4.3676   4.3761   4.3865   4.4238   4.4238   4.4773
     4.5088   4.5088   4.5996   4.7231   4.7231   4.8012   4.8246   4.8246
     4.8438   4.8442   4.8442   4.8545   4.8546   4.8546   4.8602   4.8771
     4.8773   4.8773   4.8940   4.8991   4.8991   4.9119   4.9247   4.9311
     4.9311   4.9541   4.9541   4.9874   4.9874   5.3268   5.4059   5.4059
     5.9098   5.9098   5.9768   5.9888   6.0174   6.0174   6.1828   6.4865
     6.4865   6.5534   6.5587   6.5587   6.5778   6.5816   6.5816   6.6158
     6.6804   6.6804   6.8559   6.8559   6.9805   7.0122   7.0135   7.0135
     7.0210   7.0237   7.0237   7.0551   7.0861   7.0861   7.0920   7.2382
     7.2382   7.2550   7.2841   7.2878   7.2878   7.3039   7.3065   7.3065
     7.3100   7.3100   7.3179   7.3201   7.3268   7.3268   7.3583   7.3583
     7.3788   7.3788   7.3794   7.3890   7.3903   7.3903   7.4548   7.4548
     7.4827   7.5126   7.5195   7.5195   7.5210   7.5279   7.5279   7.5289
     7.5322   7.5322   7.5354   7.5385   7.5494   7.5494   7.5593   7.5639
     7.5639   7.5646   7.5646   7.5722   7.5759   7.5759   7.5888   7.5888
     7.5909   7.6019   7.6046   7.6046   7.6233   7.6351   7.6351   7.6529
     7.6529   7.6786   7.6786   7.7109   7.7149   7.7410   7.7544   7.7544
     7.7565   7.8814   7.8814   8.1507   8.1735   8.1735   8.3415   8.3415
     8.4076   8.4076   8.4109   8.4168   8.4458   8.4474   8.4474   8.4511
     8.4716   8.4716   8.4861   8.4913   8.4913   8.5005   8.5005   8.5150
     8.5818   8.5818   8.6672   9.3228   9.5604   9.5604   9.9300   9.9300
     9.9542   9.9732   9.9732   9.9784   9.9979  10.0070  10.0070  10.0202
    10.0676  10.0676  10.0788  10.1618  10.1618  10.2237  10.2274  10.2274
    10.2372  10.2372  10.2479  10.2479  10.2579  10.2833  10.2833  10.2950
    10.3044  10.3044  10.3254  10.3318  10.3318  10.9351  11.0048  11.0048
    11.2159  11.2159  11.2224  11.2546  11.2546  11.2549  11.2935  11.3299
    11.3299  11.6161  12.6247  12.6296  12.6296  14.2389  17.4045  17.4045
    18.3404  18.3404  18.3680  18.4063  18.4063  18.4267  18.9173  18.9877
    18.9877  19.0018  19.0018  19.0791  19.2030  19.2030  19.2714  19.3240
    19.3240  19.3268  20.0206  20.0206  20.0307  20.5491  20.6121  20.6121
    20.6230  20.6711  20.6711  20.6765  20.6765  20.6830  20.6958  20.6958
    20.7406  21.2473  21.4071  21.4071  21.4401  21.4414  21.4414  21.4476
    21.4498  21.4498  21.4574  21.4574  21.4744  21.4806  21.4924  21.4924
    21.5136  21.5189  21.5189  21.5669  21.5669  21.5786  21.6064  21.6086
    21.6086  21.9288  21.9916  21.9916  22.0594  22.0698  22.0704  22.0704
    22.0725  22.0725  22.0801  22.0845  22.0845  22.0853  22.1036  22.1036
    22.1075  22.1075  22.1133  22.1189  22.1189  22.1243  22.1321  22.1321
    22.1478  22.1598  22.1676  22.1677  22.1861  22.1876  22.1878  22.1878
    22.1958  22.1958  22.2315  22.2316  22.2743  22.3124  22.3124  22.3176
    22.4097  22.4129  22.4129  22.5172  22.5733  22.5733  22.5739  22.6035
    22.6035  22.6083  22.6121  22.6121  22.6165  22.6505  22.6505  22.6883
    22.6883  22.6935  22.7046  22.7046  22.7121  22.7548  22.7548  22.7582
    22.7744  22.7768  22.7768  22.7926  22.7926  22.7987  22.7987  22.8093
    22.8295  22.8295  22.8311  22.8494  22.8494  22.8922  23.0335  23.0393
    23.0393  23.0638  23.0638  23.0703  23.0831  23.0957  23.1000  23.1000
    23.1099  23.1099  23.1567  23.1725  23.1725  23.1873  23.2351  23.2608
    23.2608  23.3921  23.3921  23.3957  23.4051  23.4051  23.5626  23.5626
    23.5672  23.6217  23.6217  23.6427  23.6496  23.6496  23.6516  23.7421
    23.7653  23.7653  23.8352  23.8738  23.8738  23.8949  23.8975  23.8975
    24.0957  24.1182  24.1182  24.3138  24.3332  24.3332  24.3524  24.4009
    24.4029  24.4029  24.4089  24.4089  24.4221  24.4221  24.4357  24.4373
    24.4373  24.4413  24.4526  24.4916  24.5334  24.5334  24.5641  24.6543
    24.7174  24.7174  24.7584  24.7584  24.8537  24.9263  24.9263  25.3355
    25.3463  25.3463  25.3551  25.3617  25.3652  25.3652  25.3859  25.3859
    25.3946  25.4252  25.4252  25.4313  25.4313  25.4590  25.4635  25.5260
    25.5362  25.5563  25.5563  25.7083  25.7083  25.8202  25.8202  25.8715
    25.8741  25.8741  25.8916  25.9258  25.9258  25.9332  25.9332  25.9370
    25.9521  25.9919  25.9919  25.9955  26.0430  26.0430  26.0669  26.0669
    26.0687  26.0687  26.0729  26.1065  26.1416  26.1674  26.1745  26.1745
    26.1805  26.1864  26.1864  26.1883  26.2122  26.2122  26.2206  26.2505
    26.2505  26.2798  26.2798  26.2961  26.3191  26.3413  26.3413  26.5767
    26.5767  26.6095  26.6095  27.2047  27.2424  27.2424  27.3280  27.4729
    27.4936  27.4936  27.5060  27.5060  27.7954  27.8098  27.8178  27.8178
    27.8768  27.8823  27.8823  27.9390  27.9623  27.9623  28.0089  28.0964
    28.0964  28.3510  28.4030  28.4030  28.4149  28.4352  28.4507  28.4565
    28.4565  28.4835  28.4835  28.4937  28.4938  28.5130  28.5608  28.5608
    28.5617  28.5793  28.5893  28.5893  28.6443  28.6443  28.6497  28.7412
    28.7412  28.9236  28.9319  28.9319  28.9879  28.9954  28.9954  29.0000
    29.0131  29.0149  29.0149  29.0255  29.0255  29.0313  29.0313  29.0373
    29.0495  29.0629  29.0656  29.0656  29.0874  29.0874  29.0943  29.1060
    29.1060  29.1141  29.1141  29.1225  29.1302  29.1310  29.1322  29.1322
    29.1421  29.1421  29.1482  29.1482  29.1579  29.1608  29.1608  29.1623
    29.1682  29.1761  29.1781  29.1781  29.1953  29.1953  29.2214  29.2638
    29.2638  29.3018  29.3112  29.3112  29.3228  29.3228  29.3291  29.3903
    29.4138  29.4138  29.4207  29.4330  29.4330  29.4451  29.4775  29.4931
    29.4931  29.4971  29.5016  29.5016  29.5201  29.5230  29.5230  29.6142
    29.6153  29.6153  29.6517  29.6598  29.6598  29.7593  29.7593  29.8122
    29.8755  29.8793  29.8793  29.9326  30.0322  30.0322  30.0676  30.0842
    30.0842  30.1068  30.1068  30.1531  30.1943  30.2017  30.2017  30.2548
    30.2753  30.2753  30.4361  30.5697  30.5697  30.6027  31.4396  31.5744
    31.5954  31.5954  31.5978  31.5978  31.6269  31.6450  31.6450  31.8473

     occupation numbers 
     1.0000   1.0000   1.0000   1.0000   1.0000   1.0000   1.0000   1.0000
     1.0000   1.0000   1.0000   1.0000   1.0000   1.0000   1.0000   1.0000
     1.0000   1.0000   1.0000   1.0000   1.0000   1.0000   1.0000   1.0000
     1.0000   1.0000   1.0000   1.0000   1.0000   1.0000   1.0000   1.0000
     1.0000   1.0000   1.0000   1.0000   1.0000   1.0000   1.0000   1.0000
     1.0000   1.0000   1.0000   1.0000   1.0000   1.0000   1.0000   1.0000
     1.0000   1.0000   1.0000   1.0000   1.0000   1.0000   1.0000   1.0000
     1.0000   1.0000   1.0000   1.0000   1.0000   1.0000   1.0000   1.0000
     1.0000   1.0000   1.0000   1.0000   1.0000   1.0000   1.0000   1.0000
     1.0000   1.0000   1.0000   1.0000   1.0000   1.0000   1.0000   1.0000
     1.0000   1.0000   1.0000   1.0000   1.0000   1.0000   1.0000   1.0000
     1.0000   1.0000   1.0000   1.0000   1.0000   1.0000   1.0000   1.0000
     1.0000   1.0000   1.0000   1.0000   1.0000   1.0000   1.0000   1.0000
     1.0000   1.0000   1.0000   1.0000   1.0000   1.0000   1.0000   1.0000
     1.0000   1.0000   1.0000   1.0000   1.0000   1.0000   1.0000   1.0000
     1.0000   1.0000   1.0000   1.0000   1.0000   1.0000   1.0000   1.0000
     1.0000   1.0000   1.0000   1.0000   1.0000   1.0000   1.0000   1.0000
     1.0000   1.0000   1.0000   1.0000   1.0000   1.0000   1.0000   1.0000
     1.0000   1.0000   1.0000   1.0000   1.0000   1.0000   1.0000   1.0000
     1.0000   1.0000   1.0000   1.0000   1.0000   1.0000   1.0000   1.0000
     1.0000   1.0000   1.0000   1.0000   1.0000   1.0000   1.0000   1.0000
     1.0000   1.0000   1.0000   1.0000   1.0000   1.0000   1.0000   1.0000
     1.0000   1.0000   1.0000   1.0000   1.0000   1.0000   1.0000   1.0000
     1.0000   1.0000   1.0000   1.0000   1.0000   1.0000   1.0000   1.0000
     1.0000   1.0000   1.0000   1.0000   1.0000   1.0000   1.0000   1.0000
     1.0000   1.0000   1.0000   1.0000   1.0000   1.0000   1.0000   1.0000
     1.0000   1.0000   1.0000   1.0000   1.0000   1.0000   1.0000   1.0000
     1.0000   1.0000   1.0000   1.0000   1.0000   1.0000   1.0000   1.0000
     1.0000   1.0000   1.0000   1.0000   1.0000   1.0000   1.0000   1.0000
     1.0000   1.0000   1.0000   1.0000   1.0000   1.0000   1.0000   1.0000
     1.0000   1.0000   1.0000   1.0000   1.0000   1.0000   1.0000   1.0000
     1.0000   1.0000   1.0000   1.0000   1.0000   1.0000   1.0000   1.0000
     1.0000   1.0000   1.0000   1.0000   1.0000   1.0000   1.0000   1.0000
     1.0000   1.0000   1.0000   1.0000   1.0000   1.0000   1.0000   1.0000
     1.0000   1.0000   1.0000   1.0000   1.0000   1.0000   1.0000   1.0000
     1.0000   1.0000   1.0000   1.0000   1.0000   1.0000   1.0000   1.0000
     1.0000   1.0000   1.0000   1.0000   1.0000   1.0000   1.0000   1.0000
     1.0000   1.0000   1.0000   1.0000   1.0000   1.0000   1.0000   1.0000
     1.0000   1.0000   1.0000   1.0000   1.0000   1.0000   1.0000   1.0000
     1.0000   1.0000   1.0000   1.0000   1.0000   1.0000   1.0000   1.0000
     1.0000   1.0000   1.0000   1.0000   1.0000   1.0000   1.0000   1.0000
     1.0000   1.0000   1.0000   1.0000   1.0000   1.0000   1.0000   1.0000
     1.0000   1.0000   1.0000   1.0000   1.0000   1.0000   1.0000   1.0000
     1.0000   1.0000   1.0000   1.0000   1.0000   1.0000   1.0000   1.0000
     1.0000   1.0000   1.0000   1.0000   1.0000   1.0000   1.0000   1.0000
     1.0000   1.0000   1.0000   1.0000   1.0000   1.0000   1.0000   1.0000
     1.0000   1.0000   1.0000   1.0000   1.0000   1.0000   1.0000   1.0000
     1.0000   1.0000   1.0000   1.0000   1.0000   1.0000   1.0000   1.0000
     1.0000   1.0000   1.0000   1.0000   1.0000   1.0000   1.0000   1.0000
     1.0000   1.0000   1.0000   1.0000   1.0000   1.0000   1.0000   1.0000
     1.0000   1.0000   1.0000   1.0000   1.0000   1.0000   1.0000   1.0000
     1.0000   1.0000   1.0000   1.0000   1.0000   1.0000   1.0000   1.0000
     1.0000   1.0000   1.0000   1.0000   1.0000   1.0000   1.0000   1.0000
     1.0000   1.0000   1.0000   1.0000   1.0000   1.0000   0.0000   0.0000
     0.0000   0.0000   0.0000   0.0000   0.0000   0.0000   0.0000   0.0000
     0.0000   0.0000   0.0000   0.0000   0.0000   0.0000   0.0000   0.0000
     0.0000   0.0000   0.0000   0.0000   0.0000   0.0000   0.0000   0.0000
     0.0000   0.0000   0.0000   0.0000   0.0000   0.0000   0.0000   0.0000
     0.0000   0.0000   0.0000   0.0000   0.0000   0.0000   0.0000   0.0000
     0.0000   0.0000   0.0000   0.0000   0.0000   0.0000   0.0000   0.0000
     0.0000   0.0000   0.0000   0.0000   0.0000   0.0000   0.0000   0.0000
     0.0000   0.0000   0.0000   0.0000   0.0000   0.0000   0.0000   0.0000
     0.0000   0.0000   0.0000   0.0000   0.0000   0.0000   0.0000   0.0000
     0.0000   0.0000   0.0000   0.0000   0.0000   0.0000   0.0000   0.0000
     0.0000   0.0000   0.0000   0.0000   0.0000   0.0000   0.0000   0.0000
     0.0000   0.0000   0.0000   0.0000   0.0000   0.0000   0.0000   0.0000
     0.0000   0.0000   0.0000   0.0000   0.0000   0.0000   0.0000   0.0000
     0.0000   0.0000   0.0000   0.0000   0.0000   0.0000   0.0000   0.0000
     0.0000   0.0000   0.0000   0.0000   0.0000   0.0000   0.0000   0.0000
     0.0000   0.0000   0.0000   0.0000   0.0000   0.0000   0.0000   0.0000
     0.0000   0.0000   0.0000   0.0000   0.0000   0.0000   0.0000   0.0000
     0.0000   0.0000   0.0000   0.0000   0.0000   0.0000   0.0000   0.0000
     0.0000   0.0000   0.0000   0.0000   0.0000   0.0000   0.0000   0.0000
     0.0000   0.0000   0.0000   0.0000   0.0000   0.0000   0.0000   0.0000
     0.0000   0.0000   0.0000   0.0000   0.0000   0.0000   0.0000   0.0000
     0.0000   0.0000   0.0000   0.0000   0.0000   0.0000   0.0000   0.0000
     0.0000   0.0000   0.0000   0.0000   0.0000   0.0000   0.0000   0.0000
     0.0000   0.0000   0.0000   0.0000   0.0000   0.0000   0.0000   0.0000
     0.0000   0.0000   0.0000   0.0000   0.0000   0.0000   0.0000   0.0000
     0.0000   0.0000   0.0000   0.0000   0.0000   0.0000   0.0000   0.0000
     0.0000   0.0000   0.0000   0.0000   0.0000   0.0000   0.0000   0.0000
     0.0000   0.0000   0.0000   0.0000   0.0000   0.0000   0.0000   0.0000
     0.0000   0.0000   0.0000   0.0000   0.0000   0.0000   0.0000   0.0000
     0.0000   0.0000   0.0000   0.0000   0.0000   0.0000   0.0000   0.0000
     0.0000   0.0000   0.0000   0.0000   0.0000   0.0000   0.0000   0.0000
     0.0000   0.0000   0.0000   0.0000   0.0000   0.0000   0.0000   0.0000
     0.0000   0.0000   0.0000   0.0000   0.0000   0.0000   0.0000   0.0000
     0.0000   0.0000   0.0000   0.0000   0.0000   0.0000   0.0000   0.0000
     0.0000   0.0000   0.0000   0.0000   0.0000   0.0000   0.0000   0.0000
     0.0000   0.0000   0.0000   0.0000   0.0000   0.0000   0.0000   0.0000
     0.0000   0.0000   0.0000   0.0000   0.0000   0.0000   0.0000   0.0000
     0.0000   0.0000   0.0000   0.0000   0.0000   0.0000   0.0000   0.0000
     0.0000   0.0000   0.0000   0.0000   0.0000   0.0000   0.0000   0.0000
     0.0000   0.0000   0.0000   0.0000   0.0000   0.0000   0.0000   0.0000
     0.0000   0.0000   0.0000   0.0000   0.0000   0.0000   0.0000   0.0000
     0.0000   0.0000   0.0000   0.0000   0.0000   0.0000   0.0000   0.0000
     0.0000   0.0000   0.0000   0.0000   0.0000   0.0000   0.0000   0.0000
     0.0000   0.0000   0.0000   0.0000   0.0000   0.0000   0.0000   0.0000
     0.0000   0.0000   0.0000   0.0000   0.0000   0.0000   0.0000   0.0000
     0.0000   0.0000   0.0000   0.0000   0.0000   0.0000   0.0000   0.0000
     0.0000   0.0000   0.0000   0.0000   0.0000   0.0000   0.0000   0.0000
     0.0000   0.0000   0.0000   0.0000   0.0000   0.0000   0.0000   0.0000
     0.0000   0.0000   0.0000   0.0000   0.0000   0.0000   0.0000   0.0000
     0.0000   0.0000   0.0000   0.0000   0.0000   0.0000   0.0000   0.0000
     0.0000   0.0000   0.0000   0.0000   0.0000   0.0000   0.0000   0.0000
     0.0000   0.0000   0.0000   0.0000   0.0000   0.0000   0.0000   0.0000
     0.0000   0.0000   0.0000   0.0000   0.0000   0.0000   0.0000   0.0000
     0.0000   0.0000   0.0000   0.0000   0.0000   0.0000   0.0000   0.0000

     highest occupied, lowest unoccupied level (ev):    14.4482   17.4045

!    total energy              =   -2456.20015255 Ry
     estimated scf accuracy    <          2.8E-09 Ry

     total magnetization       =     2.00 Bohr mag/cell
     absolute magnetization    =     2.37 Bohr mag/cell

     convergence has been achieved in   1 iterations

     Using ACE for calculation of exact exchange
     ACE projected onto   864 (nbndproj) and applied to   864 (nbnd) bands

!!   total energy              =   -2456.20015255 Ry
     Harris-Foulkes estimate   =   -2456.20015255 Ry
     est. exchange err (dexx)  =          1.5E-09 Ry
     - averaged Fock potential =     249.82242329 Ry
     + Fock energy (ACE)       =    -124.91121764 Ry

     EXX self-consistency reached

     Forces acting on atoms (cartesian axes, Ry/au):

     atom    1 type  1   force =    -0.00028430   -0.00008140   -0.00008140
     atom    2 type  1   force =     0.00021482    0.00005493    0.00005493
     atom    3 type  1   force =    -0.00025762   -0.00001380   -0.00001380
     atom    4 type  1   force =    -0.00004389    0.00020401    0.00020401
     atom    5 type  1   force =    -0.00018584   -0.00018584    0.00000359
     atom    6 type  1   force =     0.00006569    0.00006569   -0.00003470
     atom    7 type  1   force =    -0.00018584    0.00000359   -0.00018584
     atom    8 type  1   force =     0.00006569   -0.00003470    0.00006569
     atom    9 type  1   force =    -0.00043875   -0.00024289    0.00017845
     atom   10 type  1   force =     0.00002280    0.00022823   -0.00018615
     atom   11 type  1   force =    -0.00009503    0.00016102    0.00000733
     atom   12 type  1   force =    -0.00065767    0.00061075    0.00108981
     atom   13 type  1   force =    -0.00026024   -0.00026024    0.00011102
     atom   14 type  1   force =     0.00004231    0.00004231    0.00027814
     atom   15 type  1   force =     0.00003726   -0.00002552    0.00003279
     atom   16 type  1   force =    -0.00010123    0.00020142   -0.00004217
     atom   17 type  1   force =    -0.00014574   -0.00032420    0.00006288
     atom   18 type  1   force =    -0.00009139   -0.00025593    0.00028434
     atom   19 type  1   force =    -0.00041070    0.00012147   -0.00041070
     atom   20 type  1   force =     0.00042698   -0.00028491    0.00042698
     atom   21 type  1   force =    -0.00008140   -0.00008140   -0.00028430
     atom   22 type  1   force =     0.00005493    0.00005493    0.00021482
     atom   23 type  1   force =    -0.00020280    0.00026044   -0.00043707
     atom   24 type  1   force =     0.00028446    0.00009298    0.00032916
     atom   25 type  1   force =    -0.00043875    0.00017845   -0.00024289
     atom   26 type  1   force =     0.00002280   -0.00018615    0.00022823
     atom   27 type  1   force =    -0.00009503    0.00000733    0.00016102
     atom   28 type  1   force =    -0.00065767    0.00108981    0.00061075
     atom   29 type  1   force =     0.00003726    0.00003279   -0.00002552
     atom   30 type  1   force =    -0.00010123   -0.00004217    0.00020142
     atom   31 type  1   force =    -0.00026024    0.00011102   -0.00026024
     atom   32 type  1   force =     0.00004231    0.00027814    0.00004231
     atom   33 type  1   force =    -0.00014548    0.00014279    0.00014279
     atom   34 type  1   force =    -0.00013201    0.00011907    0.00011907
     atom   35 type  1   force =    -0.00317283   -0.00021710   -0.00021710
     atom   36 type  1   force =     0.00168943   -0.00011596   -0.00011596
     atom   37 type  1   force =    -0.00025961    0.00020551   -0.00013820
     atom   38 type  1   force =     0.00012420   -0.00009515   -0.00005579
     atom   39 type  1   force =    -0.00025961   -0.00013820    0.00020551
     atom   40 type  1   force =     0.00012420   -0.00005579   -0.00009515
     atom   41 type  1   force =    -0.00296180    0.00226094   -0.00328339
     atom   42 type  1   force =     0.00115117   -0.00084231    0.00114581
     atom   43 type  1   force =    -0.00290494    0.00290919   -0.00290494
     atom   44 type  1   force =    -0.00020167   -0.00047632   -0.00020167
     atom   45 type  1   force =    -0.00024289    0.00017845   -0.00043875
     atom   46 type  1   force =     0.00022823   -0.00018615    0.00002280
     atom   47 type  1   force =    -0.00087531    0.00006833   -0.00013183
     atom   48 type  1   force =     0.00016853    0.00003895    0.00007225
     atom   49 type  1   force =    -0.00014574    0.00006288   -0.00032420
     atom   50 type  1   force =    -0.00009139    0.00028434   -0.00025593
     atom   51 type  1   force =    -0.00041070   -0.00041070    0.00012147
     atom   52 type  1   force =     0.00042698    0.00042698   -0.00028491
     atom   53 type  1   force =    -0.00020280   -0.00043707    0.00026044
     atom   54 type  1   force =     0.00028446    0.00032916    0.00009298
     atom   55 type  1   force =    -0.00008140   -0.00028430   -0.00008140
     atom   56 type  1   force =     0.00005493    0.00021482    0.00005493
     atom   57 type  1   force =    -0.00296180   -0.00328339    0.00226094
     atom   58 type  1   force =     0.00115117    0.00114581   -0.00084231
     atom   59 type  1   force =    -0.00290494   -0.00290494    0.00290919
     atom   60 type  1   force =    -0.00020167   -0.00020167   -0.00047632
     atom   61 type  1   force =    -0.00087531   -0.00013183    0.00006833
     atom   62 type  1   force =     0.00016853    0.00007225    0.00003895
     atom   63 type  1   force =    -0.00024289   -0.00043875    0.00017845
     atom   64 type  1   force =     0.00022823    0.00002280   -0.00018615
     atom   65 type  1   force =    -0.00452788    0.00082694    0.00082694
     atom   66 type  1   force =    -0.00021501   -0.00002114   -0.00002114
     atom   67 type  1   force =    -0.00040868   -0.00040868   -0.00040868
     atom   68 type  1   force =    -0.00005193   -0.00005193   -0.00005193
     atom   69 type  1   force =    -0.00032420    0.00006288   -0.00014574
     atom   70 type  1   force =    -0.00025593    0.00028434   -0.00009139
     atom   71 type  1   force =    -0.00032420   -0.00014574    0.00006288
     atom   72 type  1   force =    -0.00025593   -0.00009139    0.00028434
     atom   73 type  1   force =     0.00000359   -0.00018584   -0.00018584
     atom   74 type  1   force =    -0.00003470    0.00006569    0.00006569
     atom   75 type  1   force =    -0.00002458   -0.00002458   -0.00002458
     atom   76 type  1   force =     0.00000859    0.00000859    0.00000859
     atom   77 type  1   force =     0.00003279    0.00003726   -0.00002552
     atom   78 type  1   force =    -0.00004217   -0.00010123    0.00020142
     atom   79 type  1   force =     0.00003279   -0.00002552    0.00003726
     atom   80 type  1   force =    -0.00004217    0.00020142   -0.00010123
     atom   81 type  1   force =    -0.00002552    0.00003726    0.00003279
     atom   82 type  1   force =     0.00020142   -0.00010123   -0.00004217
     atom   83 type  1   force =    -0.00006695   -0.00006695    0.00002629
     atom   84 type  1   force =     0.00020269    0.00020269   -0.00002224
     atom   85 type  1   force =     0.00020551   -0.00025961   -0.00013820
     atom   86 type  1   force =    -0.00009515    0.00012420   -0.00005579
     atom   87 type  1   force =    -0.00002878   -0.00005853   -0.00002878
     atom   88 type  1   force =    -0.00019488   -0.00008807   -0.00019488
     atom   89 type  1   force =     0.00026044   -0.00020280   -0.00043707
     atom   90 type  1   force =     0.00009298    0.00028446    0.00032916
     atom   91 type  1   force =    -0.00001380   -0.00001380   -0.00025762
     atom   92 type  1   force =     0.00020401    0.00020401   -0.00004389
     atom   93 type  1   force =     0.00017845   -0.00024289   -0.00043875
     atom   94 type  1   force =    -0.00018615    0.00022823    0.00002280
     atom   95 type  1   force =     0.00010092    0.00009634    0.00001730
     atom   96 type  1   force =    -0.00005144    0.00024940   -0.00001190
     atom   97 type  1   force =    -0.00002552    0.00003279    0.00003726
     atom   98 type  1   force =     0.00020142   -0.00004217   -0.00010123
     atom   99 type  1   force =    -0.00006695    0.00002629   -0.00006695
     atom  100 type  1   force =     0.00020269   -0.00002224    0.00020269
     atom  101 type  1   force =    -0.00002878   -0.00002878   -0.00005853
     atom  102 type  1   force =    -0.00019488   -0.00019488   -0.00008807
     atom  103 type  1   force =     0.00020551   -0.00013820   -0.00025961
     atom  104 type  1   force =    -0.00009515   -0.00005579    0.00012420
     atom  105 type  1   force =    -0.00005853   -0.00002878   -0.00002878
     atom  106 type  1   force =    -0.00008807   -0.00019488   -0.00019488
     atom  107 type  1   force =     0.00010325    0.00003335    0.00003335
     atom  108 type  1   force =    -0.00026124   -0.00031169   -0.00031169
     atom  109 type  1   force =     0.00002034    0.00002034   -0.00032034
     atom  110 type  1   force =    -0.00056596   -0.00056596   -0.00019037
     atom  111 type  1   force =     0.00002034   -0.00032034    0.00002034
     atom  112 type  1   force =    -0.00056596   -0.00019037   -0.00056596
     atom  113 type  1   force =     0.00009634    0.00010092    0.00001730
     atom  114 type  1   force =     0.00024940   -0.00005144   -0.00001190
     atom  115 type  1   force =     0.00016102    0.00000733   -0.00009503
     atom  116 type  1   force =     0.00061075    0.00108981   -0.00065767
     atom  117 type  1   force =     0.00014279    0.00014279   -0.00014548
     atom  118 type  1   force =     0.00011907    0.00011907   -0.00013201
     atom  119 type  1   force =     0.00142577    0.00041149    0.00029706
     atom  120 type  1   force =    -0.00967395   -0.00272586    0.01065420
     atom  121 type  1   force =     0.00026044   -0.00043707   -0.00020280
     atom  122 type  1   force =     0.00009298    0.00032916    0.00028446
     atom  123 type  1   force =    -0.00001380   -0.00025762   -0.00001380
     atom  124 type  1   force =     0.00020401   -0.00004389    0.00020401
     atom  125 type  1   force =     0.00010092    0.00001730    0.00009634
     atom  126 type  1   force =    -0.00005144   -0.00001190    0.00024940
     atom  127 type  1   force =     0.00017845   -0.00043875   -0.00024289
     atom  128 type  1   force =    -0.00018615    0.00002280    0.00022823
     atom  129 type  1   force =     0.00009634    0.00001730    0.00010092
     atom  130 type  1   force =     0.00024940   -0.00001190   -0.00005144
     atom  131 type  1   force =     0.00016102   -0.00009503    0.00000733
     atom  132 type  1   force =     0.00061075   -0.00065767    0.00108981
     atom  133 type  1   force =     0.00142577    0.00029706    0.00041149
     atom  134 type  1   force =    -0.00967395    0.01065420   -0.00272586
     atom  135 type  1   force =     0.00014279   -0.00014548    0.00014279
     atom  136 type  1   force =     0.00011907   -0.00013201    0.00011907
     atom  137 type  1   force =     0.00017132    0.00023141    0.00023141
     atom  138 type  1   force =    -0.00092682    0.00104543    0.00104543
     atom  139 type  1   force =     0.00012147   -0.00041070   -0.00041070
     atom  140 type  1   force =    -0.00028491    0.00042698    0.00042698
     atom  141 type  1   force =     0.00226094   -0.00328339   -0.00296180
     atom  142 type  1   force =    -0.00084231    0.00114581    0.00115117
     atom  143 type  1   force =     0.00226094   -0.00296180   -0.00328339
     atom  144 type  1   force =    -0.00084231    0.00115117    0.00114581
     atom  145 type  1   force =     0.00011102   -0.00026024   -0.00026024
     atom  146 type  1   force =     0.00027814    0.00004231    0.00004231
     atom  147 type  1   force =     0.00002629   -0.00006695   -0.00006695
     atom  148 type  1   force =    -0.00002224    0.00020269    0.00020269
     atom  149 type  1   force =    -0.00043707   -0.00020280    0.00026044
     atom  150 type  1   force =     0.00032916    0.00028446    0.00009298
     atom  151 type  1   force =    -0.00043707    0.00026044   -0.00020280
     atom  152 type  1   force =     0.00032916    0.00009298    0.00028446
     atom  153 type  1   force =    -0.00013820   -0.00025961    0.00020551
     atom  154 type  1   force =    -0.00005579    0.00012420   -0.00009515
     atom  155 type  1   force =     0.00003335    0.00010325    0.00003335
     atom  156 type  1   force =    -0.00031169   -0.00026124   -0.00031169
     atom  157 type  1   force =    -0.00013183   -0.00087531    0.00006833
     atom  158 type  1   force =     0.00007225    0.00016853    0.00003895
     atom  159 type  1   force =     0.00001730    0.00009634    0.00010092
     atom  160 type  1   force =    -0.00001190    0.00024940   -0.00005144
     atom  161 type  1   force =     0.00006833   -0.00087531   -0.00013183
     atom  162 type  1   force =     0.00003895    0.00016853    0.00007225
     atom  163 type  1   force =     0.00000733    0.00016102   -0.00009503
     atom  164 type  1   force =     0.00108981    0.00061075   -0.00065767
     atom  165 type  1   force =     0.00006288   -0.00032420   -0.00014574
     atom  166 type  1   force =     0.00028434   -0.00025593   -0.00009139
     atom  167 type  1   force =     0.00023141    0.00017132    0.00023141
     atom  168 type  1   force =     0.00104543   -0.00092682    0.00104543
     atom  169 type  1   force =    -0.00013820    0.00020551   -0.00025961
     atom  170 type  1   force =    -0.00005579   -0.00009515    0.00012420
     atom  171 type  1   force =     0.00003335    0.00003335    0.00010325
     atom  172 type  1   force =    -0.00031169   -0.00031169   -0.00026124
     atom  173 type  1   force =     0.00001730    0.00010092    0.00009634
     atom  174 type  1   force =    -0.00001190   -0.00005144    0.00024940
     atom  175 type  1   force =    -0.00013183    0.00006833   -0.00087531
     atom  176 type  1   force =     0.00007225    0.00003895    0.00016853
     atom  177 type  1   force =    -0.00032034    0.00002034    0.00002034
     atom  178 type  1   force =    -0.00019037   -0.00056596   -0.00056596
     atom  179 type  1   force =     0.00029706    0.00142577    0.00041149
     atom  180 type  1   force =     0.01065420   -0.00967395   -0.00272586
     atom  181 type  1   force =     0.00029706    0.00041149    0.00142577
     atom  182 type  1   force =     0.01065420   -0.00272586   -0.00967395
     atom  183 type  1   force =     0.00041149    0.00142577    0.00029706
     atom  184 type  1   force =    -0.00272586   -0.00967395    0.01065420
     atom  185 type  1   force =    -0.00021710   -0.00021710   -0.00317283
     atom  186 type  1   force =    -0.00011596   -0.00011596    0.00168943
     atom  187 type  1   force =    -0.00328339    0.00226094   -0.00296180
     atom  188 type  1   force =     0.00114581   -0.00084231    0.00115117
     atom  189 type  1   force =    -0.00689148    0.00250600   -0.00689148
     atom  190 type  1   force =     0.01149136    0.00341297    0.01149136
     atom  191 type  1   force =     0.00006833   -0.00013183   -0.00087531
     atom  192 type  1   force =     0.00003895    0.00007225    0.00016853
     atom  193 type  1   force =     0.00000733   -0.00009503    0.00016102
     atom  194 type  1   force =     0.00108981   -0.00065767    0.00061075
     atom  195 type  1   force =     0.00023141    0.00023141    0.00017132
     atom  196 type  1   force =     0.00104543    0.00104543   -0.00092682
     atom  197 type  1   force =     0.00006288   -0.00014574   -0.00032420
     atom  198 type  1   force =     0.00028434   -0.00009139   -0.00025593
     atom  199 type  1   force =     0.00041149    0.00029706    0.00142577
     atom  200 type  1   force =    -0.00272586    0.01065420   -0.00967395
     atom  201 type  1   force =    -0.00021710   -0.00317283   -0.00021710
     atom  202 type  1   force =    -0.00011596    0.00168943   -0.00011596
     atom  203 type  1   force =    -0.00689148   -0.00689148    0.00250600
     atom  204 type  1   force =     0.01149136    0.01149136    0.00341297
     atom  205 type  1   force =    -0.00328339   -0.00296180    0.00226094
     atom  206 type  1   force =     0.00114581    0.00115117   -0.00084231
     atom  207 type  1   force =     0.00250600   -0.00689148   -0.00689148
     atom  208 type  1   force =     0.00341297    0.01149136    0.01149136
     atom  209 type  1   force =     0.00290919   -0.00290494   -0.00290494
     atom  210 type  1   force =    -0.00047632   -0.00020167   -0.00020167
     atom  211 type  1   force =     0.00082694    0.00082694   -0.00452788
     atom  212 type  1   force =    -0.00002114   -0.00002114   -0.00021501
     atom  213 type  1   force =     0.00082694   -0.00452788    0.00082694
     atom  214 type  1   force =    -0.00002114   -0.00021501   -0.00002114
     atom  215 type  2   force =    -0.00053626   -0.00053626   -0.00053626
     The non-local contrib.  to forces
     atom    1 type  1   force =     0.00486098    0.00343265    0.00343265
     atom    2 type  1   force =     0.00403863    0.00203954    0.00203954
     atom    3 type  1   force =     0.00511762   -0.00212650   -0.00212650
     atom    4 type  1   force =     0.00471688   -0.00276489   -0.00276489
     atom    5 type  1   force =     0.00315567    0.00315567   -0.00307579
     atom    6 type  1   force =     0.00186290    0.00186290   -0.00088593
     atom    7 type  1   force =     0.00315567   -0.00307579    0.00315567
     atom    8 type  1   force =     0.00186290   -0.00088593    0.00186290
     atom    9 type  1   force =     0.01127992    0.01037744   -0.01244112
     atom   10 type  1   force =     0.00566149    0.00281949   -0.00003532
     atom   11 type  1   force =     0.00251742   -0.00279389   -0.01133410
     atom   12 type  1   force =     0.01546389   -0.01725684   -0.01695604
     atom   13 type  1   force =     0.00627848    0.00627848   -0.01581429
     atom   14 type  1   force =     0.00315901    0.00315901   -0.00003351
     atom   15 type  1   force =     0.00392540   -0.00189663   -0.00746753
     atom   16 type  1   force =     0.00336321   -0.00473333   -0.00313611
     atom   17 type  1   force =     0.00575252    0.01113865   -0.00162961
     atom   18 type  1   force =     0.00809337    0.00127789    0.00488633
     atom   19 type  1   force =     0.01016832   -0.00740232    0.01016832
     atom   20 type  1   force =     0.00627454   -0.00439855    0.00627454
     atom   21 type  1   force =     0.00343265    0.00343265    0.00486098
     atom   22 type  1   force =     0.00203954    0.00203954    0.00403863
     atom   23 type  1   force =     0.00594377   -0.00277579    0.00793592
     atom   24 type  1   force =     0.00416366   -0.00397590    0.00097767
     atom   25 type  1   force =     0.01127992   -0.01244112    0.01037744
     atom   26 type  1   force =     0.00566149   -0.00003532    0.00281949
     atom   27 type  1   force =     0.00251742   -0.01133410   -0.00279389
     atom   28 type  1   force =     0.01546389   -0.01695604   -0.01725684
     atom   29 type  1   force =     0.00392540   -0.00746753   -0.00189663
     atom   30 type  1   force =     0.00336321   -0.00313611   -0.00473333
     atom   31 type  1   force =     0.00627848   -0.01581429    0.00627848
     atom   32 type  1   force =     0.00315901   -0.00003351    0.00315901
     atom   33 type  1   force =     0.00470871   -0.01134887   -0.01134887
     atom   34 type  1   force =     0.02277310   -0.02136536   -0.02136536
     atom   35 type  1   force =     0.06354568   -0.00711267   -0.00711267
     atom   36 type  1   force =     0.03783262   -0.00411358   -0.00411358
     atom   37 type  1   force =     0.01134641   -0.00594222   -0.00315227
     atom   38 type  1   force =     0.00576552   -0.00847678   -0.00258140
     atom   39 type  1   force =     0.01134641   -0.00315227   -0.00594222
     atom   40 type  1   force =     0.00576552   -0.00258140   -0.00847678
     atom   41 type  1   force =     0.03236597   -0.03226977    0.04529101
     atom   42 type  1   force =     0.02787906   -0.01036101    0.00483904
     atom   43 type  1   force =     0.03651118   -0.05517883    0.03651118
     atom   44 type  1   force =     0.01912303    0.01943030    0.01912303
     atom   45 type  1   force =     0.01037744   -0.01244112    0.01127992
     atom   46 type  1   force =     0.00281949   -0.00003532    0.00566149
     atom   47 type  1   force =     0.01785354   -0.00792649    0.00432285
     atom   48 type  1   force =     0.00333988    0.00012112    0.00718951
     atom   49 type  1   force =     0.00575252   -0.00162961    0.01113865
     atom   50 type  1   force =     0.00809337    0.00488633    0.00127789
     atom   51 type  1   force =     0.01016832    0.01016832   -0.00740232
     atom   52 type  1   force =     0.00627454    0.00627454   -0.00439855
     atom   53 type  1   force =     0.00594377    0.00793592   -0.00277579
     atom   54 type  1   force =     0.00416366    0.00097767   -0.00397590
     atom   55 type  1   force =     0.00343265    0.00486098    0.00343265
     atom   56 type  1   force =     0.00203954    0.00403863    0.00203954
     atom   57 type  1   force =     0.03236597    0.04529101   -0.03226977
     atom   58 type  1   force =     0.02787906    0.00483904   -0.01036101
     atom   59 type  1   force =     0.03651118    0.03651118   -0.05517883
     atom   60 type  1   force =     0.01912303    0.01912303    0.01943030
     atom   61 type  1   force =     0.01785354    0.00432285   -0.00792649
     atom   62 type  1   force =     0.00333988    0.00718951    0.00012112
     atom   63 type  1   force =     0.01037744    0.01127992   -0.01244112
     atom   64 type  1   force =     0.00281949    0.00566149   -0.00003532
     atom   65 type  1   force =     0.06402597    0.00280805    0.00280805
     atom   66 type  1   force =     0.02736311    0.02149105    0.02149105
     atom   67 type  1   force =     0.01001304    0.01001304    0.01001304
     atom   68 type  1   force =     0.00892268    0.00892268    0.00892268
     atom   69 type  1   force =     0.01113865   -0.00162961    0.00575252
     atom   70 type  1   force =     0.00127789    0.00488633    0.00809337
     atom   71 type  1   force =     0.01113865    0.00575252   -0.00162961
     atom   72 type  1   force =     0.00127789    0.00809337    0.00488633
     atom   73 type  1   force =    -0.00307579    0.00315567    0.00315567
     atom   74 type  1   force =    -0.00088593    0.00186290    0.00186290
     atom   75 type  1   force =    -0.00227403   -0.00227403   -0.00227403
     atom   76 type  1   force =    -0.00185113   -0.00185113   -0.00185113
     atom   77 type  1   force =    -0.00746753    0.00392540   -0.00189663
     atom   78 type  1   force =    -0.00313611    0.00336321   -0.00473333
     atom   79 type  1   force =    -0.00746753   -0.00189663    0.00392540
     atom   80 type  1   force =    -0.00313611   -0.00473333    0.00336321
     atom   81 type  1   force =    -0.00189663    0.00392540   -0.00746753
     atom   82 type  1   force =    -0.00473333    0.00336321   -0.00313611
     atom   83 type  1   force =    -0.00129782   -0.00129782   -0.00961639
     atom   84 type  1   force =    -0.00566645   -0.00566645    0.00686886
     atom   85 type  1   force =    -0.00594222    0.01134641   -0.00315227
     atom   86 type  1   force =    -0.00847678    0.00576552   -0.00258140
     atom   87 type  1   force =    -0.00839198   -0.00264542   -0.00839198
     atom   88 type  1   force =    -0.00193247   -0.00702885   -0.00193247
     atom   89 type  1   force =    -0.00277579    0.00594377    0.00793592
     atom   90 type  1   force =    -0.00397590    0.00416366    0.00097767
     atom   91 type  1   force =    -0.00212650   -0.00212650    0.00511762
     atom   92 type  1   force =    -0.00276489   -0.00276489    0.00471688
     atom   93 type  1   force =    -0.01244112    0.01037744    0.01127992
     atom   94 type  1   force =    -0.00003532    0.00281949    0.00566149
     atom   95 type  1   force =    -0.00591234   -0.00122316    0.00226878
     atom   96 type  1   force =    -0.00146514   -0.01166088    0.00315436
     atom   97 type  1   force =    -0.00189663   -0.00746753    0.00392540
     atom   98 type  1   force =    -0.00473333   -0.00313611    0.00336321
     atom   99 type  1   force =    -0.00129782   -0.00961639   -0.00129782
     atom  100 type  1   force =    -0.00566645    0.00686886   -0.00566645
     atom  101 type  1   force =    -0.00839198   -0.00839198   -0.00264542
     atom  102 type  1   force =    -0.00193247   -0.00193247   -0.00702885
     atom  103 type  1   force =    -0.00594222   -0.00315227    0.01134641
     atom  104 type  1   force =    -0.00847678   -0.00258140    0.00576552
     atom  105 type  1   force =    -0.00264542   -0.00839198   -0.00839198
     atom  106 type  1   force =    -0.00702885   -0.00193247   -0.00193247
     atom  107 type  1   force =    -0.00277603   -0.00601049   -0.00601049
     atom  108 type  1   force =    -0.01911717   -0.00419815   -0.00419815
     atom  109 type  1   force =    -0.03245202   -0.03245202   -0.05168602
     atom  110 type  1   force =     0.12270927    0.12270927   -0.12916382
     atom  111 type  1   force =    -0.03245202   -0.05168602   -0.03245202
     atom  112 type  1   force =     0.12270927   -0.12916382    0.12270927
     atom  113 type  1   force =    -0.00122316   -0.00591234    0.00226878
     atom  114 type  1   force =    -0.01166088   -0.00146514    0.00315436
     atom  115 type  1   force =    -0.00279389   -0.01133410    0.00251742
     atom  116 type  1   force =    -0.01725684   -0.01695604    0.01546389
     atom  117 type  1   force =    -0.01134887   -0.01134887    0.00470871
     atom  118 type  1   force =    -0.02136536   -0.02136536    0.02277310
     atom  119 type  1   force =    -0.04150783   -0.04156734   -0.01472026
     atom  120 type  1   force =    -0.10841012   -0.07146540    0.07472263
     atom  121 type  1   force =    -0.00277579    0.00793592    0.00594377
     atom  122 type  1   force =    -0.00397590    0.00097767    0.00416366
     atom  123 type  1   force =    -0.00212650    0.00511762   -0.00212650
     atom  124 type  1   force =    -0.00276489    0.00471688   -0.00276489
     atom  125 type  1   force =    -0.00591234    0.00226878   -0.00122316
     atom  126 type  1   force =    -0.00146514    0.00315436   -0.01166088
     atom  127 type  1   force =    -0.01244112    0.01127992    0.01037744
     atom  128 type  1   force =    -0.00003532    0.00566149    0.00281949
     atom  129 type  1   force =    -0.00122316    0.00226878   -0.00591234
     atom  130 type  1   force =    -0.01166088    0.00315436   -0.00146514
     atom  131 type  1   force =    -0.00279389    0.00251742   -0.01133410
     atom  132 type  1   force =    -0.01725684    0.01546389   -0.01695604
     atom  133 type  1   force =    -0.04150783   -0.01472026   -0.04156734
     atom  134 type  1   force =    -0.10841012    0.07472263   -0.07146540
     atom  135 type  1   force =    -0.01134887    0.00470871   -0.01134887
     atom  136 type  1   force =    -0.02136536    0.02277310   -0.02136536
     atom  137 type  1   force =    -0.00630198   -0.00152525   -0.00152525
     atom  138 type  1   force =    -0.02882505    0.00544775    0.00544775
     atom  139 type  1   force =    -0.00740232    0.01016832    0.01016832
     atom  140 type  1   force =    -0.00439855    0.00627454    0.00627454
     atom  141 type  1   force =    -0.03226977    0.04529101    0.03236597
     atom  142 type  1   force =    -0.01036101    0.00483904    0.02787906
     atom  143 type  1   force =    -0.03226977    0.03236597    0.04529101
     atom  144 type  1   force =    -0.01036101    0.02787906    0.00483904
     atom  145 type  1   force =    -0.01581429    0.00627848    0.00627848
     atom  146 type  1   force =    -0.00003351    0.00315901    0.00315901
     atom  147 type  1   force =    -0.00961639   -0.00129782   -0.00129782
     atom  148 type  1   force =     0.00686886   -0.00566645   -0.00566645
     atom  149 type  1   force =     0.00793592    0.00594377   -0.00277579
     atom  150 type  1   force =     0.00097767    0.00416366   -0.00397590
     atom  151 type  1   force =     0.00793592   -0.00277579    0.00594377
     atom  152 type  1   force =     0.00097767   -0.00397590    0.00416366
     atom  153 type  1   force =    -0.00315227    0.01134641   -0.00594222
     atom  154 type  1   force =    -0.00258140    0.00576552   -0.00847678
     atom  155 type  1   force =    -0.00601049   -0.00277603   -0.00601049
     atom  156 type  1   force =    -0.00419815   -0.01911717   -0.00419815
     atom  157 type  1   force =     0.00432285    0.01785354   -0.00792649
     atom  158 type  1   force =     0.00718951    0.00333988    0.00012112
     atom  159 type  1   force =     0.00226878   -0.00122316   -0.00591234
     atom  160 type  1   force =     0.00315436   -0.01166088   -0.00146514
     atom  161 type  1   force =    -0.00792649    0.01785354    0.00432285
     atom  162 type  1   force =     0.00012112    0.00333988    0.00718951
     atom  163 type  1   force =    -0.01133410   -0.00279389    0.00251742
     atom  164 type  1   force =    -0.01695604   -0.01725684    0.01546389
     atom  165 type  1   force =    -0.00162961    0.01113865    0.00575252
     atom  166 type  1   force =     0.00488633    0.00127789    0.00809337
     atom  167 type  1   force =    -0.00152525   -0.00630198   -0.00152525
     atom  168 type  1   force =     0.00544775   -0.02882505    0.00544775
     atom  169 type  1   force =    -0.00315227   -0.00594222    0.01134641
     atom  170 type  1   force =    -0.00258140   -0.00847678    0.00576552
     atom  171 type  1   force =    -0.00601049   -0.00601049   -0.00277603
     atom  172 type  1   force =    -0.00419815   -0.00419815   -0.01911717
     atom  173 type  1   force =     0.00226878   -0.00591234   -0.00122316
     atom  174 type  1   force =     0.00315436   -0.00146514   -0.01166088
     atom  175 type  1   force =     0.00432285   -0.00792649    0.01785354
     atom  176 type  1   force =     0.00718951    0.00012112    0.00333988
     atom  177 type  1   force =    -0.05168602   -0.03245202   -0.03245202
     atom  178 type  1   force =    -0.12916382    0.12270927    0.12270927
     atom  179 type  1   force =    -0.01472026   -0.04150783   -0.04156734
     atom  180 type  1   force =     0.07472263   -0.10841012   -0.07146540
     atom  181 type  1   force =    -0.01472026   -0.04156734   -0.04150783
     atom  182 type  1   force =     0.07472263   -0.07146540   -0.10841012
     atom  183 type  1   force =    -0.04156734   -0.04150783   -0.01472026
     atom  184 type  1   force =    -0.07146540   -0.10841012    0.07472263
     atom  185 type  1   force =    -0.00711267   -0.00711267    0.06354568
     atom  186 type  1   force =    -0.00411358   -0.00411358    0.03783262
     atom  187 type  1   force =     0.04529101   -0.03226977    0.03236597
     atom  188 type  1   force =     0.00483904   -0.01036101    0.02787906
     atom  189 type  1   force =     0.20747143   -0.23937187    0.20747143
     atom  190 type  1   force =     0.09139661    0.06755420    0.09139661
     atom  191 type  1   force =    -0.00792649    0.00432285    0.01785354
     atom  192 type  1   force =     0.00012112    0.00718951    0.00333988
     atom  193 type  1   force =    -0.01133410    0.00251742   -0.00279389
     atom  194 type  1   force =    -0.01695604    0.01546389   -0.01725684
     atom  195 type  1   force =    -0.00152525   -0.00152525   -0.00630198
     atom  196 type  1   force =     0.00544775    0.00544775   -0.02882505
     atom  197 type  1   force =    -0.00162961    0.00575252    0.01113865
     atom  198 type  1   force =     0.00488633    0.00809337    0.00127789
     atom  199 type  1   force =    -0.04156734   -0.01472026   -0.04150783
     atom  200 type  1   force =    -0.07146540    0.07472263   -0.10841012
     atom  201 type  1   force =    -0.00711267    0.06354568   -0.00711267
     atom  202 type  1   force =    -0.00411358    0.03783262   -0.00411358
     atom  203 type  1   force =     0.20747143    0.20747143   -0.23937187
     atom  204 type  1   force =     0.09139661    0.09139661    0.06755420
     atom  205 type  1   force =     0.04529101    0.03236597   -0.03226977
     atom  206 type  1   force =     0.00483904    0.02787906   -0.01036101
     atom  207 type  1   force =    -0.23937187    0.20747143    0.20747143
     atom  208 type  1   force =     0.06755420    0.09139661    0.09139661
     atom  209 type  1   force =    -0.05517883    0.03651118    0.03651118
     atom  210 type  1   force =     0.01943030    0.01912303    0.01912303
     atom  211 type  1   force =     0.00280805    0.00280805    0.06402597
     atom  212 type  1   force =     0.02149105    0.02149105    0.02736311
     atom  213 type  1   force =     0.00280805    0.06402597    0.00280805
     atom  214 type  1   force =     0.02149105    0.02736311    0.02149105
     atom  215 type  2   force =    -0.77929713   -0.77929713   -0.77929713
     The ionic contribution  to forces
     atom    1 type  1   force =    -0.04072770   -0.04832470   -0.04833345
     atom    2 type  1   force =    -0.03083173   -0.00033110   -0.00034902
     atom    3 type  1   force =    -0.02555711    0.02554154    0.02552505
     atom    4 type  1   force =    -0.09334519    0.08217553    0.08216994
     atom    5 type  1   force =    -0.03470285   -0.03471559    0.00766579
     atom    6 type  1   force =    -0.02063034   -0.02063702    0.03695017
     atom    7 type  1   force =    -0.03470963    0.00767049   -0.03472181
     atom    8 type  1   force =    -0.02063333    0.03695020   -0.02064628
     atom    9 type  1   force =    -0.06490726   -0.05590699    0.06548586
     atom   10 type  1   force =    -0.09306484    0.00245823    0.07000076
     atom   11 type  1   force =    -0.12117176    0.11971535   -0.00539571
     atom   12 type  1   force =    -0.15448488    0.12443152   -0.02089691
     atom   13 type  1   force =    -0.05392956   -0.05394840   -0.03356952
     atom   14 type  1   force =    -0.02612719   -0.02613635    0.03502019
     atom   15 type  1   force =    -0.07435572    0.01033456    0.01530788
     atom   16 type  1   force =    -0.08781468    0.04159698    0.05876525
     atom   17 type  1   force =    -0.13073505   -0.11733312   -0.02372065
     atom   18 type  1   force =    -0.07391154   -0.00961343   -0.02705185
     atom   19 type  1   force =    -0.07515676    0.04482243   -0.07517233
     atom   20 type  1   force =    -0.05438033    0.06082179   -0.05439305
     atom   21 type  1   force =    -0.04832288   -0.04832383   -0.04073291
     atom   22 type  1   force =    -0.00033601   -0.00033195   -0.03084291
     atom   23 type  1   force =    -0.06908110    0.04139199    0.00184216
     atom   24 type  1   force =    -0.00950975    0.07544434   -0.01622432
     atom   25 type  1   force =    -0.06490601    0.06548285   -0.05592105
     atom   26 type  1   force =    -0.09307179    0.07000044    0.00245147
     atom   27 type  1   force =    -0.12117181   -0.00541881    0.11970459
     atom   28 type  1   force =    -0.15447746   -0.02091035    0.12443545
     atom   29 type  1   force =    -0.07435611    0.01530413    0.01032846
     atom   30 type  1   force =    -0.08781606    0.05875761    0.04159336
     atom   31 type  1   force =    -0.05393401   -0.03357468   -0.05395897
     atom   32 type  1   force =    -0.02612997    0.03500747   -0.02615065
     atom   33 type  1   force =    -0.09348897    0.14283691    0.14283382
     atom   34 type  1   force =    -0.27284376    0.15329533    0.15330521
     atom   35 type  1   force =    -0.70246997    0.18578262    0.18578968
     atom   36 type  1   force =    -0.43123138    0.00242202    0.00242979
     atom   37 type  1   force =    -0.16707940    0.11991390    0.02595966
     atom   38 type  1   force =    -0.08479508    0.09608936    0.05197009
     atom   39 type  1   force =    -0.16707617    0.02595417    0.11991397
     atom   40 type  1   force =    -0.08480210    0.05195199    0.09609970
     atom   41 type  1   force =    -0.26807572    0.27681339   -0.20158661
     atom   42 type  1   force =    -0.20562030    0.12494532   -0.13343211
     atom   43 type  1   force =    -0.25205563    0.15707410   -0.25205274
     atom   44 type  1   force =    -0.12624697    0.06758789   -0.12626753
     atom   45 type  1   force =    -0.05591550    0.06548320   -0.06491542
     atom   46 type  1   force =     0.00246547    0.07000920   -0.09307542
     atom   47 type  1   force =    -0.17379111    0.07883285   -0.05586005
     atom   48 type  1   force =    -0.02224749    0.01165249   -0.06821162
     atom   49 type  1   force =    -0.13074193   -0.02373196   -0.11734331
     atom   50 type  1   force =    -0.07390645   -0.02705638   -0.00963017
     atom   51 type  1   force =    -0.07515443   -0.07516232    0.04481478
     atom   52 type  1   force =    -0.05437752   -0.05438630    0.06081058
     atom   53 type  1   force =    -0.06907826    0.00183445    0.04138141
     atom   54 type  1   force =    -0.00950829   -0.01621861    0.07544129
     atom   55 type  1   force =    -0.04832436   -0.04073162   -0.04833636
     atom   56 type  1   force =    -0.00033373   -0.03083500   -0.00034015
     atom   57 type  1   force =    -0.26806541   -0.20159572    0.27681779
     atom   58 type  1   force =    -0.20561624   -0.13344037    0.12494672
     atom   59 type  1   force =    -0.25205629   -0.25205451    0.15708580
     atom   60 type  1   force =    -0.12624879   -0.12625957    0.06761176
     atom   61 type  1   force =    -0.17379628   -0.05587559    0.07884366
     atom   62 type  1   force =    -0.02224006   -0.06821232    0.01167080
     atom   63 type  1   force =    -0.05590950   -0.06491355    0.06548608
     atom   64 type  1   force =     0.00245381   -0.09307283    0.07001362
     atom   65 type  1   force =    -0.77986825   -0.18823641   -0.18823118
     atom   66 type  1   force =    -0.23936725   -0.12744157   -0.12744336
     atom   67 type  1   force =    -0.15996654   -0.15998018   -0.15998692
     atom   68 type  1   force =    -0.06942635   -0.06943994   -0.06944358
     atom   69 type  1   force =    -0.11733714   -0.02372995   -0.13075334
     atom   70 type  1   force =    -0.00961847   -0.02705749   -0.07392171
     atom   71 type  1   force =    -0.11733546   -0.13074926   -0.02371566
     atom   72 type  1   force =    -0.00961291   -0.07392272   -0.02705673
     atom   73 type  1   force =     0.00767220   -0.03471277   -0.03472321
     atom   74 type  1   force =     0.03695099   -0.02063292   -0.02064515
     atom   75 type  1   force =    -0.02585833   -0.02585794   -0.02586556
     atom   76 type  1   force =    -0.00030669   -0.00031394   -0.00031355
     atom   77 type  1   force =     0.01530034   -0.07435820    0.01032614
     atom   78 type  1   force =     0.05873912   -0.08780722    0.04159210
     atom   79 type  1   force =     0.01530363    0.01034034   -0.07436546
     atom   80 type  1   force =     0.05873799    0.04159350   -0.08782366
     atom   81 type  1   force =     0.01033643   -0.07435182    0.01530674
     atom   82 type  1   force =     0.04157918   -0.08781802    0.05876478
     atom   83 type  1   force =    -0.02066150   -0.02066275   -0.00173294
     atom   84 type  1   force =     0.03428340    0.03428202    0.15480164
     atom   85 type  1   force =     0.11990246   -0.16707844    0.02595742
     atom   86 type  1   force =     0.09608448   -0.08479347    0.05197361
     atom   87 type  1   force =     0.00370319   -0.08208311    0.00369971
     atom   88 type  1   force =     0.09632695   -0.09935679    0.09633462
     atom   89 type  1   force =     0.04138381   -0.06908115    0.00183986
     atom   90 type  1   force =     0.07543845   -0.00951550   -0.01622061
     atom   91 type  1   force =     0.02553575    0.02553765   -0.02556363
     atom   92 type  1   force =     0.08216832    0.08217491   -0.09335144
     atom   93 type  1   force =     0.06547510   -0.05591053   -0.06492155
     atom   94 type  1   force =     0.06998933    0.00246415   -0.09307343
     atom   95 type  1   force =     0.12335496    0.05124105    0.07234071
     atom   96 type  1   force =     0.20371628    0.22346443   -0.08244128
     atom   97 type  1   force =     0.01033676    0.01531303   -0.07437306
     atom   98 type  1   force =     0.04158456    0.05876018   -0.08783149
     atom   99 type  1   force =    -0.02066295   -0.00174443   -0.02067360
     atom  100 type  1   force =     0.03428200    0.15479040    0.03427859
     atom  101 type  1   force =     0.00370872    0.00370247   -0.08209594
     atom  102 type  1   force =     0.09632784    0.09632456   -0.09936526
     atom  103 type  1   force =     0.11989773    0.02594625   -0.16708875
     atom  104 type  1   force =     0.09608939    0.05195669   -0.08481408
     atom  105 type  1   force =    -0.08208720    0.00371469    0.00371933
     atom  106 type  1   force =    -0.09935912    0.09632315    0.09633456
     atom  107 type  1   force =    -0.00289856    0.12990762    0.12991972
     atom  108 type  1   force =     0.19777509    0.13781712    0.13782969
     atom  109 type  1   force =    -0.08164913   -0.08163327    0.22024253
     atom  110 type  1   force =     0.27709814    0.27709996    1.34537485
     atom  111 type  1   force =    -0.08165320    0.22022990   -0.08163431
     atom  112 type  1   force =     0.27710252    1.34536894    0.27710832
     atom  113 type  1   force =     0.05122984    0.12336034    0.07234908
     atom  114 type  1   force =     0.22346354    0.20371033   -0.08244090
     atom  115 type  1   force =     0.11971174   -0.00541647   -0.12117535
     atom  116 type  1   force =     0.12442420   -0.02092442   -0.15448659
     atom  117 type  1   force =     0.14283217    0.14284020   -0.09349431
     atom  118 type  1   force =     0.15329186    0.15329070   -0.27284825
     atom  119 type  1   force =     0.70682955    0.23002527    0.15855182
     atom  120 type  1   force =     0.74313864   -0.26146011   -0.71248371
     atom  121 type  1   force =     0.04138006    0.00183260   -0.06908467
     atom  122 type  1   force =     0.07543459   -0.01622391   -0.00953097
     atom  123 type  1   force =     0.02552525   -0.02555963    0.02552852
     atom  124 type  1   force =     0.08216362   -0.09334209    0.08216781
     atom  125 type  1   force =     0.12335390    0.07233345    0.05123142
     atom  126 type  1   force =     0.20370279   -0.08244415    0.22345284
     atom  127 type  1   force =     0.06547323   -0.06491836   -0.05592507
     atom  128 type  1   force =     0.06998843   -0.09306765    0.00245364
     atom  129 type  1   force =     0.05123231    0.07234048    0.12336460
     atom  130 type  1   force =     0.22345683   -0.08244111    0.20371516
     atom  131 type  1   force =     0.11970677   -0.12117762   -0.00540135
     atom  132 type  1   force =     0.12442119   -0.15448552   -0.02089407
     atom  133 type  1   force =     0.70683460    0.15853348    0.23004134
     atom  134 type  1   force =     0.74314116   -0.71249032   -0.26144021
     atom  135 type  1   force =     0.14282935   -0.09349066    0.14284198
     atom  136 type  1   force =     0.15328481   -0.27284233    0.15330453
     atom  137 type  1   force =     0.13914906   -0.04137674   -0.04137132
     atom  138 type  1   force =     0.18314652   -0.11787082   -0.11787030
     atom  139 type  1   force =     0.04480999   -0.07515783   -0.07516769
     atom  140 type  1   force =     0.06080564   -0.05438611   -0.05439092
     atom  141 type  1   force =     0.27681172   -0.20159887   -0.26808411
     atom  142 type  1   force =     0.12493400   -0.13343223   -0.20563382
     atom  143 type  1   force =     0.27680687   -0.26807354   -0.20159115
     atom  144 type  1   force =     0.12493533   -0.20562681   -0.13343548
     atom  145 type  1   force =    -0.03357067   -0.05394174   -0.05395476
     atom  146 type  1   force =     0.03499807   -0.02612335   -0.02614976
     atom  147 type  1   force =    -0.00174922   -0.02066342   -0.02067932
     atom  148 type  1   force =     0.15480145    0.03428889    0.03428423
     atom  149 type  1   force =     0.00185103   -0.06908856    0.04138195
     atom  150 type  1   force =    -0.01622174   -0.00951101    0.07544190
     atom  151 type  1   force =     0.00184635    0.04138119   -0.06909358
     atom  152 type  1   force =    -0.01621716    0.07544018   -0.00952116
     atom  153 type  1   force =     0.02594665   -0.16707710    0.11991438
     atom  154 type  1   force =     0.05195978   -0.08478931    0.09609683
     atom  155 type  1   force =     0.12990170   -0.00288600    0.12991465
     atom  156 type  1   force =     0.13782351    0.19778274    0.13783154
     atom  157 type  1   force =    -0.05586051   -0.17378988    0.07883599
     atom  158 type  1   force =    -0.06819816   -0.02224166    0.01166841
     atom  159 type  1   force =     0.07234187    0.05124519    0.12336131
     atom  160 type  1   force =    -0.08244335    0.22347319    0.20371440
     atom  161 type  1   force =     0.07882208   -0.17378991   -0.05585782
     atom  162 type  1   force =     0.01165710   -0.02224028   -0.06820479
     atom  163 type  1   force =    -0.00541314    0.11972449   -0.12118859
     atom  164 type  1   force =    -0.02091931    0.12443626   -0.15449759
     atom  165 type  1   force =    -0.02372570   -0.11733391   -0.13074926
     atom  166 type  1   force =    -0.02706209   -0.00960719   -0.07391359
     atom  167 type  1   force =    -0.04137677    0.13916047   -0.04136914
     atom  168 type  1   force =    -0.11786234    0.18315960   -0.11786548
     atom  169 type  1   force =     0.02594166    0.11991560   -0.16710088
     atom  170 type  1   force =     0.05195779    0.09609113   -0.08480815
     atom  171 type  1   force =     0.12990353    0.12990375   -0.00289447
     atom  172 type  1   force =     0.13781830    0.13780857    0.19777626
     atom  173 type  1   force =     0.07234429    0.12335429    0.05123506
     atom  174 type  1   force =    -0.08243490    0.20370513    0.22346736
     atom  175 type  1   force =    -0.05586137    0.07882796   -0.17380754
     atom  176 type  1   force =    -0.06819863    0.01165133   -0.02226560
     atom  177 type  1   force =     0.22022772   -0.08163633   -0.08163268
     atom  178 type  1   force =     1.34537723    0.27709165    0.27709918
     atom  179 type  1   force =     0.15853837    0.70682921    0.23002958
     atom  180 type  1   force =    -0.71248081    0.74314303   -0.26144389
     atom  181 type  1   force =     0.15853972    0.23001958    0.70683419
     atom  182 type  1   force =    -0.71248269   -0.26146874    0.74315937
     atom  183 type  1   force =     0.23002006    0.70682954    0.15854342
     atom  184 type  1   force =    -0.26143840    0.74314439   -0.71248715
     atom  185 type  1   force =     0.18577614    0.18578608   -0.70246791
     atom  186 type  1   force =     0.00242506    0.00241648   -0.43125624
     atom  187 type  1   force =    -0.20159871    0.27681348   -0.26808017
     atom  188 type  1   force =    -0.13343005    0.12495234   -0.20563445
     atom  189 type  1   force =    -2.19374313    2.24723040   -2.19371535
     atom  190 type  1   force =    -0.73906936    0.37233409   -0.73907394
     atom  191 type  1   force =     0.07882088   -0.05587509   -0.17380049
     atom  192 type  1   force =     0.01165070   -0.06820682   -0.02225625
     atom  193 type  1   force =    -0.00541596   -0.12118711    0.11970200
     atom  194 type  1   force =    -0.02090597   -0.15447787    0.12442992
     atom  195 type  1   force =    -0.04137721   -0.04138177    0.13914545
     atom  196 type  1   force =    -0.11785704   -0.11786480    0.18315593
     atom  197 type  1   force =    -0.02372533   -0.13074288   -0.11734816
     atom  198 type  1   force =    -0.02705605   -0.07390445   -0.00962119
     atom  199 type  1   force =     0.23001623    0.15852270    0.70684101
     atom  200 type  1   force =    -0.26144690   -0.71249266    0.74315587
     atom  201 type  1   force =     0.18577229   -0.70246741    0.18580145
     atom  202 type  1   force =     0.00242115   -0.43125009    0.00243904
     atom  203 type  1   force =    -2.19373900   -2.19373662    2.24724330
     atom  204 type  1   force =    -0.73906044   -0.73908022    0.37235823
     atom  205 type  1   force =    -0.20158955   -0.26807214    0.27681707
     atom  206 type  1   force =    -0.13342959   -0.20562302    0.12495207
     atom  207 type  1   force =     2.24723260   -2.19374067   -2.19373564
     atom  208 type  1   force =     0.37234279   -0.73907399   -0.73907411
     atom  209 type  1   force =     0.15706416   -0.25205680   -0.25206052
     atom  210 type  1   force =     0.06759228   -0.12624801   -0.12625465
     atom  211 type  1   force =    -0.18823408   -0.18824397   -0.77987057
     atom  212 type  1   force =    -0.12743259   -0.12744802   -0.23938762
     atom  213 type  1   force =    -0.18823608   -0.77987160   -0.18822870
     atom  214 type  1   force =    -0.12742992   -0.23938102   -0.12744349
     atom  215 type  2   force =     3.11026401    3.11027605    3.11029652
     The local contribution  to forces
     atom    1 type  1   force =     0.03557305    0.04480633    0.04481469
     atom    2 type  1   force =     0.02700168   -0.00166069   -0.00164260
     atom    3 type  1   force =     0.02017324   -0.02344089   -0.02342409
     atom    4 type  1   force =     0.08857991   -0.07922379   -0.07921828
     atom    5 type  1   force =     0.03135586    0.03136930   -0.00459710
     atom    6 type  1   force =     0.01882605    0.01883266   -0.03611489
     atom    7 type  1   force =     0.03136247   -0.00460149    0.03137513
     atom    8 type  1   force =     0.01882902   -0.03611492    0.01884129
     atom    9 type  1   force =     0.05318035    0.04528162   -0.05288820
     atom   10 type  1   force =     0.08742204   -0.00505697   -0.07017591
     atom   11 type  1   force =     0.11855193   -0.11677319    0.01671218
     atom   12 type  1   force =     0.13835863   -0.10658153    0.03892038
     atom   13 type  1   force =     0.04738597    0.04740488    0.04947024
     atom   14 type  1   force =     0.02300285    0.02301250   -0.03473173
     atom   15 type  1   force =     0.07046299   -0.00847508   -0.00782852
     atom   16 type  1   force =     0.08434229   -0.03667973   -0.05569571
     atom   17 type  1   force =     0.12482967    0.10586659    0.02539429
     atom   18 type  1   force =     0.06572253    0.00807329    0.02243605
     atom   19 type  1   force =     0.06456906   -0.03730913    0.06458542
     atom   20 type  1   force =     0.04852722   -0.05672431    0.04854027
     atom   21 type  1   force =     0.04480464    0.04480506    0.03557858
     atom   22 type  1   force =    -0.00165505   -0.00165906    0.02701294
     atom   23 type  1   force =     0.06292931   -0.03836760   -0.01023354
     atom   24 type  1   force =     0.00562228   -0.07139293    0.01556282
     atom   25 type  1   force =     0.05317914   -0.05288476    0.04529564
     atom   26 type  1   force =     0.08742878   -0.07017559   -0.00505003
     atom   27 type  1   force =     0.11855217    0.01673586   -0.11676222
     atom   28 type  1   force =     0.13835125    0.03893376   -0.10658547
     atom   29 type  1   force =     0.07046335   -0.00782487   -0.00846932
     atom   30 type  1   force =     0.08434394   -0.05568830   -0.03667615
     atom   31 type  1   force =     0.04739028    0.04947496    0.04741600
     atom   32 type  1   force =     0.02300547   -0.03471903    0.02302691
     atom   33 type  1   force =     0.08862802   -0.13136736   -0.13136404
     atom   34 type  1   force =     0.24993406   -0.13183528   -0.13184549
     atom   35 type  1   force =     0.63574538   -0.17891203   -0.17891853
     atom   36 type  1   force =     0.39508293    0.00155220    0.00154511
     atom   37 type  1   force =     0.15546829   -0.11378830   -0.02297014
     atom   38 type  1   force =     0.07914527   -0.08773277   -0.04946669
     atom   39 type  1   force =     0.15546508   -0.02296506   -0.11378848
     atom   40 type  1   force =     0.07915217   -0.04944886   -0.08774254
     atom   41 type  1   force =     0.23273977   -0.24230436    0.15299599
     atom   42 type  1   force =     0.17888740   -0.11545174    0.12972608
     atom   43 type  1   force =     0.21263148   -0.09901293    0.21262880
     atom   44 type  1   force =     0.10691878   -0.08751734    0.10693967
     atom   45 type  1   force =     0.04528971   -0.05288507    0.05318861
     atom   46 type  1   force =    -0.00506423   -0.07018427    0.08743184
     atom   47 type  1   force =     0.15505721   -0.07086370    0.05138703
     atom   48 type  1   force =     0.01906907   -0.01175798    0.06108153
     atom   49 type  1   force =     0.12483632    0.02540535    0.10587624
     atom   50 type  1   force =     0.06571723    0.02244045    0.00808982
     atom   51 type  1   force =     0.06456717    0.06457519   -0.03730183
     atom   52 type  1   force =     0.04852440    0.04853344   -0.05671347
     atom   53 type  1   force =     0.06292683   -0.01022546   -0.03835662
     atom   54 type  1   force =     0.00562103    0.01555691   -0.07138941
     atom   55 type  1   force =     0.04480610    0.03557737    0.04481787
     atom   56 type  1   force =    -0.00165755    0.02700540   -0.00165160
     atom   57 type  1   force =     0.23272950    0.15300447   -0.24230861
     atom   58 type  1   force =     0.17888311    0.12973429   -0.11545313
     atom   59 type  1   force =     0.21263235    0.21263046   -0.09902498
     atom   60 type  1   force =     0.10692055    0.10693116   -0.08754156
     atom   61 type  1   force =     0.15506254    0.05140272   -0.07087411
     atom   62 type  1   force =     0.01906151    0.06108206   -0.01177581
     atom   63 type  1   force =     0.04528359    0.05318677   -0.05288842
     atom   64 type  1   force =    -0.00505242    0.08742939   -0.07018931
     atom   65 type  1   force =     0.71130909    0.18623573    0.18623129
     atom   66 type  1   force =     0.21178481    0.10591587    0.10591770
     atom   67 type  1   force =     0.14953730    0.14955044    0.14955711
     atom   68 type  1   force =     0.06044654    0.06046003    0.06046356
     atom   69 type  1   force =     0.10587072    0.02540333    0.12484675
     atom   70 type  1   force =     0.00807774    0.02244132    0.06573216
     atom   71 type  1   force =     0.10586913    0.12484273    0.02538887
     atom   72 type  1   force =     0.00807225    0.06573324    0.02244081
     atom   73 type  1   force =    -0.00460360    0.03136635    0.03137634
     atom   74 type  1   force =    -0.03611565    0.01882835    0.01884065
     atom   75 type  1   force =     0.02809660    0.02809614    0.02810361
     atom   76 type  1   force =     0.00214890    0.00215696    0.00215609
     atom   77 type  1   force =    -0.00782120    0.07046537   -0.00846667
     atom   78 type  1   force =    -0.05566955    0.08433531   -0.03667508
     atom   79 type  1   force =    -0.00782461   -0.00848100    0.07047257
     atom   80 type  1   force =    -0.05566830   -0.03667610    0.08435119
     atom   81 type  1   force =    -0.00847751    0.07045842   -0.00782733
     atom   82 type  1   force =    -0.03666205    0.08434618   -0.05569532
     atom   83 type  1   force =     0.02187945    0.02188131    0.01135052
     atom   84 type  1   force =    -0.02843253   -0.02843069   -0.16171532
     atom   85 type  1   force =    -0.11377719    0.15546771   -0.02296791
     atom   86 type  1   force =    -0.08772752    0.07914403   -0.04947052
     atom   87 type  1   force =     0.00463745    0.08465779    0.00464159
     atom   88 type  1   force =    -0.09461472    0.10627952   -0.09462219
     atom   89 type  1   force =    -0.03835965    0.06292963   -0.01023097
     atom   90 type  1   force =    -0.07138646    0.00562872    0.01555853
     atom   91 type  1   force =    -0.02343475   -0.02343680    0.02017995
     atom   92 type  1   force =    -0.07921625   -0.07922255    0.08858560
     atom   93 type  1   force =    -0.05287698    0.04528476    0.05319505
     atom   94 type  1   force =    -0.07016406   -0.00506289    0.08742990
     atom   95 type  1   force =    -0.11736367   -0.04993476   -0.07461009
     atom   96 type  1   force =    -0.20232684   -0.21157188    0.07926206
     atom   97 type  1   force =    -0.00847800   -0.00783365    0.07047993
     atom   98 type  1   force =    -0.03666785   -0.05569086    0.08435967
     atom   99 type  1   force =     0.02188073    0.01136224    0.02189206
     atom  100 type  1   force =    -0.02843116   -0.16170422   -0.02842733
     atom  101 type  1   force =     0.00463206    0.00463896    0.08467083
     atom  102 type  1   force =    -0.09461559   -0.09461191    0.10628841
     atom  103 type  1   force =    -0.11377236   -0.02295690    0.15547817
     atom  104 type  1   force =    -0.08773226   -0.04945400    0.07916456
     atom  105 type  1   force =     0.08466167    0.00462634    0.00462176
     atom  106 type  1   force =     0.10628136   -0.09461028   -0.09462180
     atom  107 type  1   force =     0.00576516   -0.12388873   -0.12390058
     atom  108 type  1   force =    -0.17893655   -0.13395276   -0.13396521
     atom  109 type  1   force =     0.11409910    0.11408273   -0.16890230
     atom  110 type  1   force =    -0.40040299   -0.40040401   -1.21641985
     atom  111 type  1   force =     0.11410323   -0.16888931    0.11408381
     atom  112 type  1   force =    -0.40040738   -1.21641460   -0.40041276
     atom  113 type  1   force =    -0.04992366   -0.11736959   -0.07461867
     atom  114 type  1   force =    -0.21157130   -0.20232136    0.07926207
     atom  115 type  1   force =    -0.11676931    0.01673335    0.11855532
     atom  116 type  1   force =    -0.10657454    0.03894751    0.13836124
     atom  117 type  1   force =    -0.13136246   -0.13137082    0.08863310
     atom  118 type  1   force =    -0.13183243   -0.13183039    0.24993861
     atom  119 type  1   force =    -0.66391896   -0.18807088   -0.14355230
     atom  120 type  1   force =    -0.64442823    0.33017858    0.64840434
     atom  121 type  1   force =    -0.03835586   -0.01022398    0.06293284
     atom  122 type  1   force =    -0.07138290    0.01556211    0.00564409
     atom  123 type  1   force =    -0.02342419    0.02017599   -0.02342789
     atom  124 type  1   force =    -0.07921182    0.08857626   -0.07921571
     atom  125 type  1   force =    -0.11736275   -0.07460307   -0.04992571
     atom  126 type  1   force =    -0.20231339    0.07926514   -0.21156042
     atom  127 type  1   force =    -0.05287528    0.05319176    0.04529951
     atom  128 type  1   force =    -0.07016317    0.08742378   -0.00505244
     atom  129 type  1   force =    -0.04992596   -0.07461043   -0.11737314
     atom  130 type  1   force =    -0.21156412    0.07926221   -0.20232562
     atom  131 type  1   force =    -0.11676447    0.11855758    0.01671800
     atom  132 type  1   force =    -0.10657184    0.13835996    0.03891690
     atom  133 type  1   force =    -0.66392382   -0.14353400   -0.18808753
     atom  134 type  1   force =    -0.64443114    0.64841085    0.33015865
     atom  135 type  1   force =    -0.13135978    0.08862950   -0.13137278
     atom  136 type  1   force =    -0.13182489    0.24993309   -0.13184446
     atom  137 type  1   force =    -0.13268723    0.04311485    0.04310989
     atom  138 type  1   force =    -0.15526530    0.11345575    0.11345535
     atom  139 type  1   force =    -0.03729714    0.06457003    0.06458038
     atom  140 type  1   force =    -0.05670796    0.04853323    0.04853776
     atom  141 type  1   force =    -0.24230274    0.15300731    0.23274798
     atom  142 type  1   force =    -0.11544075    0.12972552    0.17890086
     atom  143 type  1   force =    -0.24229801    0.23273739    0.15299990
     atom  144 type  1   force =    -0.11544191    0.17889400    0.12972887
     atom  145 type  1   force =     0.04947029    0.04739860    0.04741200
     atom  146 type  1   force =    -0.03470884    0.02299890    0.02302569
     atom  147 type  1   force =     0.01136627    0.02188215    0.02189795
     atom  148 type  1   force =    -0.16171590   -0.02843748   -0.02843299
     atom  149 type  1   force =    -0.01024330    0.06293790   -0.03835755
     atom  150 type  1   force =     0.01556019    0.00562452   -0.07139044
     atom  151 type  1   force =    -0.01023882   -0.03835641    0.06294231
     atom  152 type  1   force =     0.01555585   -0.07138870    0.00563405
     atom  153 type  1   force =    -0.02295754    0.15546693   -0.11378877
     atom  154 type  1   force =    -0.04945647    0.07914040   -0.08773977
     atom  155 type  1   force =    -0.12388269    0.00575264   -0.12389551
     atom  156 type  1   force =    -0.13395887   -0.17894460   -0.13396715
     atom  157 type  1   force =     0.05138725    0.15505623   -0.07086604
     atom  158 type  1   force =     0.06106840    0.01906318   -0.01177347
     atom  159 type  1   force =    -0.07461132   -0.04993829   -0.11737003
     atom  160 type  1   force =     0.07926517   -0.21158087   -0.20232505
     atom  161 type  1   force =    -0.07085230    0.15505599    0.05138516
     atom  162 type  1   force =    -0.01176135    0.01906131    0.06107490
     atom  163 type  1   force =     0.01672979   -0.11678267    0.11856905
     atom  164 type  1   force =     0.03894228   -0.10658709    0.13837224
     atom  165 type  1   force =     0.02539997    0.10586681    0.12484302
     atom  166 type  1   force =     0.02244653    0.00806641    0.06572356
     atom  167 type  1   force =     0.04311594   -0.13269890    0.04310822
     atom  168 type  1   force =     0.11344695   -0.15527803    0.11345053
     atom  169 type  1   force =    -0.02295261   -0.11378991    0.15549055
     atom  170 type  1   force =    -0.04945438   -0.08773447    0.07915898
     atom  171 type  1   force =    -0.12388441   -0.12388480    0.00576078
     atom  172 type  1   force =    -0.13395373   -0.13394389   -0.17893828
     atom  173 type  1   force =    -0.07461367   -0.11736321   -0.04992874
     atom  174 type  1   force =     0.07925650   -0.20231602   -0.21157521
     atom  175 type  1   force =     0.05138825   -0.07085844    0.15507374
     atom  176 type  1   force =     0.06106864   -0.01175657    0.01908726
     atom  177 type  1   force =    -0.16888665    0.11408633    0.11408273
     atom  178 type  1   force =    -1.21642301   -0.40039568   -0.40040389
     atom  179 type  1   force =    -0.14353880   -0.66391897   -0.18807570
     atom  180 type  1   force =     0.64840107   -0.64443389    0.33016159
     atom  181 type  1   force =    -0.14354009   -0.18806568   -0.66392435
     atom  182 type  1   force =     0.64840315    0.33018613   -0.64445006
     atom  183 type  1   force =    -0.18806561   -0.66391948   -0.14354422
     atom  184 type  1   force =     0.33015530   -0.64443551    0.64840863
     atom  185 type  1   force =    -0.17890543   -0.17891533    0.63574330
     atom  186 type  1   force =     0.00154978    0.00155808    0.39510851
     atom  187 type  1   force =     0.15300747   -0.24230495    0.23274499
     atom  188 type  1   force =     0.12972368   -0.11545926    0.17890255
     atom  189 type  1   force =     1.97936574   -2.00538177    1.97933800
     atom  190 type  1   force =     0.65915263   -0.43649835    0.65915766
     atom  191 type  1   force =    -0.07085122    0.05140257    0.15506581
     atom  192 type  1   force =    -0.01175489    0.06107667    0.01907698
     atom  193 type  1   force =     0.01673275    0.11856771   -0.11675978
     atom  194 type  1   force =     0.03892936    0.13835232   -0.10658028
     atom  195 type  1   force =     0.04311602    0.04312064   -0.13268422
     atom  196 type  1   force =     0.11344167    0.11344968   -0.15527468
     atom  197 type  1   force =     0.02539948    0.12483680    0.10588139
     atom  198 type  1   force =     0.02244062    0.06571448    0.00808036
     atom  199 type  1   force =    -0.18806245   -0.14352315   -0.66393148
     atom  200 type  1   force =     0.33016341    0.64841425   -0.64444681
     atom  201 type  1   force =    -0.17890163    0.63574311   -0.17893034
     atom  202 type  1   force =     0.00155362    0.39510249    0.00153585
     atom  203 type  1   force =     1.97936284    1.97936063   -2.00539551
     atom  204 type  1   force =     0.65914369    0.65916410   -0.43652213
     atom  205 type  1   force =     0.15299834    0.23273704   -0.24230843
     atom  206 type  1   force =     0.12972313    0.17889121   -0.11545896
     atom  207 type  1   force =    -2.00538216    1.97936198    1.97935767
     atom  208 type  1   force =    -0.43650739    0.65915725    0.65915753
     atom  209 type  1   force =    -0.09900268    0.21263271    0.21263627
     atom  210 type  1   force =    -0.08752109    0.10691934    0.10692616
     atom  211 type  1   force =     0.18623467    0.18624409    0.71131029
     atom  212 type  1   force =     0.10590770    0.10592242    0.21180519
     atom  213 type  1   force =     0.18623675    0.71131144    0.18622892
     atom  214 type  1   force =     0.10590522    0.21179866    0.10591734
     atom  215 type  2   force =    -2.33153780   -2.33154919   -2.33156902
     The core correction contribution to forces
     atom    1 type  1   force =     0.00000000    0.00000000    0.00000000
     atom    2 type  1   force =     0.00000000    0.00000000    0.00000000
     atom    3 type  1   force =     0.00000000    0.00000000    0.00000000
     atom    4 type  1   force =     0.00000000    0.00000000    0.00000000
     atom    5 type  1   force =     0.00000000    0.00000000    0.00000000
     atom    6 type  1   force =     0.00000000    0.00000000    0.00000000
     atom    7 type  1   force =     0.00000000    0.00000000    0.00000000
     atom    8 type  1   force =     0.00000000    0.00000000    0.00000000
     atom    9 type  1   force =     0.00000000    0.00000000    0.00000000
     atom   10 type  1   force =     0.00000000    0.00000000    0.00000000
     atom   11 type  1   force =     0.00000000    0.00000000    0.00000000
     atom   12 type  1   force =     0.00000000    0.00000000    0.00000000
     atom   13 type  1   force =     0.00000000    0.00000000    0.00000000
     atom   14 type  1   force =     0.00000000    0.00000000    0.00000000
     atom   15 type  1   force =     0.00000000    0.00000000    0.00000000
     atom   16 type  1   force =     0.00000000    0.00000000    0.00000000
     atom   17 type  1   force =     0.00000000    0.00000000    0.00000000
     atom   18 type  1   force =     0.00000000    0.00000000    0.00000000
     atom   19 type  1   force =     0.00000000    0.00000000    0.00000000
     atom   20 type  1   force =     0.00000000    0.00000000    0.00000000
     atom   21 type  1   force =     0.00000000    0.00000000    0.00000000
     atom   22 type  1   force =     0.00000000    0.00000000    0.00000000
     atom   23 type  1   force =     0.00000000    0.00000000    0.00000000
     atom   24 type  1   force =     0.00000000    0.00000000    0.00000000
     atom   25 type  1   force =     0.00000000    0.00000000    0.00000000
     atom   26 type  1   force =     0.00000000    0.00000000    0.00000000
     atom   27 type  1   force =     0.00000000    0.00000000    0.00000000
     atom   28 type  1   force =     0.00000000    0.00000000    0.00000000
     atom   29 type  1   force =     0.00000000    0.00000000    0.00000000
     atom   30 type  1   force =     0.00000000    0.00000000    0.00000000
     atom   31 type  1   force =     0.00000000    0.00000000    0.00000000
     atom   32 type  1   force =     0.00000000    0.00000000    0.00000000
     atom   33 type  1   force =     0.00000000    0.00000000    0.00000000
     atom   34 type  1   force =     0.00000000    0.00000000    0.00000000
     atom   35 type  1   force =     0.00000000    0.00000000    0.00000000
     atom   36 type  1   force =     0.00000000    0.00000000    0.00000000
     atom   37 type  1   force =     0.00000000    0.00000000    0.00000000
     atom   38 type  1   force =     0.00000000    0.00000000    0.00000000
     atom   39 type  1   force =     0.00000000    0.00000000    0.00000000
     atom   40 type  1   force =     0.00000000    0.00000000    0.00000000
     atom   41 type  1   force =     0.00000000    0.00000000    0.00000000
     atom   42 type  1   force =     0.00000000    0.00000000    0.00000000
     atom   43 type  1   force =     0.00000000    0.00000000    0.00000000
     atom   44 type  1   force =     0.00000000    0.00000000    0.00000000
     atom   45 type  1   force =     0.00000000    0.00000000    0.00000000
     atom   46 type  1   force =     0.00000000    0.00000000    0.00000000
     atom   47 type  1   force =     0.00000000    0.00000000    0.00000000
     atom   48 type  1   force =     0.00000000    0.00000000    0.00000000
     atom   49 type  1   force =     0.00000000    0.00000000    0.00000000
     atom   50 type  1   force =     0.00000000    0.00000000    0.00000000
     atom   51 type  1   force =     0.00000000    0.00000000    0.00000000
     atom   52 type  1   force =     0.00000000    0.00000000    0.00000000
     atom   53 type  1   force =     0.00000000    0.00000000    0.00000000
     atom   54 type  1   force =     0.00000000    0.00000000    0.00000000
     atom   55 type  1   force =     0.00000000    0.00000000    0.00000000
     atom   56 type  1   force =     0.00000000    0.00000000    0.00000000
     atom   57 type  1   force =     0.00000000    0.00000000    0.00000000
     atom   58 type  1   force =     0.00000000    0.00000000    0.00000000
     atom   59 type  1   force =     0.00000000    0.00000000    0.00000000
     atom   60 type  1   force =     0.00000000    0.00000000    0.00000000
     atom   61 type  1   force =     0.00000000    0.00000000    0.00000000
     atom   62 type  1   force =     0.00000000    0.00000000    0.00000000
     atom   63 type  1   force =     0.00000000    0.00000000    0.00000000
     atom   64 type  1   force =     0.00000000    0.00000000    0.00000000
     atom   65 type  1   force =     0.00000000    0.00000000    0.00000000
     atom   66 type  1   force =     0.00000000    0.00000000    0.00000000
     atom   67 type  1   force =     0.00000000    0.00000000    0.00000000
     atom   68 type  1   force =     0.00000000    0.00000000    0.00000000
     atom   69 type  1   force =     0.00000000    0.00000000    0.00000000
     atom   70 type  1   force =     0.00000000    0.00000000    0.00000000
     atom   71 type  1   force =     0.00000000    0.00000000    0.00000000
     atom   72 type  1   force =     0.00000000    0.00000000    0.00000000
     atom   73 type  1   force =     0.00000000    0.00000000    0.00000000
     atom   74 type  1   force =     0.00000000    0.00000000    0.00000000
     atom   75 type  1   force =     0.00000000    0.00000000    0.00000000
     atom   76 type  1   force =     0.00000000    0.00000000    0.00000000
     atom   77 type  1   force =     0.00000000    0.00000000    0.00000000
     atom   78 type  1   force =     0.00000000    0.00000000    0.00000000
     atom   79 type  1   force =     0.00000000    0.00000000    0.00000000
     atom   80 type  1   force =     0.00000000    0.00000000    0.00000000
     atom   81 type  1   force =     0.00000000    0.00000000    0.00000000
     atom   82 type  1   force =     0.00000000    0.00000000    0.00000000
     atom   83 type  1   force =     0.00000000    0.00000000    0.00000000
     atom   84 type  1   force =     0.00000000    0.00000000    0.00000000
     atom   85 type  1   force =     0.00000000    0.00000000    0.00000000
     atom   86 type  1   force =     0.00000000    0.00000000    0.00000000
     atom   87 type  1   force =     0.00000000    0.00000000    0.00000000
     atom   88 type  1   force =     0.00000000    0.00000000    0.00000000
     atom   89 type  1   force =     0.00000000    0.00000000    0.00000000
     atom   90 type  1   force =     0.00000000    0.00000000    0.00000000
     atom   91 type  1   force =     0.00000000    0.00000000    0.00000000
     atom   92 type  1   force =     0.00000000    0.00000000    0.00000000
     atom   93 type  1   force =     0.00000000    0.00000000    0.00000000
     atom   94 type  1   force =     0.00000000    0.00000000    0.00000000
     atom   95 type  1   force =     0.00000000    0.00000000    0.00000000
     atom   96 type  1   force =     0.00000000    0.00000000    0.00000000
     atom   97 type  1   force =     0.00000000    0.00000000    0.00000000
     atom   98 type  1   force =     0.00000000    0.00000000    0.00000000
     atom   99 type  1   force =     0.00000000    0.00000000    0.00000000
     atom  100 type  1   force =     0.00000000    0.00000000    0.00000000
     atom  101 type  1   force =     0.00000000    0.00000000    0.00000000
     atom  102 type  1   force =     0.00000000    0.00000000    0.00000000
     atom  103 type  1   force =     0.00000000    0.00000000    0.00000000
     atom  104 type  1   force =     0.00000000    0.00000000    0.00000000
     atom  105 type  1   force =     0.00000000    0.00000000    0.00000000
     atom  106 type  1   force =     0.00000000    0.00000000    0.00000000
     atom  107 type  1   force =     0.00000000    0.00000000    0.00000000
     atom  108 type  1   force =     0.00000000    0.00000000    0.00000000
     atom  109 type  1   force =     0.00000000    0.00000000    0.00000000
     atom  110 type  1   force =     0.00000000    0.00000000    0.00000000
     atom  111 type  1   force =     0.00000000    0.00000000    0.00000000
     atom  112 type  1   force =     0.00000000    0.00000000    0.00000000
     atom  113 type  1   force =     0.00000000    0.00000000    0.00000000
     atom  114 type  1   force =     0.00000000    0.00000000    0.00000000
     atom  115 type  1   force =     0.00000000    0.00000000    0.00000000
     atom  116 type  1   force =     0.00000000    0.00000000    0.00000000
     atom  117 type  1   force =     0.00000000    0.00000000    0.00000000
     atom  118 type  1   force =     0.00000000    0.00000000    0.00000000
     atom  119 type  1   force =     0.00000000    0.00000000    0.00000000
     atom  120 type  1   force =     0.00000000    0.00000000    0.00000000
     atom  121 type  1   force =     0.00000000    0.00000000    0.00000000
     atom  122 type  1   force =     0.00000000    0.00000000    0.00000000
     atom  123 type  1   force =     0.00000000    0.00000000    0.00000000
     atom  124 type  1   force =     0.00000000    0.00000000    0.00000000
     atom  125 type  1   force =     0.00000000    0.00000000    0.00000000
     atom  126 type  1   force =     0.00000000    0.00000000    0.00000000
     atom  127 type  1   force =     0.00000000    0.00000000    0.00000000
     atom  128 type  1   force =     0.00000000    0.00000000    0.00000000
     atom  129 type  1   force =     0.00000000    0.00000000    0.00000000
     atom  130 type  1   force =     0.00000000    0.00000000    0.00000000
     atom  131 type  1   force =     0.00000000    0.00000000    0.00000000
     atom  132 type  1   force =     0.00000000    0.00000000    0.00000000
     atom  133 type  1   force =     0.00000000    0.00000000    0.00000000
     atom  134 type  1   force =     0.00000000    0.00000000    0.00000000
     atom  135 type  1   force =     0.00000000    0.00000000    0.00000000
     atom  136 type  1   force =     0.00000000    0.00000000    0.00000000
     atom  137 type  1   force =     0.00000000    0.00000000    0.00000000
     atom  138 type  1   force =     0.00000000    0.00000000    0.00000000
     atom  139 type  1   force =     0.00000000    0.00000000    0.00000000
     atom  140 type  1   force =     0.00000000    0.00000000    0.00000000
     atom  141 type  1   force =     0.00000000    0.00000000    0.00000000
     atom  142 type  1   force =     0.00000000    0.00000000    0.00000000
     atom  143 type  1   force =     0.00000000    0.00000000    0.00000000
     atom  144 type  1   force =     0.00000000    0.00000000    0.00000000
     atom  145 type  1   force =     0.00000000    0.00000000    0.00000000
     atom  146 type  1   force =     0.00000000    0.00000000    0.00000000
     atom  147 type  1   force =     0.00000000    0.00000000    0.00000000
     atom  148 type  1   force =     0.00000000    0.00000000    0.00000000
     atom  149 type  1   force =     0.00000000    0.00000000    0.00000000
     atom  150 type  1   force =     0.00000000    0.00000000    0.00000000
     atom  151 type  1   force =     0.00000000    0.00000000    0.00000000
     atom  152 type  1   force =     0.00000000    0.00000000    0.00000000
     atom  153 type  1   force =     0.00000000    0.00000000    0.00000000
     atom  154 type  1   force =     0.00000000    0.00000000    0.00000000
     atom  155 type  1   force =     0.00000000    0.00000000    0.00000000
     atom  156 type  1   force =     0.00000000    0.00000000    0.00000000
     atom  157 type  1   force =     0.00000000    0.00000000    0.00000000
     atom  158 type  1   force =     0.00000000    0.00000000    0.00000000
     atom  159 type  1   force =     0.00000000    0.00000000    0.00000000
     atom  160 type  1   force =     0.00000000    0.00000000    0.00000000
     atom  161 type  1   force =     0.00000000    0.00000000    0.00000000
     atom  162 type  1   force =     0.00000000    0.00000000    0.00000000
     atom  163 type  1   force =     0.00000000    0.00000000    0.00000000
     atom  164 type  1   force =     0.00000000    0.00000000    0.00000000
     atom  165 type  1   force =     0.00000000    0.00000000    0.00000000
     atom  166 type  1   force =     0.00000000    0.00000000    0.00000000
     atom  167 type  1   force =     0.00000000    0.00000000    0.00000000
     atom  168 type  1   force =     0.00000000    0.00000000    0.00000000
     atom  169 type  1   force =     0.00000000    0.00000000    0.00000000
     atom  170 type  1   force =     0.00000000    0.00000000    0.00000000
     atom  171 type  1   force =     0.00000000    0.00000000    0.00000000
     atom  172 type  1   force =     0.00000000    0.00000000    0.00000000
     atom  173 type  1   force =     0.00000000    0.00000000    0.00000000
     atom  174 type  1   force =     0.00000000    0.00000000    0.00000000
     atom  175 type  1   force =     0.00000000    0.00000000    0.00000000
     atom  176 type  1   force =     0.00000000    0.00000000    0.00000000
     atom  177 type  1   force =     0.00000000    0.00000000    0.00000000
     atom  178 type  1   force =     0.00000000    0.00000000    0.00000000
     atom  179 type  1   force =     0.00000000    0.00000000    0.00000000
     atom  180 type  1   force =     0.00000000    0.00000000    0.00000000
     atom  181 type  1   force =     0.00000000    0.00000000    0.00000000
     atom  182 type  1   force =     0.00000000    0.00000000    0.00000000
     atom  183 type  1   force =     0.00000000    0.00000000    0.00000000
     atom  184 type  1   force =     0.00000000    0.00000000    0.00000000
     atom  185 type  1   force =     0.00000000    0.00000000    0.00000000
     atom  186 type  1   force =     0.00000000    0.00000000    0.00000000
     atom  187 type  1   force =     0.00000000    0.00000000    0.00000000
     atom  188 type  1   force =     0.00000000    0.00000000    0.00000000
     atom  189 type  1   force =     0.00000000    0.00000000    0.00000000
     atom  190 type  1   force =     0.00000000    0.00000000    0.00000000
     atom  191 type  1   force =     0.00000000    0.00000000    0.00000000
     atom  192 type  1   force =     0.00000000    0.00000000    0.00000000
     atom  193 type  1   force =     0.00000000    0.00000000    0.00000000
     atom  194 type  1   force =     0.00000000    0.00000000    0.00000000
     atom  195 type  1   force =     0.00000000    0.00000000    0.00000000
     atom  196 type  1   force =     0.00000000    0.00000000    0.00000000
     atom  197 type  1   force =     0.00000000    0.00000000    0.00000000
     atom  198 type  1   force =     0.00000000    0.00000000    0.00000000
     atom  199 type  1   force =     0.00000000    0.00000000    0.00000000
     atom  200 type  1   force =     0.00000000    0.00000000    0.00000000
     atom  201 type  1   force =     0.00000000    0.00000000    0.00000000
     atom  202 type  1   force =     0.00000000    0.00000000    0.00000000
     atom  203 type  1   force =     0.00000000    0.00000000    0.00000000
     atom  204 type  1   force =     0.00000000    0.00000000    0.00000000
     atom  205 type  1   force =     0.00000000    0.00000000    0.00000000
     atom  206 type  1   force =     0.00000000    0.00000000    0.00000000
     atom  207 type  1   force =     0.00000000    0.00000000    0.00000000
     atom  208 type  1   force =     0.00000000    0.00000000    0.00000000
     atom  209 type  1   force =     0.00000000    0.00000000    0.00000000
     atom  210 type  1   force =     0.00000000    0.00000000    0.00000000
     atom  211 type  1   force =     0.00000000    0.00000000    0.00000000
     atom  212 type  1   force =     0.00000000    0.00000000    0.00000000
     atom  213 type  1   force =     0.00000000    0.00000000    0.00000000
     atom  214 type  1   force =     0.00000000    0.00000000    0.00000000
     atom  215 type  2   force =     0.00000000    0.00000000    0.00000000
     The Hubbard contrib.    to forces
     atom    1 type  1   force =     0.00000000    0.00000000    0.00000000
     atom    2 type  1   force =     0.00000000    0.00000000    0.00000000
     atom    3 type  1   force =     0.00000000    0.00000000    0.00000000
     atom    4 type  1   force =     0.00000000    0.00000000    0.00000000
     atom    5 type  1   force =     0.00000000    0.00000000    0.00000000
     atom    6 type  1   force =     0.00000000    0.00000000    0.00000000
     atom    7 type  1   force =     0.00000000    0.00000000    0.00000000
     atom    8 type  1   force =     0.00000000    0.00000000    0.00000000
     atom    9 type  1   force =     0.00000000    0.00000000    0.00000000
     atom   10 type  1   force =     0.00000000    0.00000000    0.00000000
     atom   11 type  1   force =     0.00000000    0.00000000    0.00000000
     atom   12 type  1   force =     0.00000000    0.00000000    0.00000000
     atom   13 type  1   force =     0.00000000    0.00000000    0.00000000
     atom   14 type  1   force =     0.00000000    0.00000000    0.00000000
     atom   15 type  1   force =     0.00000000    0.00000000    0.00000000
     atom   16 type  1   force =     0.00000000    0.00000000    0.00000000
     atom   17 type  1   force =     0.00000000    0.00000000    0.00000000
     atom   18 type  1   force =     0.00000000    0.00000000    0.00000000
     atom   19 type  1   force =     0.00000000    0.00000000    0.00000000
     atom   20 type  1   force =     0.00000000    0.00000000    0.00000000
     atom   21 type  1   force =     0.00000000    0.00000000    0.00000000
     atom   22 type  1   force =     0.00000000    0.00000000    0.00000000
     atom   23 type  1   force =     0.00000000    0.00000000    0.00000000
     atom   24 type  1   force =     0.00000000    0.00000000    0.00000000
     atom   25 type  1   force =     0.00000000    0.00000000    0.00000000
     atom   26 type  1   force =     0.00000000    0.00000000    0.00000000
     atom   27 type  1   force =     0.00000000    0.00000000    0.00000000
     atom   28 type  1   force =     0.00000000    0.00000000    0.00000000
     atom   29 type  1   force =     0.00000000    0.00000000    0.00000000
     atom   30 type  1   force =     0.00000000    0.00000000    0.00000000
     atom   31 type  1   force =     0.00000000    0.00000000    0.00000000
     atom   32 type  1   force =     0.00000000    0.00000000    0.00000000
     atom   33 type  1   force =     0.00000000    0.00000000    0.00000000
     atom   34 type  1   force =     0.00000000    0.00000000    0.00000000
     atom   35 type  1   force =     0.00000000    0.00000000    0.00000000
     atom   36 type  1   force =     0.00000000    0.00000000    0.00000000
     atom   37 type  1   force =     0.00000000    0.00000000    0.00000000
     atom   38 type  1   force =     0.00000000    0.00000000    0.00000000
     atom   39 type  1   force =     0.00000000    0.00000000    0.00000000
     atom   40 type  1   force =     0.00000000    0.00000000    0.00000000
     atom   41 type  1   force =     0.00000000    0.00000000    0.00000000
     atom   42 type  1   force =     0.00000000    0.00000000    0.00000000
     atom   43 type  1   force =     0.00000000    0.00000000    0.00000000
     atom   44 type  1   force =     0.00000000    0.00000000    0.00000000
     atom   45 type  1   force =     0.00000000    0.00000000    0.00000000
     atom   46 type  1   force =     0.00000000    0.00000000    0.00000000
     atom   47 type  1   force =     0.00000000    0.00000000    0.00000000
     atom   48 type  1   force =     0.00000000    0.00000000    0.00000000
     atom   49 type  1   force =     0.00000000    0.00000000    0.00000000
     atom   50 type  1   force =     0.00000000    0.00000000    0.00000000
     atom   51 type  1   force =     0.00000000    0.00000000    0.00000000
     atom   52 type  1   force =     0.00000000    0.00000000    0.00000000
     atom   53 type  1   force =     0.00000000    0.00000000    0.00000000
     atom   54 type  1   force =     0.00000000    0.00000000    0.00000000
     atom   55 type  1   force =     0.00000000    0.00000000    0.00000000
     atom   56 type  1   force =     0.00000000    0.00000000    0.00000000
     atom   57 type  1   force =     0.00000000    0.00000000    0.00000000
     atom   58 type  1   force =     0.00000000    0.00000000    0.00000000
     atom   59 type  1   force =     0.00000000    0.00000000    0.00000000
     atom   60 type  1   force =     0.00000000    0.00000000    0.00000000
     atom   61 type  1   force =     0.00000000    0.00000000    0.00000000
     atom   62 type  1   force =     0.00000000    0.00000000    0.00000000
     atom   63 type  1   force =     0.00000000    0.00000000    0.00000000
     atom   64 type  1   force =     0.00000000    0.00000000    0.00000000
     atom   65 type  1   force =     0.00000000    0.00000000    0.00000000
     atom   66 type  1   force =     0.00000000    0.00000000    0.00000000
     atom   67 type  1   force =     0.00000000    0.00000000    0.00000000
     atom   68 type  1   force =     0.00000000    0.00000000    0.00000000
     atom   69 type  1   force =     0.00000000    0.00000000    0.00000000
     atom   70 type  1   force =     0.00000000    0.00000000    0.00000000
     atom   71 type  1   force =     0.00000000    0.00000000    0.00000000
     atom   72 type  1   force =     0.00000000    0.00000000    0.00000000
     atom   73 type  1   force =     0.00000000    0.00000000    0.00000000
     atom   74 type  1   force =     0.00000000    0.00000000    0.00000000
     atom   75 type  1   force =     0.00000000    0.00000000    0.00000000
     atom   76 type  1   force =     0.00000000    0.00000000    0.00000000
     atom   77 type  1   force =     0.00000000    0.00000000    0.00000000
     atom   78 type  1   force =     0.00000000    0.00000000    0.00000000
     atom   79 type  1   force =     0.00000000    0.00000000    0.00000000
     atom   80 type  1   force =     0.00000000    0.00000000    0.00000000
     atom   81 type  1   force =     0.00000000    0.00000000    0.00000000
     atom   82 type  1   force =     0.00000000    0.00000000    0.00000000
     atom   83 type  1   force =     0.00000000    0.00000000    0.00000000
     atom   84 type  1   force =     0.00000000    0.00000000    0.00000000
     atom   85 type  1   force =     0.00000000    0.00000000    0.00000000
     atom   86 type  1   force =     0.00000000    0.00000000    0.00000000
     atom   87 type  1   force =     0.00000000    0.00000000    0.00000000
     atom   88 type  1   force =     0.00000000    0.00000000    0.00000000
     atom   89 type  1   force =     0.00000000    0.00000000    0.00000000
     atom   90 type  1   force =     0.00000000    0.00000000    0.00000000
     atom   91 type  1   force =     0.00000000    0.00000000    0.00000000
     atom   92 type  1   force =     0.00000000    0.00000000    0.00000000
     atom   93 type  1   force =     0.00000000    0.00000000    0.00000000
     atom   94 type  1   force =     0.00000000    0.00000000    0.00000000
     atom   95 type  1   force =     0.00000000    0.00000000    0.00000000
     atom   96 type  1   force =     0.00000000    0.00000000    0.00000000
     atom   97 type  1   force =     0.00000000    0.00000000    0.00000000
     atom   98 type  1   force =     0.00000000    0.00000000    0.00000000
     atom   99 type  1   force =     0.00000000    0.00000000    0.00000000
     atom  100 type  1   force =     0.00000000    0.00000000    0.00000000
     atom  101 type  1   force =     0.00000000    0.00000000    0.00000000
     atom  102 type  1   force =     0.00000000    0.00000000    0.00000000
     atom  103 type  1   force =     0.00000000    0.00000000    0.00000000
     atom  104 type  1   force =     0.00000000    0.00000000    0.00000000
     atom  105 type  1   force =     0.00000000    0.00000000    0.00000000
     atom  106 type  1   force =     0.00000000    0.00000000    0.00000000
     atom  107 type  1   force =     0.00000000    0.00000000    0.00000000
     atom  108 type  1   force =     0.00000000    0.00000000    0.00000000
     atom  109 type  1   force =     0.00000000    0.00000000    0.00000000
     atom  110 type  1   force =     0.00000000    0.00000000    0.00000000
     atom  111 type  1   force =     0.00000000    0.00000000    0.00000000
     atom  112 type  1   force =     0.00000000    0.00000000    0.00000000
     atom  113 type  1   force =     0.00000000    0.00000000    0.00000000
     atom  114 type  1   force =     0.00000000    0.00000000    0.00000000
     atom  115 type  1   force =     0.00000000    0.00000000    0.00000000
     atom  116 type  1   force =     0.00000000    0.00000000    0.00000000
     atom  117 type  1   force =     0.00000000    0.00000000    0.00000000
     atom  118 type  1   force =     0.00000000    0.00000000    0.00000000
     atom  119 type  1   force =     0.00000000    0.00000000    0.00000000
     atom  120 type  1   force =     0.00000000    0.00000000    0.00000000
     atom  121 type  1   force =     0.00000000    0.00000000    0.00000000
     atom  122 type  1   force =     0.00000000    0.00000000    0.00000000
     atom  123 type  1   force =     0.00000000    0.00000000    0.00000000
     atom  124 type  1   force =     0.00000000    0.00000000    0.00000000
     atom  125 type  1   force =     0.00000000    0.00000000    0.00000000
     atom  126 type  1   force =     0.00000000    0.00000000    0.00000000
     atom  127 type  1   force =     0.00000000    0.00000000    0.00000000
     atom  128 type  1   force =     0.00000000    0.00000000    0.00000000
     atom  129 type  1   force =     0.00000000    0.00000000    0.00000000
     atom  130 type  1   force =     0.00000000    0.00000000    0.00000000
     atom  131 type  1   force =     0.00000000    0.00000000    0.00000000
     atom  132 type  1   force =     0.00000000    0.00000000    0.00000000
     atom  133 type  1   force =     0.00000000    0.00000000    0.00000000
     atom  134 type  1   force =     0.00000000    0.00000000    0.00000000
     atom  135 type  1   force =     0.00000000    0.00000000    0.00000000
     atom  136 type  1   force =     0.00000000    0.00000000    0.00000000
     atom  137 type  1   force =     0.00000000    0.00000000    0.00000000
     atom  138 type  1   force =     0.00000000    0.00000000    0.00000000
     atom  139 type  1   force =     0.00000000    0.00000000    0.00000000
     atom  140 type  1   force =     0.00000000    0.00000000    0.00000000
     atom  141 type  1   force =     0.00000000    0.00000000    0.00000000
     atom  142 type  1   force =     0.00000000    0.00000000    0.00000000
     atom  143 type  1   force =     0.00000000    0.00000000    0.00000000
     atom  144 type  1   force =     0.00000000    0.00000000    0.00000000
     atom  145 type  1   force =     0.00000000    0.00000000    0.00000000
     atom  146 type  1   force =     0.00000000    0.00000000    0.00000000
     atom  147 type  1   force =     0.00000000    0.00000000    0.00000000
     atom  148 type  1   force =     0.00000000    0.00000000    0.00000000
     atom  149 type  1   force =     0.00000000    0.00000000    0.00000000
     atom  150 type  1   force =     0.00000000    0.00000000    0.00000000
     atom  151 type  1   force =     0.00000000    0.00000000    0.00000000
     atom  152 type  1   force =     0.00000000    0.00000000    0.00000000
     atom  153 type  1   force =     0.00000000    0.00000000    0.00000000
     atom  154 type  1   force =     0.00000000    0.00000000    0.00000000
     atom  155 type  1   force =     0.00000000    0.00000000    0.00000000
     atom  156 type  1   force =     0.00000000    0.00000000    0.00000000
     atom  157 type  1   force =     0.00000000    0.00000000    0.00000000
     atom  158 type  1   force =     0.00000000    0.00000000    0.00000000
     atom  159 type  1   force =     0.00000000    0.00000000    0.00000000
     atom  160 type  1   force =     0.00000000    0.00000000    0.00000000
     atom  161 type  1   force =     0.00000000    0.00000000    0.00000000
     atom  162 type  1   force =     0.00000000    0.00000000    0.00000000
     atom  163 type  1   force =     0.00000000    0.00000000    0.00000000
     atom  164 type  1   force =     0.00000000    0.00000000    0.00000000
     atom  165 type  1   force =     0.00000000    0.00000000    0.00000000
     atom  166 type  1   force =     0.00000000    0.00000000    0.00000000
     atom  167 type  1   force =     0.00000000    0.00000000    0.00000000
     atom  168 type  1   force =     0.00000000    0.00000000    0.00000000
     atom  169 type  1   force =     0.00000000    0.00000000    0.00000000
     atom  170 type  1   force =     0.00000000    0.00000000    0.00000000
     atom  171 type  1   force =     0.00000000    0.00000000    0.00000000
     atom  172 type  1   force =     0.00000000    0.00000000    0.00000000
     atom  173 type  1   force =     0.00000000    0.00000000    0.00000000
     atom  174 type  1   force =     0.00000000    0.00000000    0.00000000
     atom  175 type  1   force =     0.00000000    0.00000000    0.00000000
     atom  176 type  1   force =     0.00000000    0.00000000    0.00000000
     atom  177 type  1   force =     0.00000000    0.00000000    0.00000000
     atom  178 type  1   force =     0.00000000    0.00000000    0.00000000
     atom  179 type  1   force =     0.00000000    0.00000000    0.00000000
     atom  180 type  1   force =     0.00000000    0.00000000    0.00000000
     atom  181 type  1   force =     0.00000000    0.00000000    0.00000000
     atom  182 type  1   force =     0.00000000    0.00000000    0.00000000
     atom  183 type  1   force =     0.00000000    0.00000000    0.00000000
     atom  184 type  1   force =     0.00000000    0.00000000    0.00000000
     atom  185 type  1   force =     0.00000000    0.00000000    0.00000000
     atom  186 type  1   force =     0.00000000    0.00000000    0.00000000
     atom  187 type  1   force =     0.00000000    0.00000000    0.00000000
     atom  188 type  1   force =     0.00000000    0.00000000    0.00000000
     atom  189 type  1   force =     0.00000000    0.00000000    0.00000000
     atom  190 type  1   force =     0.00000000    0.00000000    0.00000000
     atom  191 type  1   force =     0.00000000    0.00000000    0.00000000
     atom  192 type  1   force =     0.00000000    0.00000000    0.00000000
     atom  193 type  1   force =     0.00000000    0.00000000    0.00000000
     atom  194 type  1   force =     0.00000000    0.00000000    0.00000000
     atom  195 type  1   force =     0.00000000    0.00000000    0.00000000
     atom  196 type  1   force =     0.00000000    0.00000000    0.00000000
     atom  197 type  1   force =     0.00000000    0.00000000    0.00000000
     atom  198 type  1   force =     0.00000000    0.00000000    0.00000000
     atom  199 type  1   force =     0.00000000    0.00000000    0.00000000
     atom  200 type  1   force =     0.00000000    0.00000000    0.00000000
     atom  201 type  1   force =     0.00000000    0.00000000    0.00000000
     atom  202 type  1   force =     0.00000000    0.00000000    0.00000000
     atom  203 type  1   force =     0.00000000    0.00000000    0.00000000
     atom  204 type  1   force =     0.00000000    0.00000000    0.00000000
     atom  205 type  1   force =     0.00000000    0.00000000    0.00000000
     atom  206 type  1   force =     0.00000000    0.00000000    0.00000000
     atom  207 type  1   force =     0.00000000    0.00000000    0.00000000
     atom  208 type  1   force =     0.00000000    0.00000000    0.00000000
     atom  209 type  1   force =     0.00000000    0.00000000    0.00000000
     atom  210 type  1   force =     0.00000000    0.00000000    0.00000000
     atom  211 type  1   force =     0.00000000    0.00000000    0.00000000
     atom  212 type  1   force =     0.00000000    0.00000000    0.00000000
     atom  213 type  1   force =     0.00000000    0.00000000    0.00000000
     atom  214 type  1   force =     0.00000000    0.00000000    0.00000000
     atom  215 type  2   force =     0.00000000    0.00000000    0.00000000
     The SCF correction term to forces
     atom    1 type  1   force =    -0.00000586   -0.00001062   -0.00001054
     atom    2 type  1   force =    -0.00000883   -0.00000827   -0.00000816
     atom    3 type  1   force =    -0.00000649   -0.00000325   -0.00000313
     atom    4 type  1   force =    -0.00001001    0.00000189    0.00000198
     atom    5 type  1   force =    -0.00000961   -0.00000981   -0.00000436
     atom    6 type  1   force =    -0.00000752   -0.00000778    0.00000097
     atom    7 type  1   force =    -0.00000960   -0.00000447   -0.00000974
     atom    8 type  1   force =    -0.00000752    0.00000089   -0.00000768
     atom    9 type  1   force =    -0.00000690   -0.00000974    0.00000668
     atom   10 type  1   force =    -0.00001021   -0.00000765    0.00000931
     atom   11 type  1   force =    -0.00000767   -0.00000242    0.00000973
     atom   12 type  1   force =    -0.00001072    0.00000288    0.00000770
     atom   13 type  1   force =    -0.00001026   -0.00001049    0.00001017
     atom   14 type  1   force =    -0.00000733   -0.00000765    0.00000801
     atom   15 type  1   force =    -0.00001002   -0.00000316    0.00000610
     atom   16 type  1   force =    -0.00000715    0.00000258    0.00000952
     atom   17 type  1   force =    -0.00000718   -0.00001122    0.00000388
     atom   18 type  1   force =    -0.00001010   -0.00000834   -0.00000113
     atom   19 type  1   force =    -0.00000664   -0.00000436   -0.00000662
     atom   20 type  1   force =    -0.00000946    0.00000115   -0.00000952
     atom   21 type  1   force =    -0.00001039   -0.00001062   -0.00000584
     atom   22 type  1   force =    -0.00000799   -0.00000828   -0.00000891
     atom   23 type  1   force =    -0.00000996   -0.00000333    0.00000368
     atom   24 type  1   force =    -0.00000699    0.00000218   -0.00000179
     atom   25 type  1   force =    -0.00000688    0.00000664   -0.00000964
     atom   26 type  1   force =    -0.00001020    0.00000933   -0.00000752
     atom   27 type  1   force =    -0.00000767    0.00000982   -0.00000228
     atom   28 type  1   force =    -0.00001074    0.00000782    0.00000298
     atom   29 type  1   force =    -0.00001002    0.00000606   -0.00000305
     atom   30 type  1   force =    -0.00000715    0.00000954    0.00000266
     atom   31 type  1   force =    -0.00001024    0.00001024   -0.00001040
     atom   32 type  1   force =    -0.00000733    0.00000811   -0.00000753
     atom   33 type  1   force =    -0.00000805    0.00000712    0.00000715
     atom   34 type  1   force =    -0.00001045    0.00000958    0.00000954
     atom   35 type  1   force =    -0.00000895    0.00000989    0.00000977
     atom   36 type  1   force =    -0.00001011    0.00000813    0.00000798
     atom   37 type  1   force =    -0.00001015    0.00000723    0.00000984
     atom   38 type  1   force =    -0.00000662    0.00000980    0.00000750
     atom   39 type  1   force =    -0.00001016    0.00000992    0.00000726
     atom   40 type  1   force =    -0.00000663    0.00000762    0.00000977
     atom   41 type  1   force =    -0.00000698    0.00000682    0.00000184
     atom   42 type  1   force =    -0.00001015    0.00001044   -0.00000178
     atom   43 type  1   force =    -0.00000700    0.00001202   -0.00000697
     atom   44 type  1   force =    -0.00001126    0.00000793   -0.00001134
     atom   45 type  1   force =    -0.00000949    0.00000664   -0.00000686
     atom   46 type  1   force =    -0.00000733    0.00000935   -0.00001028
     atom   47 type  1   force =    -0.00000967    0.00001037    0.00000329
     atom   48 type  1   force =    -0.00000742    0.00000789   -0.00000218
     atom   49 type  1   force =    -0.00000718    0.00000401   -0.00001112
     atom   50 type  1   force =    -0.00001011   -0.00000104   -0.00000822
     atom   51 type  1   force =    -0.00000666   -0.00000659   -0.00000422
     atom   52 type  1   force =    -0.00000948   -0.00000956    0.00000125
     atom   53 type  1   force =    -0.00000998    0.00000379   -0.00000320
     atom   54 type  1   force =    -0.00000700   -0.00000172    0.00000227
     atom   55 type  1   force =    -0.00001039   -0.00000580   -0.00001055
     atom   56 type  1   force =    -0.00000800   -0.00000893   -0.00000818
     atom   57 type  1   force =    -0.00000701    0.00000197    0.00000688
     atom   58 type  1   force =    -0.00001019   -0.00000170    0.00001042
     atom   59 type  1   force =    -0.00000704   -0.00000695    0.00001193
     atom   60 type  1   force =    -0.00001128   -0.00001138    0.00000781
     atom   61 type  1   force =    -0.00000969    0.00000341    0.00001029
     atom   62 type  1   force =    -0.00000743   -0.00000209    0.00000778
     atom   63 type  1   force =    -0.00000952   -0.00000684    0.00000669
     atom   64 type  1   force =    -0.00000735   -0.00001031    0.00000933
     atom   65 type  1   force =    -0.00000896    0.00000395    0.00000379
     atom   66 type  1   force =    -0.00001060   -0.00000158   -0.00000169
     atom   67 type  1   force =    -0.00000712   -0.00000704   -0.00000709
     atom   68 type  1   force =    -0.00000960   -0.00000969   -0.00000967
     atom   69 type  1   force =    -0.00001094    0.00000401   -0.00000715
     atom   70 type  1   force =    -0.00000801   -0.00000105   -0.00001020
     atom   71 type  1   force =    -0.00001096   -0.00000711    0.00000389
     atom   72 type  1   force =    -0.00000801   -0.00001022   -0.00000114
     atom   73 type  1   force =    -0.00000420   -0.00000983   -0.00000976
     atom   74 type  1   force =     0.00000107   -0.00000779   -0.00000770
     atom   75 type  1   force =    -0.00000354   -0.00000379   -0.00000369
     atom   76 type  1   force =     0.00000227    0.00000210    0.00000218
     atom   77 type  1   force =     0.00000612   -0.00001025   -0.00000305
     atom   78 type  1   force =     0.00000945   -0.00000744    0.00000267
     atom   79 type  1   force =     0.00000612   -0.00000316   -0.00001017
     atom   80 type  1   force =     0.00000944    0.00000259   -0.00000733
     atom   81 type  1   force =    -0.00000289   -0.00001024    0.00000612
     atom   82 type  1   force =     0.00000277   -0.00000744    0.00000954
     atom   83 type  1   force =    -0.00000229   -0.00000258    0.00001027
     atom   84 type  1   force =     0.00000312    0.00000294    0.00000794
     atom   85 type  1   force =     0.00000730   -0.00001044    0.00000989
     atom   86 type  1   force =     0.00000969   -0.00000699    0.00000752
     atom   87 type  1   force =     0.00000721   -0.00000287    0.00000721
     atom   88 type  1   force =     0.00001003    0.00000302    0.00001012
     atom   89 type  1   force =    -0.00000301   -0.00001023    0.00000368
     atom   90 type  1   force =     0.00000238   -0.00000732   -0.00000181
     atom   91 type  1   force =    -0.00000297   -0.00000325   -0.00000648
     atom   92 type  1   force =     0.00000208    0.00000191   -0.00001009
     atom   93 type  1   force =     0.00000671   -0.00000979   -0.00000691
     atom   94 type  1   force =     0.00000925   -0.00000767   -0.00001030
     atom   95 type  1   force =     0.00000715   -0.00000189    0.00000314
     atom   96 type  1   force =     0.00000936    0.00000283   -0.00000245
     atom   97 type  1   force =    -0.00000289    0.00000608   -0.00001016
     atom   98 type  1   force =     0.00000276    0.00000956   -0.00000733
     atom   99 type  1   force =    -0.00000229    0.00001034   -0.00000246
     atom  100 type  1   force =     0.00000313    0.00000805    0.00000303
     atom  101 type  1   force =     0.00000721    0.00000718   -0.00000276
     atom  102 type  1   force =     0.00001004    0.00001016    0.00000311
     atom  103 type  1   force =     0.00000729    0.00000996   -0.00001035
     atom  104 type  1   force =     0.00000968    0.00000763   -0.00000686
     atom  105 type  1   force =    -0.00000261    0.00000717    0.00000720
     atom  106 type  1   force =     0.00000321    0.00001016    0.00001013
     atom  107 type  1   force =    -0.00000202    0.00000996    0.00000988
     atom  108 type  1   force =     0.00000289    0.00000715    0.00000703
     atom  109 type  1   force =     0.00000758    0.00000756    0.00001012
     atom  110 type  1   force =     0.00001421    0.00001439    0.00000400
     atom  111 type  1   force =     0.00000759    0.00001020    0.00000759
     atom  112 type  1   force =     0.00001424    0.00000413    0.00001436
     atom  113 type  1   force =    -0.00000158    0.00000711    0.00000314
     atom  114 type  1   force =     0.00000303    0.00000951   -0.00000245
     atom  115 type  1   force =    -0.00000208    0.00000985   -0.00000767
     atom  116 type  1   force =     0.00000312    0.00000785   -0.00001085
     atom  117 type  1   force =     0.00000718    0.00000716   -0.00000805
     atom  118 type  1   force =     0.00000947    0.00000963   -0.00001056
     atom  119 type  1   force =     0.00000850    0.00001000    0.00000289
     atom  120 type  1   force =     0.00001168    0.00000725   -0.00000423
     atom  121 type  1   force =    -0.00000301    0.00000379   -0.00001015
     atom  122 type  1   force =     0.00000239   -0.00000173   -0.00000721
     atom  123 type  1   force =    -0.00000297   -0.00000645   -0.00000314
     atom  124 type  1   force =     0.00000209   -0.00001012    0.00000199
     atom  125 type  1   force =     0.00000716    0.00000325   -0.00000177
     atom  126 type  1   force =     0.00000938   -0.00000237    0.00000293
     atom  127 type  1   force =     0.00000672   -0.00000686   -0.00000972
     atom  128 type  1   force =     0.00000925   -0.00001033   -0.00000756
     atom  129 type  1   force =    -0.00000158    0.00000325    0.00000715
     atom  130 type  1   force =     0.00000304   -0.00000237    0.00000950
     atom  131 type  1   force =    -0.00000208   -0.00000763    0.00000978
     atom  132 type  1   force =     0.00000313   -0.00001088    0.00000775
     atom  133 type  1   force =     0.00000852    0.00000301    0.00000992
     atom  134 type  1   force =     0.00001171   -0.00000413    0.00000712
     atom  135 type  1   force =     0.00000720   -0.00000803    0.00000721
     atom  136 type  1   force =     0.00000950   -0.00001060    0.00000961
     atom  137 type  1   force =    -0.00000300    0.00000307    0.00000295
     atom  138 type  1   force =     0.00000210   -0.00000205   -0.00000214
     atom  139 type  1   force =    -0.00000402   -0.00000661   -0.00000666
     atom  140 type  1   force =     0.00000138   -0.00000960   -0.00000959
     atom  141 type  1   force =     0.00000694    0.00000198   -0.00000705
     atom  142 type  1   force =     0.00001035   -0.00000172   -0.00001034
     atom  143 type  1   force =     0.00000695   -0.00000701    0.00000186
     atom  144 type  1   force =     0.00001035   -0.00001037   -0.00000182
     atom  145 type  1   force =     0.00001003   -0.00001051   -0.00001044
     atom  146 type  1   force =     0.00000784   -0.00000765   -0.00000753
     atom  147 type  1   force =     0.00001013   -0.00000257   -0.00000246
     atom  148 type  1   force =     0.00000777    0.00000293    0.00000301
     atom  149 type  1   force =     0.00000352   -0.00001021   -0.00000320
     atom  150 type  1   force =    -0.00000189   -0.00000730    0.00000227
     atom  151 type  1   force =     0.00000352   -0.00000333   -0.00001012
     atom  152 type  1   force =    -0.00000189    0.00000218   -0.00000717
     atom  153 type  1   force =     0.00000972   -0.00001042    0.00000729
     atom  154 type  1   force =     0.00000733   -0.00000697    0.00000977
     atom  155 type  1   force =     0.00000971   -0.00000235    0.00000988
     atom  156 type  1   force =     0.00000680    0.00000263    0.00000699
     atom  157 type  1   force =     0.00000311   -0.00000998    0.00001029
     atom  158 type  1   force =    -0.00000229   -0.00000780    0.00000776
     atom  159 type  1   force =     0.00000299   -0.00000189    0.00000713
     atom  160 type  1   force =    -0.00000254    0.00000281    0.00000943
     atom  161 type  1   force =     0.00001012   -0.00001001    0.00000329
     atom  162 type  1   force =     0.00000757   -0.00000782   -0.00000218
     atom  163 type  1   force =     0.00000959   -0.00000242   -0.00000766
     atom  164 type  1   force =     0.00000753    0.00000289   -0.00001081
     atom  165 type  1   force =     0.00000370   -0.00001124   -0.00000716
     atom  166 type  1   force =    -0.00000124   -0.00000835   -0.00001017
     atom  167 type  1   force =     0.00000277   -0.00000339    0.00000295
     atom  168 type  1   force =    -0.00000222    0.00000179   -0.00000210
     atom  169 type  1   force =     0.00000970    0.00000724   -0.00001032
     atom  170 type  1   force =     0.00000732    0.00000980   -0.00000683
     atom  171 type  1   force =     0.00000972    0.00000996   -0.00000222
     atom  172 type  1   force =     0.00000682    0.00000713    0.00000274
     atom  173 type  1   force =     0.00000299    0.00000709   -0.00000176
     atom  174 type  1   force =    -0.00000254    0.00000947    0.00000290
     atom  175 type  1   force =     0.00000311    0.00001038   -0.00000985
     atom  176 type  1   force =    -0.00000229    0.00000788   -0.00000765
     atom  177 type  1   force =     0.00000996    0.00000754    0.00000757
     atom  178 type  1   force =     0.00000379    0.00001436    0.00001430
     atom  179 type  1   force =     0.00000270    0.00000842    0.00000982
     atom  180 type  1   force =    -0.00000429    0.00001176    0.00000699
     atom  181 type  1   force =     0.00000271    0.00000994    0.00000846
     atom  182 type  1   force =    -0.00000432    0.00000716    0.00001173
     atom  183 type  1   force =     0.00000966    0.00000845    0.00000288
     atom  184 type  1   force =     0.00000678    0.00001180   -0.00000417
     atom  185 type  1   force =     0.00000961    0.00000995   -0.00000897
     atom  186 type  1   force =     0.00000776    0.00000815   -0.00001024
     atom  187 type  1   force =     0.00000166    0.00000683   -0.00000696
     atom  188 type  1   force =    -0.00000191    0.00001044   -0.00001023
     atom  189 type  1   force =    -0.00000082    0.00001411   -0.00000058
     atom  190 type  1   force =    -0.00000379    0.00000828   -0.00000363
     atom  191 type  1   force =     0.00001012    0.00000341   -0.00000991
     atom  192 type  1   force =     0.00000758   -0.00000209   -0.00000768
     atom  193 type  1   force =     0.00000961   -0.00000763   -0.00000229
     atom  194 type  1   force =     0.00000755   -0.00001085    0.00000300
     atom  195 type  1   force =     0.00000277    0.00000307   -0.00000323
     atom  196 type  1   force =    -0.00000224   -0.00000202    0.00000192
     atom  197 type  1   force =     0.00000370   -0.00000712   -0.00001115
     atom  198 type  1   force =    -0.00000124   -0.00001020   -0.00000822
     atom  199 type  1   force =     0.00000970    0.00000301    0.00000850
     atom  200 type  1   force =     0.00000683   -0.00000409    0.00001180
     atom  201 type  1   force =     0.00000965   -0.00000895    0.00000987
     atom  202 type  1   force =     0.00000778   -0.00001030    0.00000802
     atom  203 type  1   force =    -0.00000082   -0.00000042    0.00001400
     atom  204 type  1   force =    -0.00000381   -0.00000353    0.00000811
     atom  205 type  1   force =     0.00000167   -0.00000695    0.00000690
     atom  206 type  1   force =    -0.00000192   -0.00001030    0.00001043
     atom  207 type  1   force =     0.00001379   -0.00000043   -0.00000058
     atom  208 type  1   force =     0.00000781   -0.00000357   -0.00000370
     atom  209 type  1   force =     0.00001176   -0.00000701   -0.00000707
     atom  210 type  1   force =     0.00000761   -0.00001141   -0.00001139
     atom  211 type  1   force =     0.00000355    0.00000395   -0.00000895
     atom  212 type  1   force =    -0.00000183   -0.00000158   -0.00001069
     atom  213 type  1   force =     0.00000355   -0.00000892    0.00000379
     atom  214 type  1   force =    -0.00000183   -0.00001072   -0.00000169
     atom  215 type  2   force =     0.00001884    0.00001924    0.00001911

     Total force =     0.053168     Total SCF correction =     0.000193

     Writing all to output data dir ./pwscf.save/
 
     init_run     :      1.98s CPU      2.08s WALL (       1 calls)
     electrons    :    580.97s CPU    588.72s WALL (       6 calls)
     forces       :      2.06s CPU      2.10s WALL (       1 calls)

     Called by init_run:
     aceinit0     :      0.00s CPU      0.00s WALL (       1 calls)
     wfcinit      :      1.33s CPU      1.41s WALL (       1 calls)
     wfcinit:wfcr :      1.17s CPU      1.21s WALL (       1 calls)
     potinit      :      0.16s CPU      0.17s WALL (       1 calls)
     hinit0       :      0.43s CPU      0.44s WALL (       1 calls)

     Called by electrons:
     c_bands      :    568.35s CPU    575.48s WALL (      35 calls)
     sum_band     :      7.68s CPU      7.76s WALL (      35 calls)
     v_of_rho     :      4.21s CPU      4.31s WALL (      36 calls)
     v_h          :      0.19s CPU      0.19s WALL (      36 calls)
     v_xc         :      4.02s CPU      4.12s WALL (      36 calls)
     mix_rho      :      0.53s CPU      0.56s WALL (      35 calls)

     Called by c_bands:
     init_us_2    :      2.48s CPU      2.52s WALL (      71 calls)
     init_us_2:cp :      2.48s CPU      2.52s WALL (      71 calls)
     regterg      :    556.01s CPU    563.06s WALL (      38 calls)

     Called by sum_band:
     sum_band:wei :      0.01s CPU      0.01s WALL (      35 calls)
     sum_band:loo :      6.98s CPU      7.04s WALL (      35 calls)
     sum_band:buf :      0.00s CPU      0.00s WALL (      35 calls)
     sum_band:ini :      1.24s CPU      1.25s WALL (      35 calls)

     Called by *egterg:
     rdiaghg      :    108.00s CPU    109.93s WALL (     400 calls)
     regterg:over :     68.23s CPU     69.27s WALL (     371 calls)
     regterg:upda :     48.49s CPU     49.16s WALL (     371 calls)
     regterg:last :     75.83s CPU     75.97s WALL (     112 calls)
     rdiaghg:chol :      8.20s CPU      8.23s WALL (     400 calls)
     rdiaghg:inve :      7.46s CPU      7.48s WALL (     400 calls)
     rdiaghg:para :     30.77s CPU     31.36s WALL (     800 calls)
     h_psi        :    237.55s CPU    239.91s WALL (     410 calls)
     g_psi        :      1.35s CPU      1.35s WALL (     371 calls)

     Called by h_psi:
     h_psi:calbec :     43.65s CPU     43.73s WALL (     410 calls)
     vloc_psi     :     94.67s CPU     95.35s WALL (     410 calls)
     add_vuspsi   :     43.26s CPU     43.59s WALL (     410 calls)

     General routines
     calbec       :     69.65s CPU     69.80s WALL (     696 calls)
     fft          :      1.28s CPU      1.30s WALL (     463 calls)
     ffts         :      0.10s CPU      0.10s WALL (      35 calls)
     fftw         :     78.66s CPU     79.21s WALL (   85236 calls)
     fftc         :    269.88s CPU    272.19s WALL (  559872 calls)
     fftcw        :      2.00s CPU      2.02s WALL (    4536 calls)
 
     Parallel routines

     EXX routines
     exx_grid     :      0.00s CPU      0.00s WALL (       1 calls)
     exxinit      :      5.81s CPU      6.25s WALL (       6 calls)
     vexx         :    920.02s CPU    925.74s WALL (       6 calls)
     matcalc      :     24.57s CPU     24.64s WALL (     282 calls)
     aceupdate    :      1.38s CPU      1.39s WALL (       6 calls)
     vexxace      :     62.81s CPU     64.15s WALL (     265 calls)
     aceinit      :    922.87s CPU    928.61s WALL (       6 calls)
 
     PWSCF        :  25m24.91s CPU  25m39.70s WALL

 
   This run was terminated on:   3:23:53  24Aug2023            

=------------------------------------------------------------------------------=
   JOB DONE.
=------------------------------------------------------------------------------=
