
     Program PWSCF v.6.1 (svn rev. 13369) starts on 18Jun2023 at  1:37:35 

     This program is part of the open-source Quantum ESPRESSO suite
     for quantum simulation of materials; please cite
         "P. Giannozzi et al., J. Phys.:Condens. Matter 21 395502 (2009);
          URL http://www.quantum-espresso.org", 
     in publications or presentations arising from this work. More details at
     http://www.quantum-espresso.org/quote

     Parallel version (MPI & OpenMP), running on      80 processor cores
     Number of MPI processes:                80
     Threads/MPI process:                     1
     R & G space division:  proc/nbgrp/npool/nimage =      80
     Reading input from pw.in
Warning: card &IONS ignored
Warning: card     ION_DYNAMICS='BFGS' ignored
Warning: card     ION_POSITIONS='DEFAULT' ignored
Warning: card / ignored

     Current dimensions of program PWSCF are:
     Max number of different atomic species (ntypx) = 10
     Max number of k-points (npk) =  40000
     Max angular momentum in pseudopotentials (lmaxx) =  3

     gamma-point specific algorithms are used

     Subspace diagonalization in iterative solution of the eigenvalue problem:
     one sub-group per band group will be used
     scalapack distributed-memory algorithm (size of sub-group:  6*  6 procs)

 
     Parallelization info
     --------------------
     sticks:   dense  smooth     PW     G-vecs:    dense   smooth      PW
     Min         137     137     33                11046    11046    1378
     Max         140     140     36                11072    11072    1392
     Sum       11157   11157   2785               884571   884571  110699
 


     bravais-lattice index     =            0
     lattice parameter (alat)  =      24.1507  a.u.
     unit-cell volume          =   14086.0481 (a.u.)^3
     number of atoms/cell      =          215
     number of atomic types    =            2
     number of electrons       =      1722.00
     number of Kohn-Sham states=          900
     kinetic-energy cutoff     =      60.0000  Ry
     charge density cutoff     =     240.0000  Ry
     convergence threshold     =      1.0E-10
     mixing beta               =       0.7000
     number of iterations used =            8  plain     mixing
     Exchange-correlation      = PBE ( 1  4  3  4 0 0)

     celldm(1)=  24.150700  celldm(2)=   0.000000  celldm(3)=   0.000000
     celldm(4)=   0.000000  celldm(5)=   0.000000  celldm(6)=   0.000000

     crystal axes: (cart. coord. in units of alat)
               a(1) = (   1.000000   0.000000   0.000000 )  
               a(2) = (   0.000000   1.000000   0.000000 )  
               a(3) = (   0.000000   0.000000   1.000000 )  

     reciprocal axes: (cart. coord. in units 2 pi/alat)
               b(1) = (  1.000000  0.000000  0.000000 )  
               b(2) = (  0.000000  1.000000  0.000000 )  
               b(3) = (  0.000000  0.000000  1.000000 )  


     PseudoPot. # 1 for Mg read from file:
     /home/jinyuchem/program/QE/pseudo-potential/Mg_ONCV_PBE-1.0.upf
     MD5 check sum: 17b1391fa68439aabf384d02b0276f1b
     Pseudo is Norm-conserving, Zval = 10.0
     Generated using ONCVPSP code by D. R. Hamann
     Using radial grid of  602 points,  4 beta functions with: 
                l(1) =   0
                l(2) =   0
                l(3) =   1
                l(4) =   1

     PseudoPot. # 2 for O  read from file:
     /home/jinyuchem/program/QE/pseudo-potential/O_ONCV_PBE-1.0.upf
     MD5 check sum: 80a85145cbbb6f60b39549a50e3ff56c
     Pseudo is Norm-conserving, Zval =  6.0
     Generated using ONCVPSP code by D. R. Hamann
     Using radial grid of  602 points,  4 beta functions with: 
                l(1) =   0
                l(2) =   0
                l(3) =   1
                l(4) =   1

     atomic species   valence    mass     pseudopotential
        Mg            10.00    24.30500     Mg( 1.00)
        O              6.00    15.99900     O ( 1.00)

     48 Sym. Ops., with inversion, found


                                    s                        frac. trans.

      isym =  1     identity                                     

 cryst.   s( 1) = (     1          0          0      )
                  (     0          1          0      )
                  (     0          0          1      )

 cart.    s( 1) = (  1.0000000  0.0000000  0.0000000 )
                  (  0.0000000  1.0000000  0.0000000 )
                  (  0.0000000  0.0000000  1.0000000 )


      isym =  2     180 deg rotation - cart. axis [0,0,1]        

 cryst.   s( 2) = (    -1          0          0      )
                  (     0         -1          0      )
                  (     0          0          1      )

 cart.    s( 2) = ( -1.0000000  0.0000000  0.0000000 )
                  (  0.0000000 -1.0000000  0.0000000 )
                  (  0.0000000  0.0000000  1.0000000 )


      isym =  3     180 deg rotation - cart. axis [0,1,0]        

 cryst.   s( 3) = (    -1          0          0      )
                  (     0          1          0      )
                  (     0          0         -1      )

 cart.    s( 3) = ( -1.0000000  0.0000000  0.0000000 )
                  (  0.0000000  1.0000000  0.0000000 )
                  (  0.0000000  0.0000000 -1.0000000 )


      isym =  4     180 deg rotation - cart. axis [1,0,0]        

 cryst.   s( 4) = (     1          0          0      )
                  (     0         -1          0      )
                  (     0          0         -1      )

 cart.    s( 4) = (  1.0000000  0.0000000  0.0000000 )
                  (  0.0000000 -1.0000000  0.0000000 )
                  (  0.0000000  0.0000000 -1.0000000 )


      isym =  5     180 deg rotation - cart. axis [1,1,0]        

 cryst.   s( 5) = (     0          1          0      )
                  (     1          0          0      )
                  (     0          0         -1      )

 cart.    s( 5) = (  0.0000000  1.0000000  0.0000000 )
                  (  1.0000000  0.0000000  0.0000000 )
                  (  0.0000000  0.0000000 -1.0000000 )


      isym =  6     180 deg rotation - cart. axis [1,-1,0]       

 cryst.   s( 6) = (     0         -1          0      )
                  (    -1          0          0      )
                  (     0          0         -1      )

 cart.    s( 6) = (  0.0000000 -1.0000000  0.0000000 )
                  ( -1.0000000  0.0000000  0.0000000 )
                  (  0.0000000  0.0000000 -1.0000000 )


      isym =  7      90 deg rotation - cart. axis [0,0,-1]       

 cryst.   s( 7) = (     0         -1          0      )
                  (     1          0          0      )
                  (     0          0          1      )

 cart.    s( 7) = (  0.0000000  1.0000000  0.0000000 )
                  ( -1.0000000  0.0000000  0.0000000 )
                  (  0.0000000  0.0000000  1.0000000 )


      isym =  8      90 deg rotation - cart. axis [0,0,1]        

 cryst.   s( 8) = (     0          1          0      )
                  (    -1          0          0      )
                  (     0          0          1      )

 cart.    s( 8) = (  0.0000000 -1.0000000  0.0000000 )
                  (  1.0000000  0.0000000  0.0000000 )
                  (  0.0000000  0.0000000  1.0000000 )


      isym =  9     180 deg rotation - cart. axis [1,0,1]        

 cryst.   s( 9) = (     0          0          1      )
                  (     0         -1          0      )
                  (     1          0          0      )

 cart.    s( 9) = (  0.0000000  0.0000000  1.0000000 )
                  (  0.0000000 -1.0000000  0.0000000 )
                  (  1.0000000  0.0000000  0.0000000 )


      isym = 10     180 deg rotation - cart. axis [-1,0,1]       

 cryst.   s(10) = (     0          0         -1      )
                  (     0         -1          0      )
                  (    -1          0          0      )

 cart.    s(10) = (  0.0000000  0.0000000 -1.0000000 )
                  (  0.0000000 -1.0000000  0.0000000 )
                  ( -1.0000000  0.0000000  0.0000000 )


      isym = 11      90 deg rotation - cart. axis [0,1,0]        

 cryst.   s(11) = (     0          0         -1      )
                  (     0          1          0      )
                  (     1          0          0      )

 cart.    s(11) = (  0.0000000  0.0000000  1.0000000 )
                  (  0.0000000  1.0000000  0.0000000 )
                  ( -1.0000000  0.0000000  0.0000000 )


      isym = 12      90 deg rotation - cart. axis [0,-1,0]       

 cryst.   s(12) = (     0          0          1      )
                  (     0          1          0      )
                  (    -1          0          0      )

 cart.    s(12) = (  0.0000000  0.0000000 -1.0000000 )
                  (  0.0000000  1.0000000  0.0000000 )
                  (  1.0000000  0.0000000  0.0000000 )


      isym = 13     180 deg rotation - cart. axis [0,1,1]        

 cryst.   s(13) = (    -1          0          0      )
                  (     0          0          1      )
                  (     0          1          0      )

 cart.    s(13) = ( -1.0000000  0.0000000  0.0000000 )
                  (  0.0000000  0.0000000  1.0000000 )
                  (  0.0000000  1.0000000  0.0000000 )


      isym = 14     180 deg rotation - cart. axis [0,1,-1]       

 cryst.   s(14) = (    -1          0          0      )
                  (     0          0         -1      )
                  (     0         -1          0      )

 cart.    s(14) = ( -1.0000000  0.0000000  0.0000000 )
                  (  0.0000000  0.0000000 -1.0000000 )
                  (  0.0000000 -1.0000000  0.0000000 )


      isym = 15      90 deg rotation - cart. axis [-1,0,0]       

 cryst.   s(15) = (     1          0          0      )
                  (     0          0         -1      )
                  (     0          1          0      )

 cart.    s(15) = (  1.0000000  0.0000000  0.0000000 )
                  (  0.0000000  0.0000000  1.0000000 )
                  (  0.0000000 -1.0000000  0.0000000 )


      isym = 16      90 deg rotation - cart. axis [1,0,0]        

 cryst.   s(16) = (     1          0          0      )
                  (     0          0          1      )
                  (     0         -1          0      )

 cart.    s(16) = (  1.0000000  0.0000000  0.0000000 )
                  (  0.0000000  0.0000000 -1.0000000 )
                  (  0.0000000  1.0000000  0.0000000 )


      isym = 17     120 deg rotation - cart. axis [-1,-1,-1]     

 cryst.   s(17) = (     0          0          1      )
                  (     1          0          0      )
                  (     0          1          0      )

 cart.    s(17) = (  0.0000000  1.0000000  0.0000000 )
                  (  0.0000000  0.0000000  1.0000000 )
                  (  1.0000000  0.0000000  0.0000000 )


      isym = 18     120 deg rotation - cart. axis [-1,1,1]       

 cryst.   s(18) = (     0          0         -1      )
                  (    -1          0          0      )
                  (     0          1          0      )

 cart.    s(18) = (  0.0000000 -1.0000000  0.0000000 )
                  (  0.0000000  0.0000000  1.0000000 )
                  ( -1.0000000  0.0000000  0.0000000 )


      isym = 19     120 deg rotation - cart. axis [1,1,-1]       

 cryst.   s(19) = (     0          0         -1      )
                  (     1          0          0      )
                  (     0         -1          0      )

 cart.    s(19) = (  0.0000000  1.0000000  0.0000000 )
                  (  0.0000000  0.0000000 -1.0000000 )
                  ( -1.0000000  0.0000000  0.0000000 )


      isym = 20     120 deg rotation - cart. axis [1,-1,1]       

 cryst.   s(20) = (     0          0          1      )
                  (    -1          0          0      )
                  (     0         -1          0      )

 cart.    s(20) = (  0.0000000 -1.0000000  0.0000000 )
                  (  0.0000000  0.0000000 -1.0000000 )
                  (  1.0000000  0.0000000  0.0000000 )


      isym = 21     120 deg rotation - cart. axis [1,1,1]        

 cryst.   s(21) = (     0          1          0      )
                  (     0          0          1      )
                  (     1          0          0      )

 cart.    s(21) = (  0.0000000  0.0000000  1.0000000 )
                  (  1.0000000  0.0000000  0.0000000 )
                  (  0.0000000  1.0000000  0.0000000 )


      isym = 22     120 deg rotation - cart. axis [-1,1,-1]      

 cryst.   s(22) = (     0         -1          0      )
                  (     0          0         -1      )
                  (     1          0          0      )

 cart.    s(22) = (  0.0000000  0.0000000  1.0000000 )
                  ( -1.0000000  0.0000000  0.0000000 )
                  (  0.0000000 -1.0000000  0.0000000 )


      isym = 23     120 deg rotation - cart. axis [1,-1,-1]      

 cryst.   s(23) = (     0         -1          0      )
                  (     0          0          1      )
                  (    -1          0          0      )

 cart.    s(23) = (  0.0000000  0.0000000 -1.0000000 )
                  ( -1.0000000  0.0000000  0.0000000 )
                  (  0.0000000  1.0000000  0.0000000 )


      isym = 24     120 deg rotation - cart. axis [-1,-1,1]      

 cryst.   s(24) = (     0          1          0      )
                  (     0          0         -1      )
                  (    -1          0          0      )

 cart.    s(24) = (  0.0000000  0.0000000 -1.0000000 )
                  (  1.0000000  0.0000000  0.0000000 )
                  (  0.0000000 -1.0000000  0.0000000 )


      isym = 25     inversion                                    

 cryst.   s(25) = (    -1          0          0      )
                  (     0         -1          0      )
                  (     0          0         -1      )

 cart.    s(25) = ( -1.0000000  0.0000000  0.0000000 )
                  (  0.0000000 -1.0000000  0.0000000 )
                  (  0.0000000  0.0000000 -1.0000000 )


      isym = 26     inv. 180 deg rotation - cart. axis [0,0,1]   

 cryst.   s(26) = (     1          0          0      )
                  (     0          1          0      )
                  (     0          0         -1      )

 cart.    s(26) = (  1.0000000  0.0000000  0.0000000 )
                  (  0.0000000  1.0000000  0.0000000 )
                  (  0.0000000  0.0000000 -1.0000000 )


      isym = 27     inv. 180 deg rotation - cart. axis [0,1,0]   

 cryst.   s(27) = (     1          0          0      )
                  (     0         -1          0      )
                  (     0          0          1      )

 cart.    s(27) = (  1.0000000  0.0000000  0.0000000 )
                  (  0.0000000 -1.0000000  0.0000000 )
                  (  0.0000000  0.0000000  1.0000000 )


      isym = 28     inv. 180 deg rotation - cart. axis [1,0,0]   

 cryst.   s(28) = (    -1          0          0      )
                  (     0          1          0      )
                  (     0          0          1      )

 cart.    s(28) = ( -1.0000000  0.0000000  0.0000000 )
                  (  0.0000000  1.0000000  0.0000000 )
                  (  0.0000000  0.0000000  1.0000000 )


      isym = 29     inv. 180 deg rotation - cart. axis [1,1,0]   

 cryst.   s(29) = (     0         -1          0      )
                  (    -1          0          0      )
                  (     0          0          1      )

 cart.    s(29) = (  0.0000000 -1.0000000  0.0000000 )
                  ( -1.0000000  0.0000000  0.0000000 )
                  (  0.0000000  0.0000000  1.0000000 )


      isym = 30     inv. 180 deg rotation - cart. axis [1,-1,0]  

 cryst.   s(30) = (     0          1          0      )
                  (     1          0          0      )
                  (     0          0          1      )

 cart.    s(30) = (  0.0000000  1.0000000  0.0000000 )
                  (  1.0000000  0.0000000  0.0000000 )
                  (  0.0000000  0.0000000  1.0000000 )


      isym = 31     inv.  90 deg rotation - cart. axis [0,0,-1]  

 cryst.   s(31) = (     0          1          0      )
                  (    -1          0          0      )
                  (     0          0         -1      )

 cart.    s(31) = (  0.0000000 -1.0000000  0.0000000 )
                  (  1.0000000  0.0000000  0.0000000 )
                  (  0.0000000  0.0000000 -1.0000000 )


      isym = 32     inv.  90 deg rotation - cart. axis [0,0,1]   

 cryst.   s(32) = (     0         -1          0      )
                  (     1          0          0      )
                  (     0          0         -1      )

 cart.    s(32) = (  0.0000000  1.0000000  0.0000000 )
                  ( -1.0000000  0.0000000  0.0000000 )
                  (  0.0000000  0.0000000 -1.0000000 )


      isym = 33     inv. 180 deg rotation - cart. axis [1,0,1]   

 cryst.   s(33) = (     0          0         -1      )
                  (     0          1          0      )
                  (    -1          0          0      )

 cart.    s(33) = (  0.0000000  0.0000000 -1.0000000 )
                  (  0.0000000  1.0000000  0.0000000 )
                  ( -1.0000000  0.0000000  0.0000000 )


      isym = 34     inv. 180 deg rotation - cart. axis [-1,0,1]  

 cryst.   s(34) = (     0          0          1      )
                  (     0          1          0      )
                  (     1          0          0      )

 cart.    s(34) = (  0.0000000  0.0000000  1.0000000 )
                  (  0.0000000  1.0000000  0.0000000 )
                  (  1.0000000  0.0000000  0.0000000 )


      isym = 35     inv.  90 deg rotation - cart. axis [0,1,0]   

 cryst.   s(35) = (     0          0          1      )
                  (     0         -1          0      )
                  (    -1          0          0      )

 cart.    s(35) = (  0.0000000  0.0000000 -1.0000000 )
                  (  0.0000000 -1.0000000  0.0000000 )
                  (  1.0000000  0.0000000  0.0000000 )


      isym = 36     inv.  90 deg rotation - cart. axis [0,-1,0]  

 cryst.   s(36) = (     0          0         -1      )
                  (     0         -1          0      )
                  (     1          0          0      )

 cart.    s(36) = (  0.0000000  0.0000000  1.0000000 )
                  (  0.0000000 -1.0000000  0.0000000 )
                  ( -1.0000000  0.0000000  0.0000000 )


      isym = 37     inv. 180 deg rotation - cart. axis [0,1,1]   

 cryst.   s(37) = (     1          0          0      )
                  (     0          0         -1      )
                  (     0         -1          0      )

 cart.    s(37) = (  1.0000000  0.0000000  0.0000000 )
                  (  0.0000000  0.0000000 -1.0000000 )
                  (  0.0000000 -1.0000000  0.0000000 )


      isym = 38     inv. 180 deg rotation - cart. axis [0,1,-1]  

 cryst.   s(38) = (     1          0          0      )
                  (     0          0          1      )
                  (     0          1          0      )

 cart.    s(38) = (  1.0000000  0.0000000  0.0000000 )
                  (  0.0000000  0.0000000  1.0000000 )
                  (  0.0000000  1.0000000  0.0000000 )


      isym = 39     inv.  90 deg rotation - cart. axis [-1,0,0]  

 cryst.   s(39) = (    -1          0          0      )
                  (     0          0          1      )
                  (     0         -1          0      )

 cart.    s(39) = ( -1.0000000  0.0000000  0.0000000 )
                  (  0.0000000  0.0000000 -1.0000000 )
                  (  0.0000000  1.0000000  0.0000000 )


      isym = 40     inv.  90 deg rotation - cart. axis [1,0,0]   

 cryst.   s(40) = (    -1          0          0      )
                  (     0          0         -1      )
                  (     0          1          0      )

 cart.    s(40) = ( -1.0000000  0.0000000  0.0000000 )
                  (  0.0000000  0.0000000  1.0000000 )
                  (  0.0000000 -1.0000000  0.0000000 )


      isym = 41     inv. 120 deg rotation - cart. axis [-1,-1,-1]

 cryst.   s(41) = (     0          0         -1      )
                  (    -1          0          0      )
                  (     0         -1          0      )

 cart.    s(41) = (  0.0000000 -1.0000000  0.0000000 )
                  (  0.0000000  0.0000000 -1.0000000 )
                  ( -1.0000000  0.0000000  0.0000000 )


      isym = 42     inv. 120 deg rotation - cart. axis [-1,1,1]  

 cryst.   s(42) = (     0          0          1      )
                  (     1          0          0      )
                  (     0         -1          0      )

 cart.    s(42) = (  0.0000000  1.0000000  0.0000000 )
                  (  0.0000000  0.0000000 -1.0000000 )
                  (  1.0000000  0.0000000  0.0000000 )


      isym = 43     inv. 120 deg rotation - cart. axis [1,1,-1]  

 cryst.   s(43) = (     0          0          1      )
                  (    -1          0          0      )
                  (     0          1          0      )

 cart.    s(43) = (  0.0000000 -1.0000000  0.0000000 )
                  (  0.0000000  0.0000000  1.0000000 )
                  (  1.0000000  0.0000000  0.0000000 )


      isym = 44     inv. 120 deg rotation - cart. axis [1,-1,1]  

 cryst.   s(44) = (     0          0         -1      )
                  (     1          0          0      )
                  (     0          1          0      )

 cart.    s(44) = (  0.0000000  1.0000000  0.0000000 )
                  (  0.0000000  0.0000000  1.0000000 )
                  ( -1.0000000  0.0000000  0.0000000 )


      isym = 45     inv. 120 deg rotation - cart. axis [1,1,1]   

 cryst.   s(45) = (     0         -1          0      )
                  (     0          0         -1      )
                  (    -1          0          0      )

 cart.    s(45) = (  0.0000000  0.0000000 -1.0000000 )
                  ( -1.0000000  0.0000000  0.0000000 )
                  (  0.0000000 -1.0000000  0.0000000 )


      isym = 46     inv. 120 deg rotation - cart. axis [-1,1,-1] 

 cryst.   s(46) = (     0          1          0      )
                  (     0          0          1      )
                  (    -1          0          0      )

 cart.    s(46) = (  0.0000000  0.0000000 -1.0000000 )
                  (  1.0000000  0.0000000  0.0000000 )
                  (  0.0000000  1.0000000  0.0000000 )


      isym = 47     inv. 120 deg rotation - cart. axis [1,-1,-1] 

 cryst.   s(47) = (     0          1          0      )
                  (     0          0         -1      )
                  (     1          0          0      )

 cart.    s(47) = (  0.0000000  0.0000000  1.0000000 )
                  (  1.0000000  0.0000000  0.0000000 )
                  (  0.0000000 -1.0000000  0.0000000 )


      isym = 48     inv. 120 deg rotation - cart. axis [-1,-1,1] 

 cryst.   s(48) = (     0         -1          0      )
                  (     0          0          1      )
                  (     1          0          0      )

 cart.    s(48) = (  0.0000000  0.0000000  1.0000000 )
                  ( -1.0000000  0.0000000  0.0000000 )
                  (  0.0000000  1.0000000  0.0000000 )


   Cartesian axes

     site n.     atom                  positions (alat units)
         1           Mg  tau(   1) = (   0.0000000   0.0000000   0.0000000  )
         2           Mg  tau(   2) = (   0.0000000   0.0000000   0.3331557  )
         3           Mg  tau(   3) = (   0.0000000   0.0000000   0.6668443  )
         4           Mg  tau(   4) = (  -0.0000000   0.3331557  -0.0000000  )
         5           Mg  tau(   5) = (   0.0000000   0.3331843   0.3331843  )
         6           Mg  tau(   6) = (   0.0000000   0.3331843   0.6668157  )
         7           Mg  tau(   7) = (   0.0000000   0.6668443   0.0000000  )
         8           Mg  tau(   8) = (   0.0000000   0.6668157   0.3331843  )
         9           Mg  tau(   9) = (   0.0000000   0.6668157   0.6668157  )
        10           Mg  tau(  10) = (   0.3331557  -0.0000000   0.0000000  )
        11           Mg  tau(  11) = (   0.3331843  -0.0000000   0.3331843  )
        12           Mg  tau(  12) = (   0.3331843  -0.0000000   0.6668157  )
        13           Mg  tau(  13) = (   0.3331843   0.3331843   0.0000000  )
        14           Mg  tau(  14) = (   0.3332936   0.3332936   0.3332936  )
        15           Mg  tau(  15) = (   0.3332936   0.3332936   0.6667064  )
        16           Mg  tau(  16) = (   0.3331843   0.6668157   0.0000000  )
        17           Mg  tau(  17) = (   0.3332936   0.6667064   0.3332936  )
        18           Mg  tau(  18) = (   0.3332936   0.6667064   0.6667064  )
        19           Mg  tau(  19) = (   0.6668443   0.0000000   0.0000000  )
        20           Mg  tau(  20) = (   0.6668157  -0.0000000   0.3331843  )
        21           Mg  tau(  21) = (   0.6668157  -0.0000000   0.6668157  )
        22           Mg  tau(  22) = (   0.6668157   0.3331843   0.0000000  )
        23           Mg  tau(  23) = (   0.6667064   0.3332936   0.3332936  )
        24           Mg  tau(  24) = (   0.6667064   0.3332936   0.6667064  )
        25           Mg  tau(  25) = (   0.6668157   0.6668157   0.0000000  )
        26           Mg  tau(  26) = (   0.6667064   0.6667064   0.3332936  )
        27           Mg  tau(  27) = (   0.6667064   0.6667064   0.6667064  )
        28           Mg  tau(  28) = (   0.0000000   0.1665521   0.1665521  )
        29           Mg  tau(  29) = (   0.0000000   0.1664860   0.5000000  )
        30           Mg  tau(  30) = (   0.0000000   0.1665521   0.8334479  )
        31           Mg  tau(  31) = (   0.0000000   0.5000000   0.1664860  )
        32           Mg  tau(  32) = (   0.0000000   0.5000000   0.5000000  )
        33           Mg  tau(  33) = (   0.0000000   0.5000000   0.8335140  )
        34           Mg  tau(  34) = (   0.0000000   0.8334479   0.1665521  )
        35           Mg  tau(  35) = (   0.0000000   0.8335140   0.5000000  )
        36           Mg  tau(  36) = (   0.0000000   0.8334479   0.8334479  )
        37           Mg  tau(  37) = (   0.3331199   0.1665721   0.1665721  )
        38           Mg  tau(  38) = (   0.3327764   0.1658745   0.5000000  )
        39           Mg  tau(  39) = (   0.3331199   0.1665721   0.8334279  )
        40           Mg  tau(  40) = (   0.3327764   0.5000000   0.1658745  )
        41           Mg  tau(  41) = (   0.3284235   0.5000000   0.5000000  )
        42           Mg  tau(  42) = (   0.3327764   0.5000000   0.8341255  )
        43           Mg  tau(  43) = (   0.3331199   0.8334279   0.1665721  )
        44           Mg  tau(  44) = (   0.3327764   0.8341255   0.5000000  )
        45           Mg  tau(  45) = (   0.3331199   0.8334279   0.8334279  )
        46           Mg  tau(  46) = (   0.6668802   0.1665721   0.1665721  )
        47           Mg  tau(  47) = (   0.6672237   0.1658745   0.5000000  )
        48           Mg  tau(  48) = (   0.6668802   0.1665721   0.8334279  )
        49           Mg  tau(  49) = (   0.6672237   0.5000000   0.1658745  )
        50           Mg  tau(  50) = (   0.6715766   0.5000000   0.5000000  )
        51           Mg  tau(  51) = (   0.6672237   0.5000000   0.8341255  )
        52           Mg  tau(  52) = (   0.6668802   0.8334279   0.1665721  )
        53           Mg  tau(  53) = (   0.6672237   0.8341255   0.5000000  )
        54           Mg  tau(  54) = (   0.6668802   0.8334279   0.8334279  )
        55           Mg  tau(  55) = (   0.1665521   0.0000000   0.1665521  )
        56           Mg  tau(  56) = (   0.1664860  -0.0000000   0.5000000  )
        57           Mg  tau(  57) = (   0.1665521   0.0000000   0.8334479  )
        58           Mg  tau(  58) = (   0.1665721   0.3331199   0.1665721  )
        59           Mg  tau(  59) = (   0.1658745   0.3327764   0.5000000  )
        60           Mg  tau(  60) = (   0.1665721   0.3331199   0.8334279  )
        61           Mg  tau(  61) = (   0.1665721   0.6668802   0.1665721  )
        62           Mg  tau(  62) = (   0.1658745   0.6672237   0.5000000  )
        63           Mg  tau(  63) = (   0.1665721   0.6668802   0.8334279  )
        64           Mg  tau(  64) = (   0.5000000   0.0000000   0.1664860  )
        65           Mg  tau(  65) = (   0.5000000  -0.0000000   0.5000000  )
        66           Mg  tau(  66) = (   0.5000000   0.0000000   0.8335140  )
        67           Mg  tau(  67) = (   0.5000000   0.3327764   0.1658745  )
        68           Mg  tau(  68) = (   0.5000000   0.3284235   0.5000000  )
        69           Mg  tau(  69) = (   0.5000000   0.3327764   0.8341255  )
        70           Mg  tau(  70) = (   0.5000000   0.6672237   0.1658745  )
        71           Mg  tau(  71) = (   0.5000000   0.6715766   0.5000000  )
        72           Mg  tau(  72) = (   0.5000000   0.6672237   0.8341255  )
        73           Mg  tau(  73) = (   0.8334479   0.0000000   0.1665521  )
        74           Mg  tau(  74) = (   0.8335140  -0.0000000   0.5000000  )
        75           Mg  tau(  75) = (   0.8334479   0.0000000   0.8334479  )
        76           Mg  tau(  76) = (   0.8334279   0.3331199   0.1665721  )
        77           Mg  tau(  77) = (   0.8341255   0.3327764   0.5000000  )
        78           Mg  tau(  78) = (   0.8334279   0.3331199   0.8334279  )
        79           Mg  tau(  79) = (   0.8334279   0.6668802   0.1665721  )
        80           Mg  tau(  80) = (   0.8341255   0.6672237   0.5000000  )
        81           Mg  tau(  81) = (   0.8334279   0.6668802   0.8334279  )
        82           Mg  tau(  82) = (   0.1665521   0.1665521   0.0000000  )
        83           Mg  tau(  83) = (   0.1665721   0.1665721   0.3331199  )
        84           Mg  tau(  84) = (   0.1665721   0.1665721   0.6668802  )
        85           Mg  tau(  85) = (   0.1664860   0.5000000   0.0000000  )
        86           Mg  tau(  86) = (   0.1658745   0.5000000   0.3327764  )
        87           Mg  tau(  87) = (   0.1658745   0.5000000   0.6672237  )
        88           Mg  tau(  88) = (   0.1665521   0.8334479   0.0000000  )
        89           Mg  tau(  89) = (   0.1665721   0.8334279   0.3331199  )
        90           Mg  tau(  90) = (   0.1665721   0.8334279   0.6668802  )
        91           Mg  tau(  91) = (   0.5000000   0.1664860   0.0000000  )
        92           Mg  tau(  92) = (   0.5000000   0.1658745   0.3327764  )
        93           Mg  tau(  93) = (   0.5000000   0.1658745   0.6672237  )
        94           Mg  tau(  94) = (   0.5000000   0.5000000   0.0000000  )
        95           Mg  tau(  95) = (   0.5000000   0.5000000   0.3284235  )
        96           Mg  tau(  96) = (   0.5000000   0.5000000   0.6715766  )
        97           Mg  tau(  97) = (   0.5000000   0.8335140   0.0000000  )
        98           Mg  tau(  98) = (   0.5000000   0.8341255   0.3327764  )
        99           Mg  tau(  99) = (   0.5000000   0.8341255   0.6672237  )
       100           Mg  tau( 100) = (   0.8334479   0.1665521   0.0000000  )
       101           Mg  tau( 101) = (   0.8334279   0.1665721   0.3331199  )
       102           Mg  tau( 102) = (   0.8334279   0.1665721   0.6668802  )
       103           Mg  tau( 103) = (   0.8335140   0.5000000   0.0000000  )
       104           Mg  tau( 104) = (   0.8341255   0.5000000   0.3327764  )
       105           Mg  tau( 105) = (   0.8341255   0.5000000   0.6672237  )
       106           Mg  tau( 106) = (   0.8334479   0.8334479   0.0000000  )
       107           Mg  tau( 107) = (   0.8334279   0.8334279   0.3331199  )
       108           Mg  tau( 108) = (   0.8334279   0.8334279   0.6668802  )
       109           O   tau( 109) = (  -0.0000000   0.1667868  -0.0000000  )
       110           O   tau( 110) = (   0.0000000   0.1668095   0.3335049  )
       111           O   tau( 111) = (   0.0000000   0.1668095   0.6664952  )
       112           O   tau( 112) = (   0.0000000   0.5000000  -0.0000000  )
       113           O   tau( 113) = (  -0.0000000   0.5000000   0.3333231  )
       114           O   tau( 114) = (  -0.0000000   0.5000000   0.6666769  )
       115           O   tau( 115) = (   0.0000000   0.8332132  -0.0000000  )
       116           O   tau( 116) = (   0.0000000   0.8331905   0.3335048  )
       117           O   tau( 117) = (   0.0000000   0.8331905   0.6664952  )
       118           O   tau( 118) = (   0.3335049   0.1668095  -0.0000000  )
       119           O   tau( 119) = (   0.3336368   0.1670024   0.3336368  )
       120           O   tau( 120) = (   0.3336368   0.1670024   0.6663633  )
       121           O   tau( 121) = (   0.3333231   0.5000000  -0.0000000  )
       122           O   tau( 122) = (   0.3340101   0.5000000   0.3340101  )
       123           O   tau( 123) = (   0.3340102   0.5000000   0.6659898  )
       124           O   tau( 124) = (   0.3335048   0.8331905  -0.0000000  )
       125           O   tau( 125) = (   0.3336368   0.8329977   0.3336368  )
       126           O   tau( 126) = (   0.3336368   0.8329977   0.6663633  )
       127           O   tau( 127) = (   0.6664952   0.1668095  -0.0000000  )
       128           O   tau( 128) = (   0.6663633   0.1670024   0.3336368  )
       129           O   tau( 129) = (   0.6663633   0.1670024   0.6663633  )
       130           O   tau( 130) = (   0.6666769   0.5000000  -0.0000000  )
       131           O   tau( 131) = (   0.6659898   0.5000000   0.3340102  )
       132           O   tau( 132) = (   0.6659898   0.5000000   0.6659898  )
       133           O   tau( 133) = (   0.6664952   0.8331905  -0.0000000  )
       134           O   tau( 134) = (   0.6663633   0.8329977   0.3336368  )
       135           O   tau( 135) = (   0.6663633   0.8329977   0.6663633  )
       136           O   tau( 136) = (  -0.0000000  -0.0000000   0.1667868  )
       137           O   tau( 137) = (   0.0000000  -0.0000000   0.5000000  )
       138           O   tau( 138) = (   0.0000000  -0.0000000   0.8332132  )
       139           O   tau( 139) = (  -0.0000000   0.3335049   0.1668095  )
       140           O   tau( 140) = (  -0.0000000   0.3333231   0.5000000  )
       141           O   tau( 141) = (   0.0000000   0.3335048   0.8331905  )
       142           O   tau( 142) = (   0.0000000   0.6664952   0.1668095  )
       143           O   tau( 143) = (  -0.0000000   0.6666769   0.5000000  )
       144           O   tau( 144) = (   0.0000000   0.6664952   0.8331905  )
       145           O   tau( 145) = (   0.3335049  -0.0000000   0.1668095  )
       146           O   tau( 146) = (   0.3333231   0.0000000   0.5000000  )
       147           O   tau( 147) = (   0.3335048   0.0000000   0.8331905  )
       148           O   tau( 148) = (   0.3336368   0.3336368   0.1670024  )
       149           O   tau( 149) = (   0.3340102   0.3340102   0.5000000  )
       150           O   tau( 150) = (   0.3336368   0.3336368   0.8329984  )
       151           O   tau( 151) = (   0.3336368   0.6663633   0.1670024  )
       152           O   tau( 152) = (   0.3340101   0.6659899   0.5000000  )
       153           O   tau( 153) = (   0.3336368   0.6663633   0.8329984  )
       154           O   tau( 154) = (   0.6664952  -0.0000000   0.1668095  )
       155           O   tau( 155) = (   0.6666769  -0.0000000   0.5000000  )
       156           O   tau( 156) = (   0.6664952  -0.0000000   0.8331905  )
       157           O   tau( 157) = (   0.6663633   0.3336368   0.1670024  )
       158           O   tau( 158) = (   0.6659898   0.3340102   0.5000000  )
       159           O   tau( 159) = (   0.6663633   0.3336368   0.8329977  )
       160           O   tau( 160) = (   0.6663633   0.6663633   0.1670024  )
       161           O   tau( 161) = (   0.6659898   0.6659899   0.5000000  )
       162           O   tau( 162) = (   0.6663633   0.6663633   0.8329984  )
       163           O   tau( 163) = (   0.1668183   0.1668182   0.1668183  )
       164           O   tau( 164) = (   0.1669471   0.1669471   0.5000000  )
       165           O   tau( 165) = (   0.1668183   0.1668182   0.8331818  )
       166           O   tau( 166) = (   0.1669471   0.5000000   0.1669471  )
       167           O   tau( 167) = (   0.1660238   0.5000000   0.5000000  )
       168           O   tau( 168) = (   0.1669471   0.5000000   0.8330529  )
       169           O   tau( 169) = (   0.1668182   0.8331817   0.1668183  )
       170           O   tau( 170) = (   0.1669471   0.8330529   0.5000000  )
       171           O   tau( 171) = (   0.1668182   0.8331817   0.8331818  )
       172           O   tau( 172) = (   0.5000000   0.1669471   0.1669471  )
       173           O   tau( 173) = (   0.5000000   0.1660238   0.5000000  )
       174           O   tau( 174) = (   0.5000000   0.1669471   0.8330529  )
       175           O   tau( 175) = (   0.5000000   0.5000000   0.1660238  )
       176           O   tau( 176) = (   0.5000000   0.5000000   0.8339763  )
       177           O   tau( 177) = (   0.5000000   0.8330529   0.1669471  )
       178           O   tau( 178) = (   0.5000000   0.8339763   0.5000000  )
       179           O   tau( 179) = (   0.5000000   0.8330529   0.8330529  )
       180           O   tau( 180) = (   0.8331818   0.1668182   0.1668183  )
       181           O   tau( 181) = (   0.8330529   0.1669471   0.5000000  )
       182           O   tau( 182) = (   0.8331818   0.1668182   0.8331818  )
       183           O   tau( 183) = (   0.8330529   0.5000000   0.1669471  )
       184           O   tau( 184) = (   0.8339763   0.5000000   0.5000000  )
       185           O   tau( 185) = (   0.8330529   0.5000000   0.8330529  )
       186           O   tau( 186) = (   0.8331818   0.8331817   0.1668183  )
       187           O   tau( 187) = (   0.8330529   0.8330529   0.5000000  )
       188           O   tau( 188) = (   0.8331818   0.8331817   0.8331818  )
       189           O   tau( 189) = (   0.1667868  -0.0000000  -0.0000000  )
       190           O   tau( 190) = (   0.1668095  -0.0000000   0.3335049  )
       191           O   tau( 191) = (   0.1668095  -0.0000000   0.6664952  )
       192           O   tau( 192) = (   0.1668095   0.3335049  -0.0000000  )
       193           O   tau( 193) = (   0.1670017   0.3336368   0.3336368  )
       194           O   tau( 194) = (   0.1670024   0.3336368   0.6663633  )
       195           O   tau( 195) = (   0.1668095   0.6664952  -0.0000000  )
       196           O   tau( 196) = (   0.1670017   0.6663633   0.3336368  )
       197           O   tau( 197) = (   0.1670017   0.6663633   0.6663633  )
       198           O   tau( 198) = (   0.5000000  -0.0000000  -0.0000000  )
       199           O   tau( 199) = (   0.5000000  -0.0000000   0.3333231  )
       200           O   tau( 200) = (   0.5000000  -0.0000000   0.6666769  )
       201           O   tau( 201) = (   0.5000000   0.3333231  -0.0000000  )
       202           O   tau( 202) = (   0.5000000   0.3340102   0.3340102  )
       203           O   tau( 203) = (   0.5000000   0.3340102   0.6659898  )
       204           O   tau( 204) = (   0.5000000   0.6666769  -0.0000000  )
       205           O   tau( 205) = (   0.5000000   0.6659899   0.3340101  )
       206           O   tau( 206) = (   0.5000000   0.6659898   0.6659898  )
       207           O   tau( 207) = (   0.8332132  -0.0000000  -0.0000000  )
       208           O   tau( 208) = (   0.8331905  -0.0000000   0.3335048  )
       209           O   tau( 209) = (   0.8331905  -0.0000000   0.6664952  )
       210           O   tau( 210) = (   0.8331905   0.3335048  -0.0000000  )
       211           O   tau( 211) = (   0.8329984   0.3336368   0.3336368  )
       212           O   tau( 212) = (   0.8329984   0.3336368   0.6663633  )
       213           O   tau( 213) = (   0.8331905   0.6664952  -0.0000000  )
       214           O   tau( 214) = (   0.8329984   0.6663633   0.3336368  )
       215           O   tau( 215) = (   0.8329984   0.6663633   0.6663633  )

   Crystallographic axes

     site n.     atom                  positions (cryst. coord.)
         1           Mg  tau(   1) = (  0.0000000  0.0000000  0.0000000  )
         2           Mg  tau(   2) = (  0.0000000  0.0000000  0.3331557  )
         3           Mg  tau(   3) = (  0.0000000  0.0000000  0.6668443  )
         4           Mg  tau(   4) = ( -0.0000000  0.3331557 -0.0000000  )
         5           Mg  tau(   5) = (  0.0000000  0.3331843  0.3331843  )
         6           Mg  tau(   6) = (  0.0000000  0.3331843  0.6668157  )
         7           Mg  tau(   7) = (  0.0000000  0.6668443  0.0000000  )
         8           Mg  tau(   8) = (  0.0000000  0.6668157  0.3331843  )
         9           Mg  tau(   9) = (  0.0000000  0.6668157  0.6668157  )
        10           Mg  tau(  10) = (  0.3331557 -0.0000000  0.0000000  )
        11           Mg  tau(  11) = (  0.3331843 -0.0000000  0.3331843  )
        12           Mg  tau(  12) = (  0.3331843 -0.0000000  0.6668157  )
        13           Mg  tau(  13) = (  0.3331843  0.3331843  0.0000000  )
        14           Mg  tau(  14) = (  0.3332936  0.3332936  0.3332936  )
        15           Mg  tau(  15) = (  0.3332936  0.3332936  0.6667064  )
        16           Mg  tau(  16) = (  0.3331843  0.6668157  0.0000000  )
        17           Mg  tau(  17) = (  0.3332936  0.6667064  0.3332936  )
        18           Mg  tau(  18) = (  0.3332936  0.6667064  0.6667064  )
        19           Mg  tau(  19) = (  0.6668443  0.0000000  0.0000000  )
        20           Mg  tau(  20) = (  0.6668157 -0.0000000  0.3331843  )
        21           Mg  tau(  21) = (  0.6668157 -0.0000000  0.6668157  )
        22           Mg  tau(  22) = (  0.6668157  0.3331843  0.0000000  )
        23           Mg  tau(  23) = (  0.6667064  0.3332936  0.3332936  )
        24           Mg  tau(  24) = (  0.6667064  0.3332936  0.6667064  )
        25           Mg  tau(  25) = (  0.6668157  0.6668157  0.0000000  )
        26           Mg  tau(  26) = (  0.6667064  0.6667064  0.3332936  )
        27           Mg  tau(  27) = (  0.6667064  0.6667064  0.6667064  )
        28           Mg  tau(  28) = (  0.0000000  0.1665521  0.1665521  )
        29           Mg  tau(  29) = (  0.0000000  0.1664860  0.5000000  )
        30           Mg  tau(  30) = (  0.0000000  0.1665521  0.8334479  )
        31           Mg  tau(  31) = (  0.0000000  0.5000000  0.1664860  )
        32           Mg  tau(  32) = (  0.0000000  0.5000000  0.5000000  )
        33           Mg  tau(  33) = (  0.0000000  0.5000000  0.8335140  )
        34           Mg  tau(  34) = (  0.0000000  0.8334479  0.1665521  )
        35           Mg  tau(  35) = (  0.0000000  0.8335140  0.5000000  )
        36           Mg  tau(  36) = (  0.0000000  0.8334479  0.8334479  )
        37           Mg  tau(  37) = (  0.3331199  0.1665721  0.1665721  )
        38           Mg  tau(  38) = (  0.3327764  0.1658745  0.5000000  )
        39           Mg  tau(  39) = (  0.3331199  0.1665721  0.8334279  )
        40           Mg  tau(  40) = (  0.3327764  0.5000000  0.1658745  )
        41           Mg  tau(  41) = (  0.3284235  0.5000000  0.5000000  )
        42           Mg  tau(  42) = (  0.3327764  0.5000000  0.8341255  )
        43           Mg  tau(  43) = (  0.3331199  0.8334279  0.1665721  )
        44           Mg  tau(  44) = (  0.3327764  0.8341255  0.5000000  )
        45           Mg  tau(  45) = (  0.3331199  0.8334279  0.8334279  )
        46           Mg  tau(  46) = (  0.6668802  0.1665721  0.1665721  )
        47           Mg  tau(  47) = (  0.6672237  0.1658745  0.5000000  )
        48           Mg  tau(  48) = (  0.6668802  0.1665721  0.8334279  )
        49           Mg  tau(  49) = (  0.6672237  0.5000000  0.1658745  )
        50           Mg  tau(  50) = (  0.6715766  0.5000000  0.5000000  )
        51           Mg  tau(  51) = (  0.6672237  0.5000000  0.8341255  )
        52           Mg  tau(  52) = (  0.6668802  0.8334279  0.1665721  )
        53           Mg  tau(  53) = (  0.6672237  0.8341255  0.5000000  )
        54           Mg  tau(  54) = (  0.6668802  0.8334279  0.8334279  )
        55           Mg  tau(  55) = (  0.1665521  0.0000000  0.1665521  )
        56           Mg  tau(  56) = (  0.1664860 -0.0000000  0.5000000  )
        57           Mg  tau(  57) = (  0.1665521  0.0000000  0.8334479  )
        58           Mg  tau(  58) = (  0.1665721  0.3331199  0.1665721  )
        59           Mg  tau(  59) = (  0.1658745  0.3327764  0.5000000  )
        60           Mg  tau(  60) = (  0.1665721  0.3331199  0.8334279  )
        61           Mg  tau(  61) = (  0.1665721  0.6668802  0.1665721  )
        62           Mg  tau(  62) = (  0.1658745  0.6672237  0.5000000  )
        63           Mg  tau(  63) = (  0.1665721  0.6668802  0.8334279  )
        64           Mg  tau(  64) = (  0.5000000  0.0000000  0.1664860  )
        65           Mg  tau(  65) = (  0.5000000 -0.0000000  0.5000000  )
        66           Mg  tau(  66) = (  0.5000000  0.0000000  0.8335140  )
        67           Mg  tau(  67) = (  0.5000000  0.3327764  0.1658745  )
        68           Mg  tau(  68) = (  0.5000000  0.3284235  0.5000000  )
        69           Mg  tau(  69) = (  0.5000000  0.3327764  0.8341255  )
        70           Mg  tau(  70) = (  0.5000000  0.6672237  0.1658745  )
        71           Mg  tau(  71) = (  0.5000000  0.6715766  0.5000000  )
        72           Mg  tau(  72) = (  0.5000000  0.6672237  0.8341255  )
        73           Mg  tau(  73) = (  0.8334479  0.0000000  0.1665521  )
        74           Mg  tau(  74) = (  0.8335140 -0.0000000  0.5000000  )
        75           Mg  tau(  75) = (  0.8334479  0.0000000  0.8334479  )
        76           Mg  tau(  76) = (  0.8334279  0.3331199  0.1665721  )
        77           Mg  tau(  77) = (  0.8341255  0.3327764  0.5000000  )
        78           Mg  tau(  78) = (  0.8334279  0.3331199  0.8334279  )
        79           Mg  tau(  79) = (  0.8334279  0.6668802  0.1665721  )
        80           Mg  tau(  80) = (  0.8341255  0.6672237  0.5000000  )
        81           Mg  tau(  81) = (  0.8334279  0.6668802  0.8334279  )
        82           Mg  tau(  82) = (  0.1665521  0.1665521  0.0000000  )
        83           Mg  tau(  83) = (  0.1665721  0.1665721  0.3331199  )
        84           Mg  tau(  84) = (  0.1665721  0.1665721  0.6668802  )
        85           Mg  tau(  85) = (  0.1664860  0.5000000  0.0000000  )
        86           Mg  tau(  86) = (  0.1658745  0.5000000  0.3327764  )
        87           Mg  tau(  87) = (  0.1658745  0.5000000  0.6672237  )
        88           Mg  tau(  88) = (  0.1665521  0.8334479  0.0000000  )
        89           Mg  tau(  89) = (  0.1665721  0.8334279  0.3331199  )
        90           Mg  tau(  90) = (  0.1665721  0.8334279  0.6668802  )
        91           Mg  tau(  91) = (  0.5000000  0.1664860  0.0000000  )
        92           Mg  tau(  92) = (  0.5000000  0.1658745  0.3327764  )
        93           Mg  tau(  93) = (  0.5000000  0.1658745  0.6672237  )
        94           Mg  tau(  94) = (  0.5000000  0.5000000  0.0000000  )
        95           Mg  tau(  95) = (  0.5000000  0.5000000  0.3284235  )
        96           Mg  tau(  96) = (  0.5000000  0.5000000  0.6715766  )
        97           Mg  tau(  97) = (  0.5000000  0.8335140  0.0000000  )
        98           Mg  tau(  98) = (  0.5000000  0.8341255  0.3327764  )
        99           Mg  tau(  99) = (  0.5000000  0.8341255  0.6672237  )
       100           Mg  tau( 100) = (  0.8334479  0.1665521  0.0000000  )
       101           Mg  tau( 101) = (  0.8334279  0.1665721  0.3331199  )
       102           Mg  tau( 102) = (  0.8334279  0.1665721  0.6668802  )
       103           Mg  tau( 103) = (  0.8335140  0.5000000  0.0000000  )
       104           Mg  tau( 104) = (  0.8341255  0.5000000  0.3327764  )
       105           Mg  tau( 105) = (  0.8341255  0.5000000  0.6672237  )
       106           Mg  tau( 106) = (  0.8334479  0.8334479  0.0000000  )
       107           Mg  tau( 107) = (  0.8334279  0.8334279  0.3331199  )
       108           Mg  tau( 108) = (  0.8334279  0.8334279  0.6668802  )
       109           O   tau( 109) = ( -0.0000000  0.1667868 -0.0000000  )
       110           O   tau( 110) = (  0.0000000  0.1668095  0.3335049  )
       111           O   tau( 111) = (  0.0000000  0.1668095  0.6664952  )
       112           O   tau( 112) = (  0.0000000  0.5000000 -0.0000000  )
       113           O   tau( 113) = ( -0.0000000  0.5000000  0.3333231  )
       114           O   tau( 114) = ( -0.0000000  0.5000000  0.6666769  )
       115           O   tau( 115) = (  0.0000000  0.8332132 -0.0000000  )
       116           O   tau( 116) = (  0.0000000  0.8331905  0.3335048  )
       117           O   tau( 117) = (  0.0000000  0.8331905  0.6664952  )
       118           O   tau( 118) = (  0.3335049  0.1668095 -0.0000000  )
       119           O   tau( 119) = (  0.3336368  0.1670024  0.3336368  )
       120           O   tau( 120) = (  0.3336368  0.1670024  0.6663633  )
       121           O   tau( 121) = (  0.3333231  0.5000000 -0.0000000  )
       122           O   tau( 122) = (  0.3340101  0.5000000  0.3340101  )
       123           O   tau( 123) = (  0.3340102  0.5000000  0.6659898  )
       124           O   tau( 124) = (  0.3335048  0.8331905 -0.0000000  )
       125           O   tau( 125) = (  0.3336368  0.8329977  0.3336368  )
       126           O   tau( 126) = (  0.3336368  0.8329977  0.6663633  )
       127           O   tau( 127) = (  0.6664952  0.1668095 -0.0000000  )
       128           O   tau( 128) = (  0.6663633  0.1670024  0.3336368  )
       129           O   tau( 129) = (  0.6663633  0.1670024  0.6663633  )
       130           O   tau( 130) = (  0.6666769  0.5000000 -0.0000000  )
       131           O   tau( 131) = (  0.6659898  0.5000000  0.3340102  )
       132           O   tau( 132) = (  0.6659898  0.5000000  0.6659898  )
       133           O   tau( 133) = (  0.6664952  0.8331905 -0.0000000  )
       134           O   tau( 134) = (  0.6663633  0.8329977  0.3336368  )
       135           O   tau( 135) = (  0.6663633  0.8329977  0.6663633  )
       136           O   tau( 136) = ( -0.0000000 -0.0000000  0.1667868  )
       137           O   tau( 137) = (  0.0000000 -0.0000000  0.5000000  )
       138           O   tau( 138) = (  0.0000000 -0.0000000  0.8332132  )
       139           O   tau( 139) = ( -0.0000000  0.3335049  0.1668095  )
       140           O   tau( 140) = ( -0.0000000  0.3333231  0.5000000  )
       141           O   tau( 141) = (  0.0000000  0.3335048  0.8331905  )
       142           O   tau( 142) = (  0.0000000  0.6664952  0.1668095  )
       143           O   tau( 143) = ( -0.0000000  0.6666769  0.5000000  )
       144           O   tau( 144) = (  0.0000000  0.6664952  0.8331905  )
       145           O   tau( 145) = (  0.3335049 -0.0000000  0.1668095  )
       146           O   tau( 146) = (  0.3333231  0.0000000  0.5000000  )
       147           O   tau( 147) = (  0.3335048  0.0000000  0.8331905  )
       148           O   tau( 148) = (  0.3336368  0.3336368  0.1670024  )
       149           O   tau( 149) = (  0.3340102  0.3340102  0.5000000  )
       150           O   tau( 150) = (  0.3336368  0.3336368  0.8329984  )
       151           O   tau( 151) = (  0.3336368  0.6663633  0.1670024  )
       152           O   tau( 152) = (  0.3340101  0.6659899  0.5000000  )
       153           O   tau( 153) = (  0.3336368  0.6663633  0.8329984  )
       154           O   tau( 154) = (  0.6664952 -0.0000000  0.1668095  )
       155           O   tau( 155) = (  0.6666769 -0.0000000  0.5000000  )
       156           O   tau( 156) = (  0.6664952 -0.0000000  0.8331905  )
       157           O   tau( 157) = (  0.6663633  0.3336368  0.1670024  )
       158           O   tau( 158) = (  0.6659898  0.3340102  0.5000000  )
       159           O   tau( 159) = (  0.6663633  0.3336368  0.8329977  )
       160           O   tau( 160) = (  0.6663633  0.6663633  0.1670024  )
       161           O   tau( 161) = (  0.6659898  0.6659899  0.5000000  )
       162           O   tau( 162) = (  0.6663633  0.6663633  0.8329984  )
       163           O   tau( 163) = (  0.1668183  0.1668182  0.1668183  )
       164           O   tau( 164) = (  0.1669471  0.1669471  0.5000000  )
       165           O   tau( 165) = (  0.1668183  0.1668182  0.8331818  )
       166           O   tau( 166) = (  0.1669471  0.5000000  0.1669471  )
       167           O   tau( 167) = (  0.1660238  0.5000000  0.5000000  )
       168           O   tau( 168) = (  0.1669471  0.5000000  0.8330529  )
       169           O   tau( 169) = (  0.1668182  0.8331817  0.1668183  )
       170           O   tau( 170) = (  0.1669471  0.8330529  0.5000000  )
       171           O   tau( 171) = (  0.1668182  0.8331817  0.8331818  )
       172           O   tau( 172) = (  0.5000000  0.1669471  0.1669471  )
       173           O   tau( 173) = (  0.5000000  0.1660238  0.5000000  )
       174           O   tau( 174) = (  0.5000000  0.1669471  0.8330529  )
       175           O   tau( 175) = (  0.5000000  0.5000000  0.1660238  )
       176           O   tau( 176) = (  0.5000000  0.5000000  0.8339763  )
       177           O   tau( 177) = (  0.5000000  0.8330529  0.1669471  )
       178           O   tau( 178) = (  0.5000000  0.8339763  0.5000000  )
       179           O   tau( 179) = (  0.5000000  0.8330529  0.8330529  )
       180           O   tau( 180) = (  0.8331818  0.1668182  0.1668183  )
       181           O   tau( 181) = (  0.8330529  0.1669471  0.5000000  )
       182           O   tau( 182) = (  0.8331818  0.1668182  0.8331818  )
       183           O   tau( 183) = (  0.8330529  0.5000000  0.1669471  )
       184           O   tau( 184) = (  0.8339763  0.5000000  0.5000000  )
       185           O   tau( 185) = (  0.8330529  0.5000000  0.8330529  )
       186           O   tau( 186) = (  0.8331818  0.8331817  0.1668183  )
       187           O   tau( 187) = (  0.8330529  0.8330529  0.5000000  )
       188           O   tau( 188) = (  0.8331818  0.8331817  0.8331818  )
       189           O   tau( 189) = (  0.1667868 -0.0000000 -0.0000000  )
       190           O   tau( 190) = (  0.1668095 -0.0000000  0.3335049  )
       191           O   tau( 191) = (  0.1668095 -0.0000000  0.6664952  )
       192           O   tau( 192) = (  0.1668095  0.3335049 -0.0000000  )
       193           O   tau( 193) = (  0.1670017  0.3336368  0.3336368  )
       194           O   tau( 194) = (  0.1670024  0.3336368  0.6663633  )
       195           O   tau( 195) = (  0.1668095  0.6664952 -0.0000000  )
       196           O   tau( 196) = (  0.1670017  0.6663633  0.3336368  )
       197           O   tau( 197) = (  0.1670017  0.6663633  0.6663633  )
       198           O   tau( 198) = (  0.5000000 -0.0000000 -0.0000000  )
       199           O   tau( 199) = (  0.5000000 -0.0000000  0.3333231  )
       200           O   tau( 200) = (  0.5000000 -0.0000000  0.6666769  )
       201           O   tau( 201) = (  0.5000000  0.3333231 -0.0000000  )
       202           O   tau( 202) = (  0.5000000  0.3340102  0.3340102  )
       203           O   tau( 203) = (  0.5000000  0.3340102  0.6659898  )
       204           O   tau( 204) = (  0.5000000  0.6666769 -0.0000000  )
       205           O   tau( 205) = (  0.5000000  0.6659899  0.3340101  )
       206           O   tau( 206) = (  0.5000000  0.6659898  0.6659898  )
       207           O   tau( 207) = (  0.8332132 -0.0000000 -0.0000000  )
       208           O   tau( 208) = (  0.8331905 -0.0000000  0.3335048  )
       209           O   tau( 209) = (  0.8331905 -0.0000000  0.6664952  )
       210           O   tau( 210) = (  0.8331905  0.3335048 -0.0000000  )
       211           O   tau( 211) = (  0.8329984  0.3336368  0.3336368  )
       212           O   tau( 212) = (  0.8329984  0.3336368  0.6663633  )
       213           O   tau( 213) = (  0.8331905  0.6664952 -0.0000000  )
       214           O   tau( 214) = (  0.8329984  0.6663633  0.3336368  )
       215           O   tau( 215) = (  0.8329984  0.6663633  0.6663633  )

     number of k points=     1
                       cart. coord. in units 2pi/alat
        k(    1) = (   0.0000000   0.0000000   0.0000000), wk =   2.0000000

                       cryst. coord.
        k(    1) = (   0.0000000   0.0000000   0.0000000), wk =   2.0000000

     Dense  grid:   442286 G-vectors     FFT dimensions: ( 120, 120, 120)

     Estimated max dynamical RAM per process >      87.07MB

     Estimated total allocated dynamical RAM >    6965.28MB

     Initial potential from superposition of free atoms

     starting charge 1714.83448, renormalised to 1722.00000
     Starting wfc are random

     total cpu time spent up to now is        2.4 secs

     per-process dynamical memory:    65.9 Mb

     Self-consistent Calculation

     iteration #  1     ecut=    60.00 Ry     beta=0.70
     Davidson diagonalization with overlap
     ethr =  1.00E-02,  avg # of iterations =  8.0

     total cpu time spent up to now is       36.0 secs

     total energy              =  -15162.76818660 Ry
     Harris-Foulkes estimate   =  -15189.08476016 Ry
     estimated scf accuracy    <      36.22842321 Ry

     iteration #  2     ecut=    60.00 Ry     beta=0.70
     Davidson diagonalization with overlap
     ethr =  2.10E-03,  avg # of iterations =  6.0

     total cpu time spent up to now is       49.3 secs

     total energy              =  -15171.32762048 Ry
     Harris-Foulkes estimate   =  -15186.48664601 Ry
     estimated scf accuracy    <      31.25174442 Ry

     iteration #  3     ecut=    60.00 Ry     beta=0.70
     Davidson diagonalization with overlap
     ethr =  1.81E-03,  avg # of iterations =  3.0

     total cpu time spent up to now is       56.6 secs

     total energy              =  -15177.65788118 Ry
     Harris-Foulkes estimate   =  -15177.70895252 Ry
     estimated scf accuracy    <       0.20677086 Ry

     iteration #  4     ecut=    60.00 Ry     beta=0.70
     Davidson diagonalization with overlap
     WARNING:     1 eigenvalues not converged
     c_bands:  1 eigenvalues not converged
     ethr =  1.20E-05,  avg # of iterations = 20.0

     total cpu time spent up to now is       93.1 secs

     total energy              =  -15177.70323419 Ry
     Harris-Foulkes estimate   =  -15177.72558311 Ry
     estimated scf accuracy    <       0.04417187 Ry

     iteration #  5     ecut=    60.00 Ry     beta=0.70
     Davidson diagonalization with overlap
     ethr =  2.57E-06,  avg # of iterations = 13.0

     total cpu time spent up to now is      115.2 secs

     total energy              =  -15177.71341322 Ry
     Harris-Foulkes estimate   =  -15177.71402844 Ry
     estimated scf accuracy    <       0.00157353 Ry

     iteration #  6     ecut=    60.00 Ry     beta=0.70
     Davidson diagonalization with overlap
     WARNING:     1 eigenvalues not converged
     c_bands:  1 eigenvalues not converged
     ethr =  9.14E-08,  avg # of iterations = 20.0

     total cpu time spent up to now is      149.0 secs

     total energy              =  -15177.71378251 Ry
     Harris-Foulkes estimate   =  -15177.71395315 Ry
     estimated scf accuracy    <       0.00039933 Ry

     iteration #  7     ecut=    60.00 Ry     beta=0.70
     Davidson diagonalization with overlap
     WARNING:     4 eigenvalues not converged
     c_bands:  4 eigenvalues not converged
     ethr =  2.32E-08,  avg # of iterations = 20.0

     total cpu time spent up to now is      182.2 secs

     total energy              =  -15177.71388514 Ry
     Harris-Foulkes estimate   =  -15177.71388403 Ry
     estimated scf accuracy    <       0.00002951 Ry

     iteration #  8     ecut=    60.00 Ry     beta=0.70
     Davidson diagonalization with overlap
     WARNING:     5 eigenvalues not converged
     c_bands:  5 eigenvalues not converged
     ethr =  1.71E-09,  avg # of iterations = 20.0

     total cpu time spent up to now is      219.6 secs

     total energy              =  -15177.71389068 Ry
     Harris-Foulkes estimate   =  -15177.71389470 Ry
     estimated scf accuracy    <       0.00000954 Ry

     iteration #  9     ecut=    60.00 Ry     beta=0.70
     Davidson diagonalization with overlap
     WARNING:     3 eigenvalues not converged
     c_bands:  3 eigenvalues not converged
     ethr =  5.54E-10,  avg # of iterations = 20.0

     total cpu time spent up to now is      254.3 secs

     total energy              =  -15177.71389277 Ry
     Harris-Foulkes estimate   =  -15177.71389309 Ry
     estimated scf accuracy    <       0.00000080 Ry

     iteration # 10     ecut=    60.00 Ry     beta=0.70
     Davidson diagonalization with overlap
     ethr =  4.62E-11,  avg # of iterations =  9.0

     total cpu time spent up to now is      269.6 secs

     total energy              =  -15177.71389290 Ry
     Harris-Foulkes estimate   =  -15177.71389291 Ry
     estimated scf accuracy    <       0.00000004 Ry

     iteration # 11     ecut=    60.00 Ry     beta=0.70
     Davidson diagonalization with overlap
     WARNING:     5 eigenvalues not converged
     c_bands:  5 eigenvalues not converged
     ethr =  2.44E-12,  avg # of iterations = 20.0

     total cpu time spent up to now is      304.2 secs

     total energy              =  -15177.71389290 Ry
     Harris-Foulkes estimate   =  -15177.71389291 Ry
     estimated scf accuracy    <          3.2E-09 Ry

     iteration # 12     ecut=    60.00 Ry     beta=0.70
     Davidson diagonalization with overlap
     WARNING:     4 eigenvalues not converged
     c_bands:  4 eigenvalues not converged
     ethr =  1.85E-13,  avg # of iterations = 20.0

     total cpu time spent up to now is      342.0 secs

     total energy              =  -15177.71389291 Ry
     Harris-Foulkes estimate   =  -15177.71389291 Ry
     estimated scf accuracy    <          6.6E-10 Ry

     iteration # 13     ecut=    60.00 Ry     beta=0.70
     Davidson diagonalization with overlap
     WARNING:     5 eigenvalues not converged
     c_bands:  5 eigenvalues not converged
     ethr =  1.00E-13,  avg # of iterations = 20.0

     total cpu time spent up to now is      371.8 secs

     End of self-consistent calculation

          k = 0.0000 0.0000 0.0000 ( 55350 PWs)   bands (ev):

   -64.3240 -64.2905 -64.2895 -64.2895 -64.2895 -64.2883 -64.2883 -64.2883
   -64.2872 -64.2872 -64.2872 -64.2872 -64.2872 -64.2641 -64.2641 -64.2640
   -64.2640 -64.2640 -64.2640 -64.2269 -64.2268 -64.2268 -64.2257 -64.2257
   -64.2257 -64.2257 -64.2257 -64.2257 -64.2243 -64.2243 -64.2242 -64.2224
   -64.2224 -64.2224 -64.2222 -64.2222 -64.2222 -64.2222 -64.2218 -64.2207
   -64.2207 -64.2207 -64.2206 -64.2206 -64.2206 -64.2206 -64.2206 -64.2205
   -64.2205 -64.2205 -64.2204 -64.2204 -64.2204 -64.2202 -64.2202 -64.2087
   -64.2087 -64.2087 -64.2087 -64.2086 -64.2086 -64.2086 -64.2086 -64.2086
   -64.2085 -64.2085 -64.2085 -64.1618 -64.1618 -64.1618 -64.1395 -64.1394
   -64.1394 -64.1394 -64.1389 -64.1389 -64.1386 -64.1386 -64.1386 -64.1384
   -64.1384 -64.1384 -64.1379 -64.1379 -64.1378 -64.1376 -64.1376 -64.1376
   -64.1372 -64.1372 -64.1368 -64.1368 -64.1368 -64.1365 -64.0389 -64.0389
   -64.0389 -64.0389 -64.0388 -64.0388 -64.0388 -64.0388 -63.8882 -63.8867
   -63.8867 -63.8867 -63.8860 -63.8860 -31.1340 -31.1340 -31.1340 -31.1134
   -31.1068 -31.1068 -31.1068 -31.1063 -31.1063 -31.1053 -31.1053 -31.1053
   -31.1034 -31.0993 -31.0993 -31.0993 -31.0928 -31.0928 -31.0928 -31.0890
   -31.0890 -31.0890 -31.0876 -31.0876 -31.0876 -31.0835 -31.0835 -31.0835
   -31.0822 -31.0822 -31.0801 -31.0801 -31.0801 -31.0785 -31.0785 -31.0763
   -31.0763 -31.0763 -31.0760 -31.0713 -31.0705 -31.0705 -31.0705 -31.0683
   -31.0683 -31.0683 -31.0651 -31.0651 -31.0626 -31.0626 -31.0626 -31.0624
   -31.0624 -31.0624 -31.0618 -31.0618 -31.0618 -31.0499 -31.0499 -31.0499
   -31.0449 -31.0449 -31.0449 -31.0422 -31.0422 -31.0422 -31.0409 -31.0409
   -31.0409 -31.0393 -31.0393 -31.0393 -31.0374 -31.0374 -31.0370 -31.0367
   -31.0367 -31.0363 -31.0363 -31.0363 -31.0358 -31.0357 -31.0357 -31.0352
   -31.0352 -31.0352 -31.0349 -31.0335 -31.0319 -31.0319 -31.0319 -31.0319
   -31.0319 -31.0319 -31.0318 -31.0296 -31.0296 -31.0288 -31.0288 -31.0288
   -31.0245 -31.0245 -31.0245 -31.0235 -31.0232 -31.0225 -31.0225 -31.0225
   -31.0214 -31.0213 -31.0213 -31.0209 -31.0209 -31.0209 -31.0195 -31.0195
   -31.0186 -31.0186 -31.0186 -31.0186 -31.0186 -31.0185 -31.0185 -31.0181
   -31.0181 -31.0181 -31.0181 -31.0181 -31.0181 -31.0163 -31.0163 -31.0163
   -31.0162 -31.0162 -31.0162 -31.0148 -31.0148 -31.0148 -31.0143 -31.0133
   -31.0133 -31.0127 -31.0127 -31.0127 -31.0126 -31.0122 -31.0122 -31.0119
   -31.0119 -31.0119 -31.0116 -31.0116 -31.0116 -31.0113 -31.0113 -31.0113
   -31.0099 -31.0087 -31.0085 -31.0085 -31.0085 -31.0084 -31.0084 -31.0084
   -31.0060 -31.0060 -31.0060 -31.0049 -31.0049 -31.0049 -31.0049 -31.0049
   -31.0049 -31.0028 -31.0028 -31.0028 -31.0028 -31.0028 -31.0028 -31.0028
   -31.0028 -31.0004 -31.0004 -31.0003 -31.0003 -31.0003 -30.9991 -30.9991
   -30.9991 -30.9977 -30.9976 -30.9969 -30.9969 -30.9969 -30.9958 -30.9958
   -30.9958 -30.9955 -30.9955 -30.9955 -30.9938 -30.9721 -30.9721 -30.9721
   -30.9648 -30.9648 -30.9648 -30.9647 -30.9647 -30.9647 -30.9553 -30.9501
   -30.9501 -30.9478 -30.9478 -30.9478 -30.9470 -30.9470 -30.9470 -30.9455
   -30.9455 -30.9455 -30.9451 -30.9451 -30.9451 -30.9450 -30.9450 -30.9448
   -30.9448 -30.9448 -30.9446 -30.9446 -30.9446 -30.9434 -30.9433 -30.9433
   -30.9428 -30.9428 -30.9428 -30.9428 -30.9410 -30.9410 -30.9410 -30.9365
   -30.9365 -30.9365 -30.9331 -30.9331 -30.9326 -30.9326 -30.9325 -30.9323
   -30.9314 -30.9314 -30.9314 -30.9313 -30.9313 -30.9313 -30.9310 -30.9310
   -30.9310 -30.9301 -30.9301 -30.9301 -30.9271 -30.9271 -30.9263 -30.9263
   -30.9258 -30.9258 -30.9258 -30.9252 -30.9247 -30.9247 -30.9247 -30.9222
   -30.9222 -30.9222 -30.9214 -30.9214 -30.9214 -30.9209 -30.8381 -30.8381
   -30.8381 -30.8380 -30.8380 -30.8380 -30.8378 -30.8378 -30.8375 -30.8375
   -30.8375 -30.8374 -30.8374 -30.8374 -30.8370 -30.8370 -30.8364 -30.8364
   -30.8364 -30.8358 -30.8358 -30.8358 -30.8353 -30.8343 -30.7136 -30.7039
   -30.7039 -30.7039 -30.6948 -30.6948 -30.6910 -30.6910 -30.6910 -30.6827
   -30.6827 -30.6827 -30.6812 -30.6812 -30.6812 -30.6757 -30.6757 -30.6757
    -8.8000  -8.4597  -8.4597  -8.4483  -8.4483  -8.4483  -8.4191  -8.1669
    -8.1669  -8.1575  -8.1575  -8.1575  -8.1493  -8.1493  -8.1493  -8.1384
    -8.1384  -8.1384  -8.0807  -7.9202  -7.9140  -7.9140  -7.9140  -7.9058
    -7.9058  -7.9058  -7.8382  -7.7489  -7.7489  -7.7400  -7.7400  -7.7400
    -7.7375  -7.6289  -7.6289  -7.6289  -7.6221  -7.6221  -7.6110  -7.6089
    -7.6089  -7.6088  -7.6032  -7.6032  -7.6032  -7.6027  -7.6027  -7.6021
    -7.6021  -7.6021  -7.5983  -7.5983  -7.5983  -7.5945  -7.5945  -7.5945
    -7.5825  -7.5757  -7.5503  -7.5503  -7.5503  -7.5438  -7.5438  -7.5438
    -7.5233  -7.5233  -7.5233  -7.5154  -7.5154  -7.5026  -7.5026  -7.5026
    -7.4955  -7.4955  -7.4669  -7.4669  -7.4669  -7.4360  -7.4304  -7.4304
    -7.4304  -7.4202  -7.4202  -7.3872  -7.3872  -7.3789  -7.3786  -7.3786
    -7.3786  -7.3678  -7.3678  -7.3678  -7.3586  -7.3417  -7.3289  -7.3289
    -7.3289  -7.3196  -7.3196  -7.3088  -7.3088  -7.3088  -7.1960  -7.1960
    -7.1943  -7.1943  -7.1943   4.1886   4.1990   4.1990   4.1990   4.2228
     4.2228   4.2228   4.2236   4.2236   4.2236   4.2261   4.2261   4.2611
     4.2611   4.2665   4.2665   4.2665   4.2794   4.2794   4.2794   4.3376
     4.3376   4.3376   4.3431   4.3872   4.3872   4.3872   4.6589   4.7210
     4.7210   4.7210   4.7468   4.7468   4.7469   4.7513   4.7921   4.8156
     4.8156   4.8156   4.8176   4.8176   4.8176   4.8219   4.8219   4.8219
     4.8286   4.8286   4.8286   4.8336   4.8336   4.8433   4.8540   4.8540
     4.8605   4.8605   4.8605   4.8689   4.8689   4.8689   4.8705   4.8705
     4.8705   4.8984   4.8984   4.8984   4.9075   4.9075   4.9075   4.9118
     4.9118   4.9118   4.9179   4.9802   4.9802   5.0852   5.0852   5.0852
     5.1509   5.1683   5.1683   5.1683   5.1846   5.1846   5.1846   5.1934
     5.1934   5.2451   5.2451   5.2451   5.3447   5.3447   5.3447   5.3500
     5.3503   5.3503   5.3596   5.3596   5.3596   5.5182   5.5182   5.5182
     5.6078   5.7112   5.7112   5.7122   5.7122   5.7122   5.7278   5.7278
     5.7278   5.8499   5.8499   5.8499   6.1250   6.1250   6.1250   6.1285
     6.1285   6.1285   6.1365   6.1365   6.1365   6.1767   6.1767   6.1767
     6.4950   6.4950   6.4950   6.5007   6.5007   6.5007   6.5053   6.5053
     6.5058   6.5058   6.5058   6.5063   6.5168   6.5168   6.5168   6.5177
     6.5177   6.5198   6.5295   6.5295   6.5295   6.5583   6.5583   6.5583
     6.6270   6.6354   6.6354   6.6386   6.6386   6.6386   6.6518   6.6994
     6.7163   6.7163   6.7179   6.7179   6.7179   6.7248   6.7248   6.7595
     6.7595   6.7595   6.8734   6.8752   6.8752   6.8752   6.8756   6.8797
     6.8797   6.8797   6.8877   6.8877   6.8877   6.8891   6.8891   6.9262
     6.9262   6.9262   6.9379   6.9379   6.9482   6.9482   6.9482   6.9505
     6.9505   6.9505   6.9889   6.9889   6.9889   7.0538   7.0538   7.0538
     7.2340   7.2340   7.2340   7.2380   7.2380   7.2380   7.2391   7.2391
     7.2391   7.2407   7.2407   7.2407   7.2708   7.2708   7.2710   7.2811
     7.2812   7.2812   7.2871   7.2871   7.2871   7.2875   7.2991   7.2991
     7.2991   7.3036   7.3036   7.3265   7.3265   7.3265   7.3283   7.3283
     7.3283   7.3304   7.3304   7.3304   7.3439   7.3439   7.3439   7.3525
     7.3601   7.3601   7.3601   7.3648   7.3648   7.3648   7.3764   7.3764
     7.3866   7.3866   7.3866   7.3904   7.3904   7.3985   7.3985   7.3985
     7.3989   7.4218   7.4218   7.4218   7.4536   7.4592   7.4592   7.4592
     7.4778   7.4778   7.4782   7.4782   7.4782   7.4794   7.4794   7.4794
     7.5203   7.5203   7.5203   7.5208   7.5208   7.5444   7.5444   7.5444
     7.5483   7.7449   7.7449   7.7449   7.7945   7.7945   7.8082   7.8082
     7.8082   7.8214   7.8214   7.8214   7.8375   7.8375   7.8375   7.8545
     7.8545   7.8808   7.8808   7.8808   7.8947   7.8947   7.8947   7.8969
     7.8969   7.8969   7.9339   7.9339   7.9339   7.9441   7.9441   7.9441
     7.9818   8.0004   8.0004   8.0004   8.0221   8.0221   8.0442   8.0442
     8.0442   8.2822   8.2822   8.2822  11.3346  12.8812  14.4890  14.4890
    14.4890  14.5994  14.5994  14.8215  15.2705  15.2705  15.2705  15.6250
    15.6280  15.6280  15.6280  15.6484  15.6484  15.6484  15.6495  15.6495
    15.6495  15.6539  15.6539  15.6977  15.7401  15.7401  15.7401  16.4064
    16.4064  16.4064  16.4214  17.0058  17.0092  17.0092  17.0092  17.0211
    17.0211  17.0211  17.0215  17.0215

     occupation numbers 
     1.0000   1.0000   1.0000   1.0000   1.0000   1.0000   1.0000   1.0000
     1.0000   1.0000   1.0000   1.0000   1.0000   1.0000   1.0000   1.0000
     1.0000   1.0000   1.0000   1.0000   1.0000   1.0000   1.0000   1.0000
     1.0000   1.0000   1.0000   1.0000   1.0000   1.0000   1.0000   1.0000
     1.0000   1.0000   1.0000   1.0000   1.0000   1.0000   1.0000   1.0000
     1.0000   1.0000   1.0000   1.0000   1.0000   1.0000   1.0000   1.0000
     1.0000   1.0000   1.0000   1.0000   1.0000   1.0000   1.0000   1.0000
     1.0000   1.0000   1.0000   1.0000   1.0000   1.0000   1.0000   1.0000
     1.0000   1.0000   1.0000   1.0000   1.0000   1.0000   1.0000   1.0000
     1.0000   1.0000   1.0000   1.0000   1.0000   1.0000   1.0000   1.0000
     1.0000   1.0000   1.0000   1.0000   1.0000   1.0000   1.0000   1.0000
     1.0000   1.0000   1.0000   1.0000   1.0000   1.0000   1.0000   1.0000
     1.0000   1.0000   1.0000   1.0000   1.0000   1.0000   1.0000   1.0000
     1.0000   1.0000   1.0000   1.0000   1.0000   1.0000   1.0000   1.0000
     1.0000   1.0000   1.0000   1.0000   1.0000   1.0000   1.0000   1.0000
     1.0000   1.0000   1.0000   1.0000   1.0000   1.0000   1.0000   1.0000
     1.0000   1.0000   1.0000   1.0000   1.0000   1.0000   1.0000   1.0000
     1.0000   1.0000   1.0000   1.0000   1.0000   1.0000   1.0000   1.0000
     1.0000   1.0000   1.0000   1.0000   1.0000   1.0000   1.0000   1.0000
     1.0000   1.0000   1.0000   1.0000   1.0000   1.0000   1.0000   1.0000
     1.0000   1.0000   1.0000   1.0000   1.0000   1.0000   1.0000   1.0000
     1.0000   1.0000   1.0000   1.0000   1.0000   1.0000   1.0000   1.0000
     1.0000   1.0000   1.0000   1.0000   1.0000   1.0000   1.0000   1.0000
     1.0000   1.0000   1.0000   1.0000   1.0000   1.0000   1.0000   1.0000
     1.0000   1.0000   1.0000   1.0000   1.0000   1.0000   1.0000   1.0000
     1.0000   1.0000   1.0000   1.0000   1.0000   1.0000   1.0000   1.0000
     1.0000   1.0000   1.0000   1.0000   1.0000   1.0000   1.0000   1.0000
     1.0000   1.0000   1.0000   1.0000   1.0000   1.0000   1.0000   1.0000
     1.0000   1.0000   1.0000   1.0000   1.0000   1.0000   1.0000   1.0000
     1.0000   1.0000   1.0000   1.0000   1.0000   1.0000   1.0000   1.0000
     1.0000   1.0000   1.0000   1.0000   1.0000   1.0000   1.0000   1.0000
     1.0000   1.0000   1.0000   1.0000   1.0000   1.0000   1.0000   1.0000
     1.0000   1.0000   1.0000   1.0000   1.0000   1.0000   1.0000   1.0000
     1.0000   1.0000   1.0000   1.0000   1.0000   1.0000   1.0000   1.0000
     1.0000   1.0000   1.0000   1.0000   1.0000   1.0000   1.0000   1.0000
     1.0000   1.0000   1.0000   1.0000   1.0000   1.0000   1.0000   1.0000
     1.0000   1.0000   1.0000   1.0000   1.0000   1.0000   1.0000   1.0000
     1.0000   1.0000   1.0000   1.0000   1.0000   1.0000   1.0000   1.0000
     1.0000   1.0000   1.0000   1.0000   1.0000   1.0000   1.0000   1.0000
     1.0000   1.0000   1.0000   1.0000   1.0000   1.0000   1.0000   1.0000
     1.0000   1.0000   1.0000   1.0000   1.0000   1.0000   1.0000   1.0000
     1.0000   1.0000   1.0000   1.0000   1.0000   1.0000   1.0000   1.0000
     1.0000   1.0000   1.0000   1.0000   1.0000   1.0000   1.0000   1.0000
     1.0000   1.0000   1.0000   1.0000   1.0000   1.0000   1.0000   1.0000
     1.0000   1.0000   1.0000   1.0000   1.0000   1.0000   1.0000   1.0000
     1.0000   1.0000   1.0000   1.0000   1.0000   1.0000   1.0000   1.0000
     1.0000   1.0000   1.0000   1.0000   1.0000   1.0000   1.0000   1.0000
     1.0000   1.0000   1.0000   1.0000   1.0000   1.0000   1.0000   1.0000
     1.0000   1.0000   1.0000   1.0000   1.0000   1.0000   1.0000   1.0000
     1.0000   1.0000   1.0000   1.0000   1.0000   1.0000   1.0000   1.0000
     1.0000   1.0000   1.0000   1.0000   1.0000   1.0000   1.0000   1.0000
     1.0000   1.0000   1.0000   1.0000   1.0000   1.0000   1.0000   1.0000
     1.0000   1.0000   1.0000   1.0000   1.0000   1.0000   1.0000   1.0000
     1.0000   1.0000   1.0000   1.0000   1.0000   1.0000   1.0000   1.0000
     1.0000   1.0000   1.0000   1.0000   1.0000   1.0000   1.0000   1.0000
     1.0000   1.0000   1.0000   1.0000   1.0000   1.0000   1.0000   1.0000
     1.0000   1.0000   1.0000   1.0000   1.0000   1.0000   1.0000   1.0000
     1.0000   1.0000   1.0000   1.0000   1.0000   1.0000   1.0000   1.0000
     1.0000   1.0000   1.0000   1.0000   1.0000   1.0000   1.0000   1.0000
     1.0000   1.0000   1.0000   1.0000   1.0000   1.0000   1.0000   1.0000
     1.0000   1.0000   1.0000   1.0000   1.0000   1.0000   1.0000   1.0000
     1.0000   1.0000   1.0000   1.0000   1.0000   1.0000   1.0000   1.0000
     1.0000   1.0000   1.0000   1.0000   1.0000   1.0000   1.0000   1.0000
     1.0000   1.0000   1.0000   1.0000   1.0000   1.0000   1.0000   1.0000
     1.0000   1.0000   1.0000   1.0000   1.0000   1.0000   1.0000   1.0000
     1.0000   1.0000   1.0000   1.0000   1.0000   1.0000   1.0000   1.0000
     1.0000   1.0000   1.0000   1.0000   1.0000   1.0000   1.0000   1.0000
     1.0000   1.0000   1.0000   1.0000   1.0000   1.0000   1.0000   1.0000
     1.0000   1.0000   1.0000   1.0000   1.0000   1.0000   1.0000   1.0000
     1.0000   1.0000   1.0000   1.0000   1.0000   1.0000   1.0000   1.0000
     1.0000   1.0000   1.0000   1.0000   1.0000   1.0000   1.0000   1.0000
     1.0000   1.0000   1.0000   1.0000   1.0000   1.0000   1.0000   1.0000
     1.0000   1.0000   1.0000   1.0000   1.0000   1.0000   1.0000   1.0000
     1.0000   1.0000   1.0000   1.0000   1.0000   1.0000   1.0000   1.0000
     1.0000   1.0000   1.0000   1.0000   1.0000   1.0000   1.0000   1.0000
     1.0000   1.0000   1.0000   1.0000   1.0000   1.0000   1.0000   1.0000
     1.0000   1.0000   1.0000   1.0000   1.0000   1.0000   1.0000   1.0000
     1.0000   1.0000   1.0000   1.0000   1.0000   1.0000   1.0000   1.0000
     1.0000   1.0000   1.0000   1.0000   1.0000   1.0000   1.0000   1.0000
     1.0000   1.0000   1.0000   1.0000   1.0000   1.0000   1.0000   1.0000
     1.0000   1.0000   1.0000   1.0000   1.0000   1.0000   1.0000   1.0000
     1.0000   1.0000   1.0000   1.0000   1.0000   1.0000   1.0000   1.0000
     1.0000   1.0000   1.0000   1.0000   1.0000   1.0000   1.0000   1.0000
     1.0000   1.0000   1.0000   1.0000   1.0000   1.0000   1.0000   1.0000
     1.0000   1.0000   1.0000   1.0000   1.0000   1.0000   1.0000   1.0000
     1.0000   1.0000   1.0000   1.0000   1.0000   1.0000   1.0000   1.0000
     1.0000   1.0000   1.0000   1.0000   1.0000   1.0000   1.0000   1.0000
     1.0000   1.0000   1.0000   1.0000   1.0000   1.0000   1.0000   1.0000
     1.0000   1.0000   1.0000   1.0000   1.0000   1.0000   1.0000   1.0000
     1.0000   1.0000   1.0000   1.0000   1.0000   1.0000   1.0000   1.0000
     1.0000   1.0000   1.0000   1.0000   1.0000   1.0000   1.0000   1.0000
     1.0000   1.0000   1.0000   1.0000   1.0000   1.0000   1.0000   1.0000
     1.0000   1.0000   1.0000   1.0000   1.0000   1.0000   1.0000   1.0000
     1.0000   1.0000   1.0000   1.0000   1.0000   1.0000   1.0000   1.0000
     1.0000   1.0000   1.0000   1.0000   1.0000   1.0000   1.0000   1.0000
     1.0000   1.0000   1.0000   1.0000   1.0000   1.0000   1.0000   1.0000
     1.0000   1.0000   1.0000   1.0000   1.0000   1.0000   1.0000   1.0000
     1.0000   1.0000   1.0000   1.0000   1.0000   1.0000   1.0000   1.0000
     1.0000   1.0000   1.0000   1.0000   1.0000   1.0000   1.0000   1.0000
     1.0000   1.0000   1.0000   1.0000   1.0000   1.0000   1.0000   1.0000
     1.0000   1.0000   1.0000   1.0000   1.0000   1.0000   1.0000   1.0000
     1.0000   1.0000   1.0000   1.0000   1.0000   1.0000   1.0000   1.0000
     1.0000   1.0000   1.0000   1.0000   1.0000   1.0000   1.0000   1.0000
     1.0000   1.0000   1.0000   1.0000   1.0000   1.0000   1.0000   1.0000
     1.0000   1.0000   1.0000   1.0000   1.0000   1.0000   1.0000   1.0000
     1.0000   1.0000   1.0000   1.0000   1.0000   1.0000   1.0000   1.0000
     1.0000   1.0000   1.0000   1.0000   1.0000   1.0000   1.0000   1.0000
     1.0000   1.0000   1.0000   1.0000   1.0000   0.0000   0.0000   0.0000
     0.0000   0.0000   0.0000   0.0000   0.0000   0.0000   0.0000   0.0000
     0.0000   0.0000   0.0000   0.0000   0.0000   0.0000   0.0000   0.0000
     0.0000   0.0000   0.0000   0.0000   0.0000   0.0000   0.0000   0.0000
     0.0000   0.0000   0.0000   0.0000   0.0000   0.0000   0.0000   0.0000
     0.0000   0.0000   0.0000   0.0000

     highest occupied, lowest unoccupied level (ev):    11.3346   12.8812

!    total energy              =  -15177.71389291 Ry
     Harris-Foulkes estimate   =  -15177.71389291 Ry
     estimated scf accuracy    <          8.1E-11 Ry

     The total energy is the sum of the following terms:

     one-electron contribution =   -6325.39272864 Ry
     hartree contribution      =    3488.38741221 Ry
     xc contribution           =   -2279.80689939 Ry
     ewald contribution        =  -10060.90167708 Ry

     convergence has been achieved in  13 iterations

     Forces acting on atoms (cartesian axes, Ry/au):

     atom    1 type  1   force =     0.00000000   -0.00000000    0.00000000
     atom    2 type  1   force =     0.00000000    0.00000000    0.00209555
     atom    3 type  1   force =     0.00000000    0.00000000   -0.00209555
     atom    4 type  1   force =     0.00000000    0.00209555    0.00000000
     atom    5 type  1   force =     0.00000000    0.00139041    0.00139041
     atom    6 type  1   force =     0.00000000    0.00139041   -0.00139041
     atom    7 type  1   force =     0.00000000   -0.00209555    0.00000000
     atom    8 type  1   force =     0.00000000   -0.00139041    0.00139041
     atom    9 type  1   force =     0.00000000   -0.00139041   -0.00139041
     atom   10 type  1   force =     0.00209555   -0.00000000   -0.00000000
     atom   11 type  1   force =     0.00139041    0.00000000    0.00139041
     atom   12 type  1   force =     0.00139041   -0.00000000   -0.00139041
     atom   13 type  1   force =     0.00139041    0.00139041    0.00000000
     atom   14 type  1   force =     0.00551753    0.00551753    0.00551753
     atom   15 type  1   force =     0.00551753    0.00551753   -0.00551753
     atom   16 type  1   force =     0.00139041   -0.00139041    0.00000000
     atom   17 type  1   force =     0.00551753   -0.00551753    0.00551753
     atom   18 type  1   force =     0.00551753   -0.00551753   -0.00551753
     atom   19 type  1   force =    -0.00209555    0.00000000   -0.00000000
     atom   20 type  1   force =    -0.00139041   -0.00000000    0.00139041
     atom   21 type  1   force =    -0.00139041   -0.00000000   -0.00139041
     atom   22 type  1   force =    -0.00139041    0.00139041   -0.00000000
     atom   23 type  1   force =    -0.00551753    0.00551753    0.00551753
     atom   24 type  1   force =    -0.00551753    0.00551753   -0.00551753
     atom   25 type  1   force =    -0.00139041   -0.00139041    0.00000000
     atom   26 type  1   force =    -0.00551753   -0.00551753    0.00551753
     atom   27 type  1   force =    -0.00551753   -0.00551753   -0.00551753
     atom   28 type  1   force =    -0.00000000    0.00176492    0.00176492
     atom   29 type  1   force =     0.00000000    0.00105860    0.00000000
     atom   30 type  1   force =     0.00000000    0.00176492   -0.00176492
     atom   31 type  1   force =     0.00000000    0.00000000    0.00105860
     atom   32 type  1   force =     0.00000000    0.00000000    0.00000000
     atom   33 type  1   force =    -0.00000000    0.00000000   -0.00105860
     atom   34 type  1   force =     0.00000000   -0.00176492    0.00176492
     atom   35 type  1   force =     0.00000000   -0.00105860    0.00000000
     atom   36 type  1   force =     0.00000000   -0.00176492   -0.00176492
     atom   37 type  1   force =     0.00237067    0.00233476    0.00233476
     atom   38 type  1   force =     0.00200693    0.00559671   -0.00000000
     atom   39 type  1   force =     0.00237067    0.00233476   -0.00233476
     atom   40 type  1   force =     0.00200693    0.00000000    0.00559671
     atom   41 type  1   force =     0.02468330    0.00000000    0.00000000
     atom   42 type  1   force =     0.00200693   -0.00000000   -0.00559671
     atom   43 type  1   force =     0.00237067   -0.00233476    0.00233476
     atom   44 type  1   force =     0.00200693   -0.00559671    0.00000000
     atom   45 type  1   force =     0.00237067   -0.00233476   -0.00233476
     atom   46 type  1   force =    -0.00237067    0.00233476    0.00233476
     atom   47 type  1   force =    -0.00200693    0.00559671   -0.00000000
     atom   48 type  1   force =    -0.00237067    0.00233476   -0.00233476
     atom   49 type  1   force =    -0.00200693    0.00000000    0.00559671
     atom   50 type  1   force =    -0.02468330    0.00000000    0.00000000
     atom   51 type  1   force =    -0.00200693    0.00000000   -0.00559671
     atom   52 type  1   force =    -0.00237067   -0.00233476    0.00233476
     atom   53 type  1   force =    -0.00200693   -0.00559671   -0.00000000
     atom   54 type  1   force =    -0.00237067   -0.00233476   -0.00233476
     atom   55 type  1   force =     0.00176492    0.00000000    0.00176492
     atom   56 type  1   force =     0.00105860    0.00000000    0.00000000
     atom   57 type  1   force =     0.00176492    0.00000000   -0.00176492
     atom   58 type  1   force =     0.00233476    0.00237067    0.00233476
     atom   59 type  1   force =     0.00559671    0.00200693   -0.00000000
     atom   60 type  1   force =     0.00233476    0.00237067   -0.00233476
     atom   61 type  1   force =     0.00233476   -0.00237067    0.00233476
     atom   62 type  1   force =     0.00559671   -0.00200693    0.00000000
     atom   63 type  1   force =     0.00233476   -0.00237067   -0.00233476
     atom   64 type  1   force =     0.00000000    0.00000000    0.00105860
     atom   65 type  1   force =     0.00000000    0.00000000    0.00000000
     atom   66 type  1   force =     0.00000000    0.00000000   -0.00105860
     atom   67 type  1   force =    -0.00000000    0.00200693    0.00559671
     atom   68 type  1   force =     0.00000000    0.02468330    0.00000000
     atom   69 type  1   force =     0.00000000    0.00200693   -0.00559671
     atom   70 type  1   force =     0.00000000   -0.00200693    0.00559671
     atom   71 type  1   force =    -0.00000000   -0.02468330    0.00000000
     atom   72 type  1   force =     0.00000000   -0.00200693   -0.00559671
     atom   73 type  1   force =    -0.00176492    0.00000000    0.00176492
     atom   74 type  1   force =    -0.00105860    0.00000000   -0.00000000
     atom   75 type  1   force =    -0.00176492    0.00000000   -0.00176492
     atom   76 type  1   force =    -0.00233476    0.00237067    0.00233476
     atom   77 type  1   force =    -0.00559671    0.00200693    0.00000000
     atom   78 type  1   force =    -0.00233476    0.00237067   -0.00233476
     atom   79 type  1   force =    -0.00233476   -0.00237067    0.00233476
     atom   80 type  1   force =    -0.00559671   -0.00200693    0.00000000
     atom   81 type  1   force =    -0.00233476   -0.00237067   -0.00233476
     atom   82 type  1   force =     0.00176492    0.00176492    0.00000000
     atom   83 type  1   force =     0.00233476    0.00233476    0.00237067
     atom   84 type  1   force =     0.00233476    0.00233476   -0.00237067
     atom   85 type  1   force =     0.00105860    0.00000000   -0.00000000
     atom   86 type  1   force =     0.00559671    0.00000000    0.00200693
     atom   87 type  1   force =     0.00559671   -0.00000000   -0.00200693
     atom   88 type  1   force =     0.00176492   -0.00176492   -0.00000000
     atom   89 type  1   force =     0.00233476   -0.00233476    0.00237067
     atom   90 type  1   force =     0.00233476   -0.00233476   -0.00237067
     atom   91 type  1   force =     0.00000000    0.00105860    0.00000000
     atom   92 type  1   force =     0.00000000    0.00559671    0.00200693
     atom   93 type  1   force =    -0.00000000    0.00559671   -0.00200693
     atom   94 type  1   force =     0.00000000    0.00000000    0.00000000
     atom   95 type  1   force =    -0.00000000    0.00000000    0.02468330
     atom   96 type  1   force =    -0.00000000    0.00000000   -0.02468330
     atom   97 type  1   force =     0.00000000   -0.00105860    0.00000000
     atom   98 type  1   force =     0.00000000   -0.00559671    0.00200693
     atom   99 type  1   force =     0.00000000   -0.00559671   -0.00200693
     atom  100 type  1   force =    -0.00176492    0.00176492    0.00000000
     atom  101 type  1   force =    -0.00233476    0.00233476    0.00237067
     atom  102 type  1   force =    -0.00233476    0.00233476   -0.00237067
     atom  103 type  1   force =    -0.00105860    0.00000000   -0.00000000
     atom  104 type  1   force =    -0.00559671   -0.00000000    0.00200693
     atom  105 type  1   force =    -0.00559671    0.00000000   -0.00200693
     atom  106 type  1   force =    -0.00176492   -0.00176492    0.00000000
     atom  107 type  1   force =    -0.00233476   -0.00233476    0.00237067
     atom  108 type  1   force =    -0.00233476   -0.00233476   -0.00237067
     atom  109 type  2   force =     0.00000000   -0.00190339    0.00000000
     atom  110 type  2   force =    -0.00000000   -0.00196369   -0.00229424
     atom  111 type  2   force =     0.00000000   -0.00196369    0.00229424
     atom  112 type  2   force =     0.00000000    0.00000000    0.00000000
     atom  113 type  2   force =    -0.00000000    0.00000000   -0.00172915
     atom  114 type  2   force =     0.00000000    0.00000000    0.00172915
     atom  115 type  2   force =    -0.00000000    0.00190339   -0.00000000
     atom  116 type  2   force =     0.00000000    0.00196369   -0.00229424
     atom  117 type  2   force =     0.00000000    0.00196369    0.00229424
     atom  118 type  2   force =    -0.00229424   -0.00196369    0.00000000
     atom  119 type  2   force =    -0.00298744   -0.00465854   -0.00298744
     atom  120 type  2   force =    -0.00298744   -0.00465854    0.00298744
     atom  121 type  2   force =    -0.00172915    0.00000000   -0.00000000
     atom  122 type  2   force =    -0.01079641   -0.00000000   -0.01079641
     atom  123 type  2   force =    -0.01079641   -0.00000000    0.01079641
     atom  124 type  2   force =    -0.00229424    0.00196369   -0.00000000
     atom  125 type  2   force =    -0.00298744    0.00465854   -0.00298744
     atom  126 type  2   force =    -0.00298744    0.00465854    0.00298744
     atom  127 type  2   force =     0.00229424   -0.00196369   -0.00000000
     atom  128 type  2   force =     0.00298744   -0.00465854   -0.00298744
     atom  129 type  2   force =     0.00298744   -0.00465854    0.00298744
     atom  130 type  2   force =     0.00172915    0.00000000    0.00000000
     atom  131 type  2   force =     0.01079641    0.00000000   -0.01079641
     atom  132 type  2   force =     0.01079641    0.00000000    0.01079641
     atom  133 type  2   force =     0.00229424    0.00196369    0.00000000
     atom  134 type  2   force =     0.00298744    0.00465854   -0.00298744
     atom  135 type  2   force =     0.00298744    0.00465854    0.00298744
     atom  136 type  2   force =     0.00000000    0.00000000   -0.00190339
     atom  137 type  2   force =     0.00000000    0.00000000   -0.00000000
     atom  138 type  2   force =     0.00000000    0.00000000    0.00190339
     atom  139 type  2   force =     0.00000000   -0.00229424   -0.00196369
     atom  140 type  2   force =     0.00000000   -0.00172915   -0.00000000
     atom  141 type  2   force =     0.00000000   -0.00229424    0.00196369
     atom  142 type  2   force =     0.00000000    0.00229424   -0.00196369
     atom  143 type  2   force =     0.00000000    0.00172915    0.00000000
     atom  144 type  2   force =    -0.00000000    0.00229424    0.00196369
     atom  145 type  2   force =    -0.00229424    0.00000000   -0.00196369
     atom  146 type  2   force =    -0.00172915   -0.00000000    0.00000000
     atom  147 type  2   force =    -0.00229424   -0.00000000    0.00196369
     atom  148 type  2   force =    -0.00298744   -0.00298744   -0.00465854
     atom  149 type  2   force =    -0.01079641   -0.01079641    0.00000000
     atom  150 type  2   force =    -0.00298744   -0.00298744    0.00465854
     atom  151 type  2   force =    -0.00298744    0.00298744   -0.00465854
     atom  152 type  2   force =    -0.01079641    0.01079641    0.00000000
     atom  153 type  2   force =    -0.00298744    0.00298744    0.00465854
     atom  154 type  2   force =     0.00229424   -0.00000000   -0.00196369
     atom  155 type  2   force =     0.00172915   -0.00000000    0.00000000
     atom  156 type  2   force =     0.00229424    0.00000000    0.00196369
     atom  157 type  2   force =     0.00298744   -0.00298744   -0.00465854
     atom  158 type  2   force =     0.01079641   -0.01079641    0.00000000
     atom  159 type  2   force =     0.00298744   -0.00298744    0.00465854
     atom  160 type  2   force =     0.00298744    0.00298744   -0.00465854
     atom  161 type  2   force =     0.01079641    0.01079641   -0.00000000
     atom  162 type  2   force =     0.00298744    0.00298744    0.00465854
     atom  163 type  2   force =    -0.00210772   -0.00210772   -0.00210772
     atom  164 type  2   force =    -0.00402943   -0.00402943   -0.00000000
     atom  165 type  2   force =    -0.00210772   -0.00210772    0.00210772
     atom  166 type  2   force =    -0.00402943   -0.00000000   -0.00402943
     atom  167 type  2   force =    -0.00637353    0.00000000   -0.00000000
     atom  168 type  2   force =    -0.00402943    0.00000000    0.00402943
     atom  169 type  2   force =    -0.00210772    0.00210772   -0.00210772
     atom  170 type  2   force =    -0.00402943    0.00402943    0.00000000
     atom  171 type  2   force =    -0.00210772    0.00210772    0.00210772
     atom  172 type  2   force =     0.00000000   -0.00402943   -0.00402943
     atom  173 type  2   force =    -0.00000000   -0.00637353    0.00000000
     atom  174 type  2   force =     0.00000000   -0.00402943    0.00402943
     atom  175 type  2   force =    -0.00000000    0.00000000   -0.00637353
     atom  176 type  2   force =    -0.00000000   -0.00000000    0.00637353
     atom  177 type  2   force =     0.00000000    0.00402943   -0.00402943
     atom  178 type  2   force =     0.00000000    0.00637353    0.00000000
     atom  179 type  2   force =    -0.00000000    0.00402943    0.00402943
     atom  180 type  2   force =     0.00210772   -0.00210772   -0.00210772
     atom  181 type  2   force =     0.00402943   -0.00402943    0.00000000
     atom  182 type  2   force =     0.00210772   -0.00210772    0.00210772
     atom  183 type  2   force =     0.00402943    0.00000000   -0.00402943
     atom  184 type  2   force =     0.00637353   -0.00000000   -0.00000000
     atom  185 type  2   force =     0.00402943   -0.00000000    0.00402943
     atom  186 type  2   force =     0.00210772    0.00210772   -0.00210772
     atom  187 type  2   force =     0.00402943    0.00402943    0.00000000
     atom  188 type  2   force =     0.00210772    0.00210772    0.00210772
     atom  189 type  2   force =    -0.00190339   -0.00000000    0.00000000
     atom  190 type  2   force =    -0.00196369    0.00000000   -0.00229424
     atom  191 type  2   force =    -0.00196369    0.00000000    0.00229424
     atom  192 type  2   force =    -0.00196369   -0.00229424    0.00000000
     atom  193 type  2   force =    -0.00465854   -0.00298744   -0.00298744
     atom  194 type  2   force =    -0.00465854   -0.00298744    0.00298744
     atom  195 type  2   force =    -0.00196369    0.00229424    0.00000000
     atom  196 type  2   force =    -0.00465854    0.00298744   -0.00298744
     atom  197 type  2   force =    -0.00465854    0.00298744    0.00298744
     atom  198 type  2   force =     0.00000000    0.00000000    0.00000000
     atom  199 type  2   force =     0.00000000    0.00000000   -0.00172915
     atom  200 type  2   force =     0.00000000   -0.00000000    0.00172915
     atom  201 type  2   force =     0.00000000   -0.00172915    0.00000000
     atom  202 type  2   force =    -0.00000000   -0.01079641   -0.01079641
     atom  203 type  2   force =    -0.00000000   -0.01079641    0.01079641
     atom  204 type  2   force =     0.00000000    0.00172915   -0.00000000
     atom  205 type  2   force =    -0.00000000    0.01079641   -0.01079641
     atom  206 type  2   force =    -0.00000000    0.01079641    0.01079641
     atom  207 type  2   force =     0.00190339    0.00000000    0.00000000
     atom  208 type  2   force =     0.00196369   -0.00000000   -0.00229424
     atom  209 type  2   force =     0.00196369    0.00000000    0.00229424
     atom  210 type  2   force =     0.00196369   -0.00229424    0.00000000
     atom  211 type  2   force =     0.00465854   -0.00298744   -0.00298744
     atom  212 type  2   force =     0.00465854   -0.00298744    0.00298744
     atom  213 type  2   force =     0.00196369    0.00229424   -0.00000000
     atom  214 type  2   force =     0.00465854    0.00298744   -0.00298744
     atom  215 type  2   force =     0.00465854    0.00298744    0.00298744
     The non-local contrib.  to forces
     atom    1 type  1   force =     0.00000000    0.00000000    0.00000000
     atom    2 type  1   force =     0.00000000   -0.00000000   -0.00148601
     atom    3 type  1   force =     0.00000000   -0.00000000    0.00148601
     atom    4 type  1   force =     0.00000000   -0.00148601    0.00000000
     atom    5 type  1   force =     0.00000000   -0.00003393   -0.00003393
     atom    6 type  1   force =     0.00000000   -0.00003393    0.00003393
     atom    7 type  1   force =     0.00000000    0.00148601    0.00000000
     atom    8 type  1   force =    -0.00000000    0.00003393   -0.00003393
     atom    9 type  1   force =     0.00000000    0.00003393    0.00003393
     atom   10 type  1   force =    -0.00148601    0.00000000   -0.00000000
     atom   11 type  1   force =    -0.00003393    0.00000000   -0.00003393
     atom   12 type  1   force =    -0.00003393    0.00000000    0.00003393
     atom   13 type  1   force =    -0.00003393   -0.00003393   -0.00000000
     atom   14 type  1   force =    -0.00964633   -0.00964633   -0.00964633
     atom   15 type  1   force =    -0.00964633   -0.00964633    0.00964633
     atom   16 type  1   force =    -0.00003393    0.00003393    0.00000000
     atom   17 type  1   force =    -0.00964633    0.00964633   -0.00964633
     atom   18 type  1   force =    -0.00964633    0.00964633    0.00964633
     atom   19 type  1   force =     0.00148601   -0.00000000    0.00000000
     atom   20 type  1   force =     0.00003393    0.00000000   -0.00003393
     atom   21 type  1   force =     0.00003393    0.00000000    0.00003393
     atom   22 type  1   force =     0.00003393   -0.00003393    0.00000000
     atom   23 type  1   force =     0.00964633   -0.00964633   -0.00964633
     atom   24 type  1   force =     0.00964633   -0.00964633    0.00964633
     atom   25 type  1   force =     0.00003393    0.00003393    0.00000000
     atom   26 type  1   force =     0.00964633    0.00964633   -0.00964633
     atom   27 type  1   force =     0.00964633    0.00964633    0.00964633
     atom   28 type  1   force =    -0.00000000   -0.00158576   -0.00158576
     atom   29 type  1   force =     0.00000000   -0.00035148    0.00000000
     atom   30 type  1   force =     0.00000000   -0.00158576    0.00158576
     atom   31 type  1   force =     0.00000000    0.00000000   -0.00035148
     atom   32 type  1   force =     0.00000000    0.00000000   -0.00000000
     atom   33 type  1   force =     0.00000000    0.00000000    0.00035148
     atom   34 type  1   force =    -0.00000000    0.00158576   -0.00158576
     atom   35 type  1   force =     0.00000000    0.00035148    0.00000000
     atom   36 type  1   force =    -0.00000000    0.00158576    0.00158576
     atom   37 type  1   force =    -0.00143972   -0.00223964   -0.00223964
     atom   38 type  1   force =     0.00753755   -0.00006333   -0.00000000
     atom   39 type  1   force =    -0.00143972   -0.00223964    0.00223964
     atom   40 type  1   force =     0.00753755    0.00000000   -0.00006333
     atom   41 type  1   force =    -0.00916272   -0.00000000    0.00000000
     atom   42 type  1   force =     0.00753755    0.00000000    0.00006333
     atom   43 type  1   force =    -0.00143972    0.00223964   -0.00223964
     atom   44 type  1   force =     0.00753755    0.00006333    0.00000000
     atom   45 type  1   force =    -0.00143972    0.00223964    0.00223964
     atom   46 type  1   force =     0.00143972   -0.00223964   -0.00223964
     atom   47 type  1   force =    -0.00753755   -0.00006333   -0.00000000
     atom   48 type  1   force =     0.00143972   -0.00223964    0.00223964
     atom   49 type  1   force =    -0.00753755    0.00000000   -0.00006333
     atom   50 type  1   force =     0.00916272   -0.00000000   -0.00000000
     atom   51 type  1   force =    -0.00753755   -0.00000000    0.00006333
     atom   52 type  1   force =     0.00143972    0.00223964   -0.00223964
     atom   53 type  1   force =    -0.00753755    0.00006333    0.00000000
     atom   54 type  1   force =     0.00143972    0.00223964    0.00223964
     atom   55 type  1   force =    -0.00158576   -0.00000000   -0.00158576
     atom   56 type  1   force =    -0.00035148    0.00000000   -0.00000000
     atom   57 type  1   force =    -0.00158576   -0.00000000    0.00158576
     atom   58 type  1   force =    -0.00223964   -0.00143972   -0.00223964
     atom   59 type  1   force =    -0.00006333    0.00753755    0.00000000
     atom   60 type  1   force =    -0.00223964   -0.00143972    0.00223964
     atom   61 type  1   force =    -0.00223964    0.00143972   -0.00223964
     atom   62 type  1   force =    -0.00006333   -0.00753755   -0.00000000
     atom   63 type  1   force =    -0.00223964    0.00143972    0.00223964
     atom   64 type  1   force =     0.00000000    0.00000000   -0.00035148
     atom   65 type  1   force =     0.00000000    0.00000000    0.00000000
     atom   66 type  1   force =     0.00000000    0.00000000    0.00035148
     atom   67 type  1   force =    -0.00000000    0.00753755   -0.00006333
     atom   68 type  1   force =     0.00000000   -0.00916272   -0.00000000
     atom   69 type  1   force =     0.00000000    0.00753755    0.00006333
     atom   70 type  1   force =     0.00000000   -0.00753755   -0.00006333
     atom   71 type  1   force =     0.00000000    0.00916272   -0.00000000
     atom   72 type  1   force =     0.00000000   -0.00753755    0.00006333
     atom   73 type  1   force =     0.00158576   -0.00000000   -0.00158576
     atom   74 type  1   force =     0.00035148   -0.00000000   -0.00000000
     atom   75 type  1   force =     0.00158576   -0.00000000    0.00158576
     atom   76 type  1   force =     0.00223964   -0.00143972   -0.00223964
     atom   77 type  1   force =     0.00006333    0.00753755    0.00000000
     atom   78 type  1   force =     0.00223964   -0.00143972    0.00223964
     atom   79 type  1   force =     0.00223964    0.00143972   -0.00223964
     atom   80 type  1   force =     0.00006333   -0.00753755    0.00000000
     atom   81 type  1   force =     0.00223964    0.00143972    0.00223964
     atom   82 type  1   force =    -0.00158576   -0.00158576    0.00000000
     atom   83 type  1   force =    -0.00223964   -0.00223964   -0.00143972
     atom   84 type  1   force =    -0.00223964   -0.00223964    0.00143972
     atom   85 type  1   force =    -0.00035148    0.00000000   -0.00000000
     atom   86 type  1   force =    -0.00006333    0.00000000    0.00753755
     atom   87 type  1   force =    -0.00006333    0.00000000   -0.00753755
     atom   88 type  1   force =    -0.00158576    0.00158576    0.00000000
     atom   89 type  1   force =    -0.00223964    0.00223964   -0.00143972
     atom   90 type  1   force =    -0.00223964    0.00223964    0.00143972
     atom   91 type  1   force =    -0.00000000   -0.00035148   -0.00000000
     atom   92 type  1   force =     0.00000000   -0.00006333    0.00753755
     atom   93 type  1   force =     0.00000000   -0.00006333   -0.00753755
     atom   94 type  1   force =     0.00000000    0.00000000   -0.00000000
     atom   95 type  1   force =     0.00000000    0.00000000   -0.00916272
     atom   96 type  1   force =     0.00000000   -0.00000000    0.00916272
     atom   97 type  1   force =    -0.00000000    0.00035148    0.00000000
     atom   98 type  1   force =    -0.00000000    0.00006333    0.00753755
     atom   99 type  1   force =     0.00000000    0.00006333   -0.00753755
     atom  100 type  1   force =     0.00158576   -0.00158576    0.00000000
     atom  101 type  1   force =     0.00223964   -0.00223964   -0.00143972
     atom  102 type  1   force =     0.00223964   -0.00223964    0.00143972
     atom  103 type  1   force =     0.00035148    0.00000000    0.00000000
     atom  104 type  1   force =     0.00006333    0.00000000    0.00753755
     atom  105 type  1   force =     0.00006333   -0.00000000   -0.00753755
     atom  106 type  1   force =     0.00158576    0.00158576    0.00000000
     atom  107 type  1   force =     0.00223964    0.00223964   -0.00143972
     atom  108 type  1   force =     0.00223964    0.00223964    0.00143972
     atom  109 type  2   force =     0.00000000   -0.00764748    0.00000000
     atom  110 type  2   force =     0.00000000   -0.00812338   -0.01051898
     atom  111 type  2   force =     0.00000000   -0.00812338    0.01051898
     atom  112 type  2   force =     0.00000000   -0.00000000    0.00000000
     atom  113 type  2   force =     0.00000000    0.00000000   -0.01029992
     atom  114 type  2   force =     0.00000000    0.00000000    0.01029992
     atom  115 type  2   force =     0.00000000    0.00764748    0.00000000
     atom  116 type  2   force =     0.00000000    0.00812338   -0.01051898
     atom  117 type  2   force =     0.00000000    0.00812338    0.01051898
     atom  118 type  2   force =    -0.01051898   -0.00812338    0.00000000
     atom  119 type  2   force =    -0.01443420   -0.02651675   -0.01443420
     atom  120 type  2   force =    -0.01443420   -0.02651675    0.01443420
     atom  121 type  2   force =    -0.01029992   -0.00000000    0.00000000
     atom  122 type  2   force =    -0.07404940   -0.00000000   -0.07404940
     atom  123 type  2   force =    -0.07404940    0.00000000    0.07404940
     atom  124 type  2   force =    -0.01051898    0.00812338   -0.00000000
     atom  125 type  2   force =    -0.01443420    0.02651675   -0.01443420
     atom  126 type  2   force =    -0.01443420    0.02651675    0.01443420
     atom  127 type  2   force =     0.01051898   -0.00812338    0.00000000
     atom  128 type  2   force =     0.01443420   -0.02651675   -0.01443420
     atom  129 type  2   force =     0.01443420   -0.02651675    0.01443420
     atom  130 type  2   force =     0.01029992    0.00000000   -0.00000000
     atom  131 type  2   force =     0.07404940   -0.00000000   -0.07404940
     atom  132 type  2   force =     0.07404940    0.00000000    0.07404940
     atom  133 type  2   force =     0.01051898    0.00812338    0.00000000
     atom  134 type  2   force =     0.01443420    0.02651675   -0.01443420
     atom  135 type  2   force =     0.01443420    0.02651675    0.01443420
     atom  136 type  2   force =     0.00000000    0.00000000   -0.00764748
     atom  137 type  2   force =     0.00000000    0.00000000    0.00000000
     atom  138 type  2   force =     0.00000000    0.00000000    0.00764748
     atom  139 type  2   force =     0.00000000   -0.01051898   -0.00812338
     atom  140 type  2   force =    -0.00000000   -0.01029992    0.00000000
     atom  141 type  2   force =     0.00000000   -0.01051898    0.00812338
     atom  142 type  2   force =     0.00000000    0.01051898   -0.00812338
     atom  143 type  2   force =     0.00000000    0.01029992    0.00000000
     atom  144 type  2   force =     0.00000000    0.01051898    0.00812338
     atom  145 type  2   force =    -0.01051898    0.00000000   -0.00812338
     atom  146 type  2   force =    -0.01029992    0.00000000    0.00000000
     atom  147 type  2   force =    -0.01051898   -0.00000000    0.00812338
     atom  148 type  2   force =    -0.01443420   -0.01443420   -0.02651675
     atom  149 type  2   force =    -0.07404940   -0.07404940    0.00000000
     atom  150 type  2   force =    -0.01443420   -0.01443420    0.02651675
     atom  151 type  2   force =    -0.01443420    0.01443420   -0.02651675
     atom  152 type  2   force =    -0.07404940    0.07404940    0.00000000
     atom  153 type  2   force =    -0.01443420    0.01443420    0.02651675
     atom  154 type  2   force =     0.01051898    0.00000000   -0.00812338
     atom  155 type  2   force =     0.01029992   -0.00000000   -0.00000000
     atom  156 type  2   force =     0.01051898    0.00000000    0.00812338
     atom  157 type  2   force =     0.01443420   -0.01443420   -0.02651675
     atom  158 type  2   force =     0.07404940   -0.07404940   -0.00000000
     atom  159 type  2   force =     0.01443420   -0.01443420    0.02651675
     atom  160 type  2   force =     0.01443420    0.01443420   -0.02651675
     atom  161 type  2   force =     0.07404940    0.07404940    0.00000000
     atom  162 type  2   force =     0.01443420    0.01443420    0.02651675
     atom  163 type  2   force =    -0.00809786   -0.00809786   -0.00809786
     atom  164 type  2   force =    -0.01689734   -0.01689734    0.00000000
     atom  165 type  2   force =    -0.00809786   -0.00809786    0.00809786
     atom  166 type  2   force =    -0.01689734    0.00000000   -0.01689734
     atom  167 type  2   force =     0.00279136    0.00000000   -0.00000000
     atom  168 type  2   force =    -0.01689734   -0.00000000    0.01689734
     atom  169 type  2   force =    -0.00809786    0.00809786   -0.00809786
     atom  170 type  2   force =    -0.01689734    0.01689734   -0.00000000
     atom  171 type  2   force =    -0.00809786    0.00809786    0.00809786
     atom  172 type  2   force =     0.00000000   -0.01689734   -0.01689734
     atom  173 type  2   force =    -0.00000000    0.00279136    0.00000000
     atom  174 type  2   force =     0.00000000   -0.01689734    0.01689734
     atom  175 type  2   force =    -0.00000000    0.00000000    0.00279136
     atom  176 type  2   force =     0.00000000   -0.00000000   -0.00279136
     atom  177 type  2   force =     0.00000000    0.01689734   -0.01689734
     atom  178 type  2   force =    -0.00000000   -0.00279136    0.00000000
     atom  179 type  2   force =     0.00000000    0.01689734    0.01689734
     atom  180 type  2   force =     0.00809786   -0.00809786   -0.00809786
     atom  181 type  2   force =     0.01689734   -0.01689734    0.00000000
     atom  182 type  2   force =     0.00809786   -0.00809786    0.00809786
     atom  183 type  2   force =     0.01689734    0.00000000   -0.01689734
     atom  184 type  2   force =    -0.00279136    0.00000000   -0.00000000
     atom  185 type  2   force =     0.01689734    0.00000000    0.01689734
     atom  186 type  2   force =     0.00809786    0.00809786   -0.00809786
     atom  187 type  2   force =     0.01689734    0.01689734   -0.00000000
     atom  188 type  2   force =     0.00809786    0.00809786    0.00809786
     atom  189 type  2   force =    -0.00764748    0.00000000   -0.00000000
     atom  190 type  2   force =    -0.00812338   -0.00000000   -0.01051898
     atom  191 type  2   force =    -0.00812338    0.00000000    0.01051898
     atom  192 type  2   force =    -0.00812338   -0.01051898    0.00000000
     atom  193 type  2   force =    -0.02651675   -0.01443420   -0.01443420
     atom  194 type  2   force =    -0.02651675   -0.01443420    0.01443420
     atom  195 type  2   force =    -0.00812338    0.01051898   -0.00000000
     atom  196 type  2   force =    -0.02651675    0.01443420   -0.01443420
     atom  197 type  2   force =    -0.02651675    0.01443420    0.01443420
     atom  198 type  2   force =     0.00000000    0.00000000    0.00000000
     atom  199 type  2   force =     0.00000000    0.00000000   -0.01029992
     atom  200 type  2   force =     0.00000000    0.00000000    0.01029992
     atom  201 type  2   force =    -0.00000000   -0.01029992   -0.00000000
     atom  202 type  2   force =     0.00000000   -0.07404940   -0.07404940
     atom  203 type  2   force =     0.00000000   -0.07404940    0.07404940
     atom  204 type  2   force =     0.00000000    0.01029992    0.00000000
     atom  205 type  2   force =     0.00000000    0.07404940   -0.07404940
     atom  206 type  2   force =     0.00000000    0.07404940    0.07404940
     atom  207 type  2   force =     0.00764748    0.00000000    0.00000000
     atom  208 type  2   force =     0.00812338    0.00000000   -0.01051898
     atom  209 type  2   force =     0.00812338   -0.00000000    0.01051898
     atom  210 type  2   force =     0.00812338   -0.01051898    0.00000000
     atom  211 type  2   force =     0.02651675   -0.01443420   -0.01443420
     atom  212 type  2   force =     0.02651675   -0.01443420    0.01443420
     atom  213 type  2   force =     0.00812338    0.01051898    0.00000000
     atom  214 type  2   force =     0.02651675    0.01443420   -0.01443420
     atom  215 type  2   force =     0.02651675    0.01443420    0.01443420
     The ionic contribution  to forces
     atom    1 type  1   force =     0.00000578    0.00000972    0.00000502
     atom    2 type  1   force =     0.00000573    0.00000850    0.15417428
     atom    3 type  1   force =     0.00000509    0.00000913   -0.15418727
     atom    4 type  1   force =     0.00000289    0.15416677    0.00000181
     atom    5 type  1   force =     0.00001334    0.22557615    0.22558281
     atom    6 type  1   force =     0.00007998    0.22558135   -0.22559601
     atom    7 type  1   force =     0.00000370   -0.15418898    0.00000255
     atom    8 type  1   force =     0.00001255   -0.22559877    0.22558835
     atom    9 type  1   force =     0.00001367   -0.22560141   -0.22559904
     atom   10 type  1   force =     0.15417676    0.00000523    0.00000490
     atom   11 type  1   force =     0.22559197    0.00001509    0.22558897
     atom   12 type  1   force =     0.22559605    0.00001121   -0.22560478
     atom   13 type  1   force =     0.22558995    0.22558061    0.00007849
     atom   14 type  1   force =     1.55171444    1.55176785    1.55177584
     atom   15 type  1   force =     1.55177686    1.55177312   -1.55170966
     atom   16 type  1   force =     0.22559380   -0.22560019    0.00007502
     atom   17 type  1   force =     1.55172088   -1.55178011    1.55178504
     atom   18 type  1   force =     1.55172220   -1.55177874   -1.55171203
     atom   19 type  1   force =    -0.15419184    0.00000867    0.00000355
     atom   20 type  1   force =    -0.22561023    0.00001628    0.22559312
     atom   21 type  1   force =    -0.22561004    0.00001242   -0.22560464
     atom   22 type  1   force =    -0.22560431    0.22558464    0.00001285
     atom   23 type  1   force =    -1.55171426    1.55176990    1.55177347
     atom   24 type  1   force =    -1.55171584    1.55177417   -1.55177509
     atom   25 type  1   force =    -0.22560752   -0.22560453    0.00007503
     atom   26 type  1   force =    -1.55171840   -1.55178315    1.55178327
     atom   27 type  1   force =    -1.55172297   -1.55178095   -1.55171405
     atom   28 type  1   force =     0.00001629    0.18335751    0.18335085
     atom   29 type  1   force =     0.00000703    0.22502775    0.00002049
     atom   30 type  1   force =     0.00001719    0.18335395   -0.18334899
     atom   31 type  1   force =     0.00000285    0.00000738    0.22502308
     atom   32 type  1   force =     0.00001545   -0.00000332    0.00001362
     atom   33 type  1   force =     0.00000592   -0.00000612   -0.22502733
     atom   34 type  1   force =     0.00000667   -0.18333040    0.18334289
     atom   35 type  1   force =     0.00000448   -0.22501369    0.00000710
     atom   36 type  1   force =     0.00000553   -0.18333209   -0.18334641
     atom   37 type  1   force =     0.25607329    0.40858494    0.40859046
     atom   38 type  1   force =     0.63999399    1.32512779    0.00001348
     atom   39 type  1   force =     0.25608023    0.40858355   -0.40860220
     atom   40 type  1   force =     0.63999580    0.00001008    1.32513196
     atom   41 type  1   force =     8.57618091    0.00002007    0.00000064
     atom   42 type  1   force =     0.63999609    0.00001697   -1.32519264
     atom   43 type  1   force =     0.25606892   -0.40856649    0.40859065
     atom   44 type  1   force =     0.63999948   -1.32512834    0.00002046
     atom   45 type  1   force =     0.25607615   -0.40857262   -0.40861041
     atom   46 type  1   force =    -0.25610305    0.40858998    0.40858772
     atom   47 type  1   force =    -0.64002305    1.32513222    0.00001527
     atom   48 type  1   force =    -0.25610406    0.40859004   -0.40858204
     atom   49 type  1   force =    -0.64002209    0.00000706    1.32513871
     atom   50 type  1   force =    -8.57617647    0.00001708    0.00001131
     atom   51 type  1   force =    -0.64002406    0.00001034   -1.32517112
     atom   52 type  1   force =    -0.25610483   -0.40856874    0.40859087
     atom   53 type  1   force =    -0.64002741   -1.32513010    0.00002024
     atom   54 type  1   force =    -0.25610812   -0.40857315   -0.40861100
     atom   55 type  1   force =     0.18337389    0.00000133    0.18336288
     atom   56 type  1   force =     0.22505663    0.00000726    0.00001545
     atom   57 type  1   force =     0.18336388   -0.00000054   -0.18335615
     atom   58 type  1   force =     0.40861453    0.25605372    0.40857976
     atom   59 type  1   force =     1.32516987    0.63998480    0.00002076
     atom   60 type  1   force =     0.40859128    0.25606241   -0.40859936
     atom   61 type  1   force =     0.40862125   -0.25610644    0.40858168
     atom   62 type  1   force =     1.32519059   -0.64002118    0.00002070
     atom   63 type  1   force =     0.40862417   -0.25611034   -0.40860222
     atom   64 type  1   force =     0.00001283    0.00000783    0.22504817
     atom   65 type  1   force =     0.00000410    0.00001434    0.00000713
     atom   66 type  1   force =     0.00000429    0.00000475   -0.22504603
     atom   67 type  1   force =     0.00001732    0.63998605    1.32513236
     atom   68 type  1   force =     0.00000570    8.57616878    0.00000808
     atom   69 type  1   force =     0.00001839    0.63998985   -1.32516188
     atom   70 type  1   force =     0.00001389   -0.64002290    1.32512830
     atom   71 type  1   force =    -0.00000473   -8.57618345    0.00000629
     atom   72 type  1   force =     0.00001350   -0.64002124   -1.32519450
     atom   73 type  1   force =    -0.18336097    0.00000136    0.18335275
     atom   74 type  1   force =    -0.22505068    0.00000719    0.00000661
     atom   75 type  1   force =    -0.18336139   -0.00000049   -0.18335560
     atom   76 type  1   force =    -0.40861041    0.25606118    0.40857772
     atom   77 type  1   force =    -1.32519649    0.63998732    0.00001837
     atom   78 type  1   force =    -0.40860779    0.25606770   -0.40857445
     atom   79 type  1   force =    -0.40861125   -0.25611104    0.40858239
     atom   80 type  1   force =    -1.32520451   -0.64002350    0.00001993
     atom   81 type  1   force =    -0.40861348   -0.25611257   -0.40860117
     atom   82 type  1   force =     0.18336289    0.18336268    0.00001750
     atom   83 type  1   force =     0.40861860    0.40857885    0.25607095
     atom   84 type  1   force =     0.40859833    0.40858651   -0.25609799
     atom   85 type  1   force =     0.22504363    0.00000832    0.00000504
     atom   86 type  1   force =     1.32518553    0.00000988    0.63999428
     atom   87 type  1   force =     1.32517937    0.00000996   -0.64001478
     atom   88 type  1   force =     0.18336359   -0.18333652    0.00001568
     atom   89 type  1   force =     0.40862419   -0.40856007    0.25607689
     atom   90 type  1   force =     0.40863022   -0.40856874   -0.25609879
     atom   91 type  1   force =     0.00001936    0.22504007    0.00000591
     atom   92 type  1   force =     0.00001396    1.32512544    0.63999186
     atom   93 type  1   force =     0.00001189    1.32512973   -0.64001976
     atom   94 type  1   force =     0.00001101   -0.00000314    0.00001699
     atom   95 type  1   force =    -0.00000306    0.00001388    8.57618170
     atom   96 type  1   force =     0.00000312    0.00001449   -8.57617111
     atom   97 type  1   force =     0.00000336   -0.22502626    0.00000512
     atom   98 type  1   force =     0.00001262   -1.32511988    0.63999951
     atom   99 type  1   force =     0.00001246   -1.32514230   -0.64001969
     atom  100 type  1   force =    -0.18335991    0.18335934    0.00001416
     atom  101 type  1   force =    -0.40861079    0.40858109    0.25607590
     atom  102 type  1   force =    -0.40860896    0.40858360   -0.25610063
     atom  103 type  1   force =    -0.22504487   -0.00000649    0.00000384
     atom  104 type  1   force =    -1.32520105    0.00001009    0.63999279
     atom  105 type  1   force =    -1.32520372    0.00001351   -0.64001848
     atom  106 type  1   force =    -0.18335708   -0.18333707    0.00001438
     atom  107 type  1   force =    -0.40861256   -0.40856278    0.25608256
     atom  108 type  1   force =    -0.40861913   -0.40856942   -0.25610077
     atom  109 type  2   force =     0.00000521    0.06238745    0.00000470
     atom  110 type  2   force =     0.00000452    0.11520528    0.07673981
     atom  111 type  2   force =     0.00000937    0.11521441   -0.07676213
     atom  112 type  2   force =     0.00000024   -0.00000225   -0.00000059
     atom  113 type  2   force =     0.00000339   -0.00000012    0.17476256
     atom  114 type  2   force =     0.00000932   -0.00000910   -0.17476902
     atom  115 type  2   force =     0.00000293   -0.06237858    0.00000321
     atom  116 type  2   force =     0.00000377   -0.11519799    0.07675698
     atom  117 type  2   force =     0.00000359   -0.11519958   -0.07676452
     atom  118 type  2   force =     0.07674298    0.11521585    0.00000904
     atom  119 type  2   force =     0.25141996    0.51226880    0.25142203
     atom  120 type  2   force =     0.25142395    0.51227081   -0.25143903
     atom  121 type  2   force =     0.17476703    0.00000107    0.00001203
     atom  122 type  2   force =     1.73435872    0.00000342    1.73436566
     atom  123 type  2   force =     1.73435341    0.00001290   -1.73435001
     atom  124 type  2   force =     0.07675737   -0.11520955    0.00000740
     atom  125 type  2   force =     0.25142095   -0.51227742    0.25142353
     atom  126 type  2   force =     0.25142293   -0.51229037   -0.25143825
     atom  127 type  2   force =    -0.07676578    0.11522539    0.00000373
     atom  128 type  2   force =    -0.25144180    0.51227121    0.25142179
     atom  129 type  2   force =    -0.25144098    0.51227274   -0.25144229
     atom  130 type  2   force =    -0.17477456   -0.00000957    0.00000751
     atom  131 type  2   force =    -1.73435371    0.00000286    1.73435616
     atom  132 type  2   force =    -1.73435508    0.00001242   -1.73435610
     atom  133 type  2   force =    -0.07676764   -0.11520988    0.00000711
     atom  134 type  2   force =    -0.25144307   -0.51227944    0.25142452
     atom  135 type  2   force =    -0.25144441   -0.51229180   -0.25143854
     atom  136 type  2   force =     0.00000549    0.00000711    0.06238566
     atom  137 type  2   force =     0.00000165    0.00000379    0.00000344
     atom  138 type  2   force =     0.00000364    0.00000561   -0.06238535
     atom  139 type  2   force =     0.00000343    0.07673433    0.11520422
     atom  140 type  2   force =     0.00000899    0.17475849    0.00001398
     atom  141 type  2   force =     0.00000844    0.07675107   -0.11521292
     atom  142 type  2   force =     0.00000313   -0.07676481    0.11520498
     atom  143 type  2   force =     0.00000370   -0.17477022    0.00000496
     atom  144 type  2   force =     0.00000347   -0.07676669   -0.11520597
     atom  145 type  2   force =     0.07674250    0.00000357    0.11522693
     atom  146 type  2   force =     0.17476814    0.00000449    0.00000423
     atom  147 type  2   force =     0.07675870    0.00000180   -0.11522597
     atom  148 type  2   force =     0.25141918    0.25141637    0.51227461
     atom  149 type  2   force =     1.73435020    1.73435080   -0.00000126
     atom  150 type  2   force =     0.25142284    0.25141897   -0.51237489
     atom  151 type  2   force =     0.25141966   -0.25144054    0.51227588
     atom  152 type  2   force =     1.73436181   -1.73436891    0.00000812
     atom  153 type  2   force =     0.25142101   -0.25144092   -0.51238731
     atom  154 type  2   force =    -0.07676734    0.00000537    0.11522567
     atom  155 type  2   force =    -0.17477732    0.00000515    0.00000363
     atom  156 type  2   force =    -0.07676818    0.00000402   -0.11522556
     atom  157 type  2   force =    -0.25143969    0.25141765    0.51227229
     atom  158 type  2   force =    -1.73435173    1.73435198    0.00000456
     atom  159 type  2   force =    -0.25144066    0.25142020   -0.51228641
     atom  160 type  2   force =    -0.25144094   -0.25144353    0.51227758
     atom  161 type  2   force =    -1.73435516   -1.73437255    0.00000880
     atom  162 type  2   force =    -0.25144284   -0.25144262   -0.51238772
     atom  163 type  2   force =     0.11464739    0.11465025    0.11463899
     atom  164 type  2   force =     0.24214110    0.24212677    0.00001405
     atom  165 type  2   force =     0.11464410    0.11465236   -0.11464466
     atom  166 type  2   force =     0.24214144    0.00000866    0.24212728
     atom  167 type  2   force =     0.75412273    0.00000876    0.00001538
     atom  168 type  2   force =     0.24213943    0.00000857   -0.24212795
     atom  169 type  2   force =     0.11466347   -0.11462122    0.11464007
     atom  170 type  2   force =     0.24214457   -0.24211298    0.00001378
     atom  171 type  2   force =     0.11466294   -0.11462459   -0.11464716
     atom  172 type  2   force =     0.00001283    0.24212900    0.24213224
     atom  173 type  2   force =     0.00001090    0.75409735    0.00001179
     atom  174 type  2   force =     0.00001273    0.24212838   -0.24212559
     atom  175 type  2   force =     0.00001251    0.00000770    0.75410380
     atom  176 type  2   force =     0.00001211    0.00001068   -0.75411981
     atom  177 type  2   force =     0.00001052   -0.24211412    0.24213100
     atom  178 type  2   force =     0.00000975   -0.75410444    0.00001500
     atom  179 type  2   force =     0.00001009   -0.24211767   -0.24213171
     atom  180 type  2   force =    -0.11464936    0.11465259    0.11463847
     atom  181 type  2   force =    -0.24213351    0.24212643    0.00001311
     atom  182 type  2   force =    -0.11464983    0.11465181   -0.11464201
     atom  183 type  2   force =    -0.24213407    0.00000711    0.24212715
     atom  184 type  2   force =    -0.75413126    0.00000990    0.00001400
     atom  185 type  2   force =    -0.24213299    0.00000684   -0.24212281
     atom  186 type  2   force =    -0.11465129   -0.11462341    0.11463858
     atom  187 type  2   force =    -0.24213438   -0.24211385    0.00001342
     atom  188 type  2   force =    -0.11465157   -0.11462384   -0.11464625
     atom  189 type  2   force =     0.06239124    0.00000518    0.00000548
     atom  190 type  2   force =     0.11523237    0.00000489    0.07674125
     atom  191 type  2   force =     0.11523163    0.00000432   -0.07676429
     atom  192 type  2   force =     0.11521941    0.07673552    0.00000776
     atom  193 type  2   force =     0.51237018    0.25141366    0.25141887
     atom  194 type  2   force =     0.51228309    0.25141770   -0.25143552
     atom  195 type  2   force =     0.11522240   -0.07676410    0.00000710
     atom  196 type  2   force =     0.51237337   -0.25143923    0.25142084
     atom  197 type  2   force =     0.51238424   -0.25144075   -0.25143488
     atom  198 type  2   force =     0.00000229    0.00000315    0.00000077
     atom  199 type  2   force =     0.00000246    0.00000570    0.17476616
     atom  200 type  2   force =     0.00000188    0.00000315   -0.17477389
     atom  201 type  2   force =     0.00001329    0.17476110    0.00000848
     atom  202 type  2   force =     0.00000274    1.73435004    1.73435200
     atom  203 type  2   force =    -0.00000200    1.73435256   -1.73435271
     atom  204 type  2   force =     0.00000251   -0.17477213    0.00001111
     atom  205 type  2   force =     0.00000155   -1.73436945    1.73436891
     atom  206 type  2   force =     0.00000200   -1.73435926   -1.73435229
     atom  207 type  2   force =    -0.06238892    0.00000471    0.00000335
     atom  208 type  2   force =    -0.11522862    0.00000511    0.07675711
     atom  209 type  2   force =    -0.11522913    0.00000408   -0.07676490
     atom  210 type  2   force =    -0.11522730    0.07675172    0.00000300
     atom  211 type  2   force =    -0.51238354    0.25141687    0.25141934
     atom  212 type  2   force =    -0.51238077    0.25141786   -0.25143957
     atom  213 type  2   force =    -0.11521983   -0.07676647    0.00000712
     atom  214 type  2   force =    -0.51238598   -0.25144246    0.25142287
     atom  215 type  2   force =    -0.51239642   -0.25144203   -0.25143761
     The local contribution  to forces
     atom    1 type  1   force =    -0.00000580   -0.00001006   -0.00000510
     atom    2 type  1   force =    -0.00000583   -0.00000868   -0.15059008
     atom    3 type  1   force =    -0.00000501   -0.00000967    0.15060320
     atom    4 type  1   force =    -0.00000265   -0.15058261   -0.00000159
     atom    5 type  1   force =    -0.00001402   -0.22414982   -0.22415673
     atom    6 type  1   force =    -0.00008649   -0.22415493    0.22416998
     atom    7 type  1   force =    -0.00000363    0.15060532   -0.00000268
     atom    8 type  1   force =    -0.00001317    0.22417283   -0.22416254
     atom    9 type  1   force =    -0.00001432    0.22417575    0.22417349
     atom   10 type  1   force =    -0.15059280   -0.00000500   -0.00000495
     atom   11 type  1   force =    -0.22416786   -0.00001552   -0.22416337
     atom   12 type  1   force =    -0.22417223   -0.00001105    0.22417972
     atom   13 type  1   force =    -0.22416490   -0.22415558   -0.00008529
     atom   14 type  1   force =    -1.53654805   -1.53660622   -1.53661361
     atom   15 type  1   force =    -1.53661518   -1.53661106    1.53654189
     atom   16 type  1   force =    -0.22416908    0.22417497   -0.00008125
     atom   17 type  1   force =    -1.53655546    1.53661768   -1.53662384
     atom   18 type  1   force =    -1.53655627    1.53661526    1.53654472
     atom   19 type  1   force =     0.15060802   -0.00000928   -0.00000360
     atom   20 type  1   force =     0.22418651   -0.00001706   -0.22416780
     atom   21 type  1   force =     0.22418642   -0.00001260    0.22417951
     atom   22 type  1   force =     0.22417910   -0.22415940   -0.00001406
     atom   23 type  1   force =     1.53654703   -1.53660753   -1.53661104
     atom   24 type  1   force =     1.53654833   -1.53661149    1.53661237
     atom   25 type  1   force =     0.22418295    0.22418032   -0.00008118
     atom   26 type  1   force =     1.53655219    1.53662095   -1.53662206
     atom   27 type  1   force =     1.53655658    1.53661783    1.53654672
     atom   28 type  1   force =    -0.00001729   -0.18000451   -0.17999757
     atom   29 type  1   force =    -0.00000694   -0.22361511   -0.00002164
     atom   30 type  1   force =    -0.00001798   -0.18000047    0.17999584
     atom   31 type  1   force =    -0.00000256   -0.00000757   -0.22361015
     atom   32 type  1   force =    -0.00001598    0.00000364   -0.00001389
     atom   33 type  1   force =    -0.00000576    0.00000695    0.22361491
     atom   34 type  1   force =    -0.00000655    0.17997612   -0.17998906
     atom   35 type  1   force =    -0.00000425    0.22360092   -0.00000713
     atom   36 type  1   force =    -0.00000525    0.17997772    0.17999315
     atom   37 type  1   force =    -0.25226098   -0.40400814   -0.40401564
     atom   38 type  1   force =    -0.64552439   -1.31946581   -0.00001403
     atom   39 type  1   force =    -0.25226819   -0.40400630    0.40402776
     atom   40 type  1   force =    -0.64552660   -0.00001069   -1.31947133
     atom   41 type  1   force =    -8.54233520   -0.00002138    0.00000103
     atom   42 type  1   force =    -0.64552632   -0.00001801    1.31953454
     atom   43 type  1   force =    -0.25225657    0.40398927   -0.40401603
     atom   44 type  1   force =    -0.64553035    1.31946692   -0.00002146
     atom   45 type  1   force =    -0.25226403    0.40399523    0.40403642
     atom   46 type  1   force =     0.25229131   -0.40401360   -0.40401233
     atom   47 type  1   force =     0.64555418   -1.31947061   -0.00001583
     atom   48 type  1   force =     0.25229221   -0.40401342    0.40400626
     atom   49 type  1   force =     0.64555339   -0.00000751   -1.31947798
     atom   50 type  1   force =     8.54233001   -0.00001871   -0.00001061
     atom   51 type  1   force =     0.64555495   -0.00001104    1.31951147
     atom   52 type  1   force =     0.25229339    0.40399126   -0.40401611
     atom   53 type  1   force =     0.64555910    1.31946852   -0.00002127
     atom   54 type  1   force =     0.25229677    0.40399565    0.40403704
     atom   55 type  1   force =    -0.18002256   -0.00000092   -0.18001061
     atom   56 type  1   force =    -0.22364665   -0.00000721   -0.00001606
     atom   57 type  1   force =    -0.18001165    0.00000113    0.18000340
     atom   58 type  1   force =    -0.40404038   -0.25223984   -0.40400282
     atom   59 type  1   force =    -1.31951178   -0.64551454   -0.00002184
     atom   60 type  1   force =    -0.40401523   -0.25224885    0.40402333
     atom   61 type  1   force =    -0.40404779    0.25229455   -0.40400491
     atom   62 type  1   force =    -1.31953369    0.64555170   -0.00002177
     atom   63 type  1   force =    -0.40405053    0.25229866    0.40402638
     atom   64 type  1   force =    -0.00001350   -0.00000770   -0.22363858
     atom   65 type  1   force =    -0.00000403   -0.00001452   -0.00000714
     atom   66 type  1   force =    -0.00000425   -0.00000432    0.22363655
     atom   67 type  1   force =    -0.00001835   -0.64551564   -1.31947131
     atom   68 type  1   force =    -0.00000566   -8.54232209   -0.00000773
     atom   69 type  1   force =    -0.00001968   -0.64551917    1.31950210
     atom   70 type  1   force =    -0.00001436    0.64555342   -1.31946739
     atom   71 type  1   force =     0.00000530    8.54233654   -0.00000548
     atom   72 type  1   force =    -0.00001421    0.64555113    1.31953662
     atom   73 type  1   force =     0.18000913   -0.00000076   -0.17999954
     atom   74 type  1   force =     0.22364082   -0.00000694   -0.00000653
     atom   75 type  1   force =     0.18000944    0.00000121    0.18000284
     atom   76 type  1   force =     0.40403634   -0.25224769   -0.40400025
     atom   77 type  1   force =     1.31953993   -0.64551685   -0.00001913
     atom   78 type  1   force =     0.40403303   -0.25225429    0.40399675
     atom   79 type  1   force =     0.40403701    0.25229958   -0.40400569
     atom   80 type  1   force =     1.31954864    0.64555413   -0.00002099
     atom   81 type  1   force =     0.40403922    0.25230104    0.40402533
     atom   82 type  1   force =    -0.18001006   -0.18001011   -0.00001845
     atom   83 type  1   force =    -0.40404484   -0.40400155   -0.25225771
     atom   84 type  1   force =    -0.40402290   -0.40400980    0.25228527
     atom   85 type  1   force =    -0.22363232   -0.00000860   -0.00000492
     atom   86 type  1   force =    -1.31952856   -0.00001053   -0.64552429
     atom   87 type  1   force =    -1.31952138   -0.00001064    0.64554532
     atom   88 type  1   force =    -0.18001098    0.17998292   -0.00001648
     atom   89 type  1   force =    -0.40405120    0.40398235   -0.25226430
     atom   90 type  1   force =    -0.40405725    0.40399147    0.25228649
     atom   91 type  1   force =    -0.00002083   -0.22362869   -0.00000611
     atom   92 type  1   force =    -0.00001495   -1.31946304   -0.64552076
     atom   93 type  1   force =    -0.00001291   -1.31946739    0.64554969
     atom   94 type  1   force =    -0.00001148    0.00000333   -0.00001798
     atom   95 type  1   force =     0.00000413   -0.00001548   -8.54233574
     atom   96 type  1   force =    -0.00000302   -0.00001565    8.54232363
     atom   97 type  1   force =    -0.00000300    0.22361488   -0.00000494
     atom   98 type  1   force =    -0.00001300    1.31945784   -0.64552895
     atom   99 type  1   force =    -0.00001300    1.31948121    0.64554982
     atom  100 type  1   force =     0.18000762   -0.18000649   -0.00001496
     atom  101 type  1   force =     0.40403696   -0.40400411   -0.25226314
     atom  102 type  1   force =     0.40403443   -0.40400674    0.25228809
     atom  103 type  1   force =     0.22363436    0.00000724   -0.00000381
     atom  104 type  1   force =     1.31954502   -0.00001077   -0.64552253
     atom  105 type  1   force =     1.31954708   -0.00001453    0.64554902
     atom  106 type  1   force =     0.18000432    0.17998331   -0.00001501
     atom  107 type  1   force =     0.40403857    0.40398500   -0.25227024
     atom  108 type  1   force =     0.40404526    0.40399198    0.25228838
     atom  109 type  2   force =    -0.00000563   -0.05664205   -0.00000505
     atom  110 type  2   force =    -0.00000481   -0.10904125   -0.06851292
     atom  111 type  2   force =    -0.00001076   -0.10905189    0.06853520
     atom  112 type  2   force =     0.00000031    0.00000262    0.00000113
     atom  113 type  2   force =    -0.00000354   -0.00000003   -0.16619071
     atom  114 type  2   force =    -0.00001068    0.00001043    0.16619610
     atom  115 type  2   force =    -0.00000286    0.05663221   -0.00000336
     atom  116 type  2   force =    -0.00000378    0.10903329   -0.06853156
     atom  117 type  2   force =    -0.00000356    0.10903511    0.06853803
     atom  118 type  2   force =    -0.06851662   -0.10905377   -0.00001046
     atom  119 type  2   force =    -0.23997311   -0.49040706   -0.23997523
     atom  120 type  2   force =    -0.23997803   -0.49040941    0.23999099
     atom  121 type  2   force =    -0.16619631   -0.00000143   -0.00001458
     atom  122 type  2   force =    -1.67110637   -0.00000423   -1.67111459
     atom  123 type  2   force =    -1.67110049   -0.00001512    1.67109468
     atom  124 type  2   force =    -0.06853205    0.10904713   -0.00000859
     atom  125 type  2   force =    -0.23997426    0.49041623   -0.23997688
     atom  126 type  2   force =    -0.23997639    0.49043105    0.23999028
     atom  127 type  2   force =     0.06853940   -0.10906508   -0.00000406
     atom  128 type  2   force =     0.23999479   -0.49040993   -0.23997489
     atom  129 type  2   force =     0.23999370   -0.49041171    0.23999509
     atom  130 type  2   force =     0.16620277    0.00001104   -0.00000899
     atom  131 type  2   force =     1.67109947   -0.00000368   -1.67110441
     atom  132 type  2   force =     1.67109995   -0.00001471    1.67110172
     atom  133 type  2   force =     0.06854164    0.10904739   -0.00000818
     atom  134 type  2   force =     0.23999640    0.49041827   -0.23997801
     atom  135 type  2   force =     0.23999787    0.49043262    0.23999049
     atom  136 type  2   force =    -0.00000584   -0.00000757   -0.05663997
     atom  137 type  2   force =    -0.00000129   -0.00000376   -0.00000399
     atom  138 type  2   force =    -0.00000364   -0.00000582    0.05663993
     atom  139 type  2   force =    -0.00000354   -0.06850685   -0.10904004
     atom  140 type  2   force =    -0.00001037   -0.16618623   -0.00001639
     atom  141 type  2   force =    -0.00000975   -0.06852478    0.10905027
     atom  142 type  2   force =    -0.00000316    0.06853859   -0.10904094
     atom  143 type  2   force =    -0.00000395    0.16619739   -0.00000584
     atom  144 type  2   force =    -0.00000341    0.06854067    0.10904234
     atom  145 type  2   force =    -0.06851638   -0.00000342   -0.10906747
     atom  146 type  2   force =    -0.16619767   -0.00000466   -0.00000500
     atom  147 type  2   force =    -0.06853372   -0.00000140    0.10906626
     atom  148 type  2   force =    -0.23997193   -0.23996921   -0.49041436
     atom  149 type  2   force =    -1.67109752   -1.67109894    0.00000219
     atom  150 type  2   force =    -0.23997659   -0.23997199    0.49051951
     atom  151 type  2   force =    -0.23997247    0.23999308   -0.49041582
     atom  152 type  2   force =    -1.67110916    1.67111591   -0.00000862
     atom  153 type  2   force =    -0.23997392    0.23999353    0.49053367
     atom  154 type  2   force =     0.06854143   -0.00000571   -0.10906579
     atom  155 type  2   force =     0.16620593   -0.00000519   -0.00000418
     atom  156 type  2   force =     0.06854240   -0.00000399    0.10906575
     atom  157 type  2   force =     0.23999193   -0.23997025   -0.49041155
     atom  158 type  2   force =     1.67109664   -1.67109956   -0.00000497
     atom  159 type  2   force =     0.23999309   -0.23997303    0.49042661
     atom  160 type  2   force =     0.23999361    0.23999683   -0.49041778
     atom  161 type  2   force =     1.67110109    1.67111971   -0.00000952
     atom  162 type  2   force =     0.23999567    0.23999559    0.49053430
     atom  163 type  2   force =    -0.10865575   -0.10865797   -0.10864632
     atom  164 type  2   force =    -0.22927358   -0.22925704   -0.00001427
     atom  165 type  2   force =    -0.10865195   -0.10866022    0.10865355
     atom  166 type  2   force =    -0.22927384   -0.00000820   -0.22925784
     atom  167 type  2   force =    -0.76328975   -0.00000842   -0.00001546
     atom  168 type  2   force =    -0.22927137   -0.00000803    0.22926018
     atom  169 type  2   force =    -0.10867321    0.10862815   -0.10864755
     atom  170 type  2   force =    -0.22927745    0.22924364   -0.00001393
     atom  171 type  2   force =    -0.10867235    0.10863173    0.10865636
     atom  172 type  2   force =    -0.00001317   -0.22925967   -0.22926414
     atom  173 type  2   force =    -0.00001077   -0.76326070   -0.00001155
     atom  174 type  2   force =    -0.00001294   -0.22925870    0.22925841
     atom  175 type  2   force =    -0.00001243   -0.00000717   -0.76326866
     atom  176 type  2   force =    -0.00001204   -0.00001052    0.76328672
     atom  177 type  2   force =    -0.00001018    0.22924489   -0.22926270
     atom  178 type  2   force =    -0.00000932    0.76326971   -0.00001523
     atom  179 type  2   force =    -0.00000974    0.22924865    0.22926507
     atom  180 type  2   force =     0.10865919   -0.10866052   -0.10864548
     atom  181 type  2   force =     0.22926699   -0.22925668   -0.00001317
     atom  182 type  2   force =     0.10865955   -0.10865942    0.10865053
     atom  183 type  2   force =     0.22926759   -0.00000637   -0.22925760
     atom  184 type  2   force =     0.76330009   -0.00000966   -0.00001401
     atom  185 type  2   force =     0.22926605   -0.00000604    0.22925434
     atom  186 type  2   force =     0.10866130    0.10863040   -0.10864573
     atom  187 type  2   force =     0.22926783    0.22924434   -0.00001340
     atom  188 type  2   force =     0.10866140    0.10863073    0.10865532
     atom  189 type  2   force =    -0.05664652   -0.00000536   -0.00000588
     atom  190 type  2   force =    -0.10907347   -0.00000512   -0.06851462
     atom  191 type  2   force =    -0.10907249   -0.00000442    0.06853776
     atom  192 type  2   force =    -0.10905790   -0.06850824   -0.00000907
     atom  193 type  2   force =    -0.49051525   -0.23996596   -0.23997162
     atom  194 type  2   force =    -0.49042394   -0.23997023    0.23998711
     atom  195 type  2   force =    -0.10906150    0.06853769   -0.00000834
     atom  196 type  2   force =    -0.49051906    0.23999173   -0.23997401
     atom  197 type  2   force =    -0.49053157    0.23999324    0.23998654
     atom  198 type  2   force =    -0.00000275   -0.00000301   -0.00000032
     atom  199 type  2   force =    -0.00000295   -0.00000592   -0.16619470
     atom  200 type  2   force =    -0.00000228   -0.00000294    0.16620168
     atom  201 type  2   force =    -0.00001577   -0.16618943   -0.00001012
     atom  202 type  2   force =    -0.00000310   -1.67109811   -1.67109969
     atom  203 type  2   force =     0.00000261   -1.67109977    1.67109803
     atom  204 type  2   force =    -0.00000292    0.16619983   -0.00001350
     atom  205 type  2   force =    -0.00000160    1.67111696   -1.67111807
     atom  206 type  2   force =    -0.00000240    1.67110499    1.67109720
     atom  207 type  2   force =     0.05664426   -0.00000477   -0.00000351
     atom  208 type  2   force =     0.10906941   -0.00000517   -0.06853171
     atom  209 type  2   force =     0.10906982   -0.00000414    0.06853843
     atom  210 type  2   force =     0.10906762   -0.06852554   -0.00000312
     atom  211 type  2   force =     0.49052947   -0.23996956   -0.23997239
     atom  212 type  2   force =     0.49052651   -0.23997034    0.23999222
     atom  213 type  2   force =     0.10905878    0.06854050   -0.00000829
     atom  214 type  2   force =     0.49053238    0.23999550   -0.23997635
     atom  215 type  2   force =     0.49054432    0.23999489    0.23998957
     The core correction contribution to forces
     atom    1 type  1   force =     0.00000000    0.00000000    0.00000000
     atom    2 type  1   force =     0.00000000    0.00000000    0.00000000
     atom    3 type  1   force =     0.00000000    0.00000000    0.00000000
     atom    4 type  1   force =     0.00000000    0.00000000    0.00000000
     atom    5 type  1   force =     0.00000000    0.00000000    0.00000000
     atom    6 type  1   force =     0.00000000    0.00000000    0.00000000
     atom    7 type  1   force =     0.00000000    0.00000000    0.00000000
     atom    8 type  1   force =     0.00000000    0.00000000    0.00000000
     atom    9 type  1   force =     0.00000000    0.00000000    0.00000000
     atom   10 type  1   force =     0.00000000    0.00000000    0.00000000
     atom   11 type  1   force =     0.00000000    0.00000000    0.00000000
     atom   12 type  1   force =     0.00000000    0.00000000    0.00000000
     atom   13 type  1   force =     0.00000000    0.00000000    0.00000000
     atom   14 type  1   force =     0.00000000    0.00000000    0.00000000
     atom   15 type  1   force =     0.00000000    0.00000000    0.00000000
     atom   16 type  1   force =     0.00000000    0.00000000    0.00000000
     atom   17 type  1   force =     0.00000000    0.00000000    0.00000000
     atom   18 type  1   force =     0.00000000    0.00000000    0.00000000
     atom   19 type  1   force =     0.00000000    0.00000000    0.00000000
     atom   20 type  1   force =     0.00000000    0.00000000    0.00000000
     atom   21 type  1   force =     0.00000000    0.00000000    0.00000000
     atom   22 type  1   force =     0.00000000    0.00000000    0.00000000
     atom   23 type  1   force =     0.00000000    0.00000000    0.00000000
     atom   24 type  1   force =     0.00000000    0.00000000    0.00000000
     atom   25 type  1   force =     0.00000000    0.00000000    0.00000000
     atom   26 type  1   force =     0.00000000    0.00000000    0.00000000
     atom   27 type  1   force =     0.00000000    0.00000000    0.00000000
     atom   28 type  1   force =     0.00000000    0.00000000    0.00000000
     atom   29 type  1   force =     0.00000000    0.00000000    0.00000000
     atom   30 type  1   force =     0.00000000    0.00000000    0.00000000
     atom   31 type  1   force =     0.00000000    0.00000000    0.00000000
     atom   32 type  1   force =     0.00000000    0.00000000    0.00000000
     atom   33 type  1   force =     0.00000000    0.00000000    0.00000000
     atom   34 type  1   force =     0.00000000    0.00000000    0.00000000
     atom   35 type  1   force =     0.00000000    0.00000000    0.00000000
     atom   36 type  1   force =     0.00000000    0.00000000    0.00000000
     atom   37 type  1   force =     0.00000000    0.00000000    0.00000000
     atom   38 type  1   force =     0.00000000    0.00000000    0.00000000
     atom   39 type  1   force =     0.00000000    0.00000000    0.00000000
     atom   40 type  1   force =     0.00000000    0.00000000    0.00000000
     atom   41 type  1   force =     0.00000000    0.00000000    0.00000000
     atom   42 type  1   force =     0.00000000    0.00000000    0.00000000
     atom   43 type  1   force =     0.00000000    0.00000000    0.00000000
     atom   44 type  1   force =     0.00000000    0.00000000    0.00000000
     atom   45 type  1   force =     0.00000000    0.00000000    0.00000000
     atom   46 type  1   force =     0.00000000    0.00000000    0.00000000
     atom   47 type  1   force =     0.00000000    0.00000000    0.00000000
     atom   48 type  1   force =     0.00000000    0.00000000    0.00000000
     atom   49 type  1   force =     0.00000000    0.00000000    0.00000000
     atom   50 type  1   force =     0.00000000    0.00000000    0.00000000
     atom   51 type  1   force =     0.00000000    0.00000000    0.00000000
     atom   52 type  1   force =     0.00000000    0.00000000    0.00000000
     atom   53 type  1   force =     0.00000000    0.00000000    0.00000000
     atom   54 type  1   force =     0.00000000    0.00000000    0.00000000
     atom   55 type  1   force =     0.00000000    0.00000000    0.00000000
     atom   56 type  1   force =     0.00000000    0.00000000    0.00000000
     atom   57 type  1   force =     0.00000000    0.00000000    0.00000000
     atom   58 type  1   force =     0.00000000    0.00000000    0.00000000
     atom   59 type  1   force =     0.00000000    0.00000000    0.00000000
     atom   60 type  1   force =     0.00000000    0.00000000    0.00000000
     atom   61 type  1   force =     0.00000000    0.00000000    0.00000000
     atom   62 type  1   force =     0.00000000    0.00000000    0.00000000
     atom   63 type  1   force =     0.00000000    0.00000000    0.00000000
     atom   64 type  1   force =     0.00000000    0.00000000    0.00000000
     atom   65 type  1   force =     0.00000000    0.00000000    0.00000000
     atom   66 type  1   force =     0.00000000    0.00000000    0.00000000
     atom   67 type  1   force =     0.00000000    0.00000000    0.00000000
     atom   68 type  1   force =     0.00000000    0.00000000    0.00000000
     atom   69 type  1   force =     0.00000000    0.00000000    0.00000000
     atom   70 type  1   force =     0.00000000    0.00000000    0.00000000
     atom   71 type  1   force =     0.00000000    0.00000000    0.00000000
     atom   72 type  1   force =     0.00000000    0.00000000    0.00000000
     atom   73 type  1   force =     0.00000000    0.00000000    0.00000000
     atom   74 type  1   force =     0.00000000    0.00000000    0.00000000
     atom   75 type  1   force =     0.00000000    0.00000000    0.00000000
     atom   76 type  1   force =     0.00000000    0.00000000    0.00000000
     atom   77 type  1   force =     0.00000000    0.00000000    0.00000000
     atom   78 type  1   force =     0.00000000    0.00000000    0.00000000
     atom   79 type  1   force =     0.00000000    0.00000000    0.00000000
     atom   80 type  1   force =     0.00000000    0.00000000    0.00000000
     atom   81 type  1   force =     0.00000000    0.00000000    0.00000000
     atom   82 type  1   force =     0.00000000    0.00000000    0.00000000
     atom   83 type  1   force =     0.00000000    0.00000000    0.00000000
     atom   84 type  1   force =     0.00000000    0.00000000    0.00000000
     atom   85 type  1   force =     0.00000000    0.00000000    0.00000000
     atom   86 type  1   force =     0.00000000    0.00000000    0.00000000
     atom   87 type  1   force =     0.00000000    0.00000000    0.00000000
     atom   88 type  1   force =     0.00000000    0.00000000    0.00000000
     atom   89 type  1   force =     0.00000000    0.00000000    0.00000000
     atom   90 type  1   force =     0.00000000    0.00000000    0.00000000
     atom   91 type  1   force =     0.00000000    0.00000000    0.00000000
     atom   92 type  1   force =     0.00000000    0.00000000    0.00000000
     atom   93 type  1   force =     0.00000000    0.00000000    0.00000000
     atom   94 type  1   force =     0.00000000    0.00000000    0.00000000
     atom   95 type  1   force =     0.00000000    0.00000000    0.00000000
     atom   96 type  1   force =     0.00000000    0.00000000    0.00000000
     atom   97 type  1   force =     0.00000000    0.00000000    0.00000000
     atom   98 type  1   force =     0.00000000    0.00000000    0.00000000
     atom   99 type  1   force =     0.00000000    0.00000000    0.00000000
     atom  100 type  1   force =     0.00000000    0.00000000    0.00000000
     atom  101 type  1   force =     0.00000000    0.00000000    0.00000000
     atom  102 type  1   force =     0.00000000    0.00000000    0.00000000
     atom  103 type  1   force =     0.00000000    0.00000000    0.00000000
     atom  104 type  1   force =     0.00000000    0.00000000    0.00000000
     atom  105 type  1   force =     0.00000000    0.00000000    0.00000000
     atom  106 type  1   force =     0.00000000    0.00000000    0.00000000
     atom  107 type  1   force =     0.00000000    0.00000000    0.00000000
     atom  108 type  1   force =     0.00000000    0.00000000    0.00000000
     atom  109 type  2   force =     0.00000000    0.00000000    0.00000000
     atom  110 type  2   force =     0.00000000    0.00000000    0.00000000
     atom  111 type  2   force =     0.00000000    0.00000000    0.00000000
     atom  112 type  2   force =     0.00000000    0.00000000    0.00000000
     atom  113 type  2   force =     0.00000000    0.00000000    0.00000000
     atom  114 type  2   force =     0.00000000    0.00000000    0.00000000
     atom  115 type  2   force =     0.00000000    0.00000000    0.00000000
     atom  116 type  2   force =     0.00000000    0.00000000    0.00000000
     atom  117 type  2   force =     0.00000000    0.00000000    0.00000000
     atom  118 type  2   force =     0.00000000    0.00000000    0.00000000
     atom  119 type  2   force =     0.00000000    0.00000000    0.00000000
     atom  120 type  2   force =     0.00000000    0.00000000    0.00000000
     atom  121 type  2   force =     0.00000000    0.00000000    0.00000000
     atom  122 type  2   force =     0.00000000    0.00000000    0.00000000
     atom  123 type  2   force =     0.00000000    0.00000000    0.00000000
     atom  124 type  2   force =     0.00000000    0.00000000    0.00000000
     atom  125 type  2   force =     0.00000000    0.00000000    0.00000000
     atom  126 type  2   force =     0.00000000    0.00000000    0.00000000
     atom  127 type  2   force =     0.00000000    0.00000000    0.00000000
     atom  128 type  2   force =     0.00000000    0.00000000    0.00000000
     atom  129 type  2   force =     0.00000000    0.00000000    0.00000000
     atom  130 type  2   force =     0.00000000    0.00000000    0.00000000
     atom  131 type  2   force =     0.00000000    0.00000000    0.00000000
     atom  132 type  2   force =     0.00000000    0.00000000    0.00000000
     atom  133 type  2   force =     0.00000000    0.00000000    0.00000000
     atom  134 type  2   force =     0.00000000    0.00000000    0.00000000
     atom  135 type  2   force =     0.00000000    0.00000000    0.00000000
     atom  136 type  2   force =     0.00000000    0.00000000    0.00000000
     atom  137 type  2   force =     0.00000000    0.00000000    0.00000000
     atom  138 type  2   force =     0.00000000    0.00000000    0.00000000
     atom  139 type  2   force =     0.00000000    0.00000000    0.00000000
     atom  140 type  2   force =     0.00000000    0.00000000    0.00000000
     atom  141 type  2   force =     0.00000000    0.00000000    0.00000000
     atom  142 type  2   force =     0.00000000    0.00000000    0.00000000
     atom  143 type  2   force =     0.00000000    0.00000000    0.00000000
     atom  144 type  2   force =     0.00000000    0.00000000    0.00000000
     atom  145 type  2   force =     0.00000000    0.00000000    0.00000000
     atom  146 type  2   force =     0.00000000    0.00000000    0.00000000
     atom  147 type  2   force =     0.00000000    0.00000000    0.00000000
     atom  148 type  2   force =     0.00000000    0.00000000    0.00000000
     atom  149 type  2   force =     0.00000000    0.00000000    0.00000000
     atom  150 type  2   force =     0.00000000    0.00000000    0.00000000
     atom  151 type  2   force =     0.00000000    0.00000000    0.00000000
     atom  152 type  2   force =     0.00000000    0.00000000    0.00000000
     atom  153 type  2   force =     0.00000000    0.00000000    0.00000000
     atom  154 type  2   force =     0.00000000    0.00000000    0.00000000
     atom  155 type  2   force =     0.00000000    0.00000000    0.00000000
     atom  156 type  2   force =     0.00000000    0.00000000    0.00000000
     atom  157 type  2   force =     0.00000000    0.00000000    0.00000000
     atom  158 type  2   force =     0.00000000    0.00000000    0.00000000
     atom  159 type  2   force =     0.00000000    0.00000000    0.00000000
     atom  160 type  2   force =     0.00000000    0.00000000    0.00000000
     atom  161 type  2   force =     0.00000000    0.00000000    0.00000000
     atom  162 type  2   force =     0.00000000    0.00000000    0.00000000
     atom  163 type  2   force =     0.00000000    0.00000000    0.00000000
     atom  164 type  2   force =     0.00000000    0.00000000    0.00000000
     atom  165 type  2   force =     0.00000000    0.00000000    0.00000000
     atom  166 type  2   force =     0.00000000    0.00000000    0.00000000
     atom  167 type  2   force =     0.00000000    0.00000000    0.00000000
     atom  168 type  2   force =     0.00000000    0.00000000    0.00000000
     atom  169 type  2   force =     0.00000000    0.00000000    0.00000000
     atom  170 type  2   force =     0.00000000    0.00000000    0.00000000
     atom  171 type  2   force =     0.00000000    0.00000000    0.00000000
     atom  172 type  2   force =     0.00000000    0.00000000    0.00000000
     atom  173 type  2   force =     0.00000000    0.00000000    0.00000000
     atom  174 type  2   force =     0.00000000    0.00000000    0.00000000
     atom  175 type  2   force =     0.00000000    0.00000000    0.00000000
     atom  176 type  2   force =     0.00000000    0.00000000    0.00000000
     atom  177 type  2   force =     0.00000000    0.00000000    0.00000000
     atom  178 type  2   force =     0.00000000    0.00000000    0.00000000
     atom  179 type  2   force =     0.00000000    0.00000000    0.00000000
     atom  180 type  2   force =     0.00000000    0.00000000    0.00000000
     atom  181 type  2   force =     0.00000000    0.00000000    0.00000000
     atom  182 type  2   force =     0.00000000    0.00000000    0.00000000
     atom  183 type  2   force =     0.00000000    0.00000000    0.00000000
     atom  184 type  2   force =     0.00000000    0.00000000    0.00000000
     atom  185 type  2   force =     0.00000000    0.00000000    0.00000000
     atom  186 type  2   force =     0.00000000    0.00000000    0.00000000
     atom  187 type  2   force =     0.00000000    0.00000000    0.00000000
     atom  188 type  2   force =     0.00000000    0.00000000    0.00000000
     atom  189 type  2   force =     0.00000000    0.00000000    0.00000000
     atom  190 type  2   force =     0.00000000    0.00000000    0.00000000
     atom  191 type  2   force =     0.00000000    0.00000000    0.00000000
     atom  192 type  2   force =     0.00000000    0.00000000    0.00000000
     atom  193 type  2   force =     0.00000000    0.00000000    0.00000000
     atom  194 type  2   force =     0.00000000    0.00000000    0.00000000
     atom  195 type  2   force =     0.00000000    0.00000000    0.00000000
     atom  196 type  2   force =     0.00000000    0.00000000    0.00000000
     atom  197 type  2   force =     0.00000000    0.00000000    0.00000000
     atom  198 type  2   force =     0.00000000    0.00000000    0.00000000
     atom  199 type  2   force =     0.00000000    0.00000000    0.00000000
     atom  200 type  2   force =     0.00000000    0.00000000    0.00000000
     atom  201 type  2   force =     0.00000000    0.00000000    0.00000000
     atom  202 type  2   force =     0.00000000    0.00000000    0.00000000
     atom  203 type  2   force =     0.00000000    0.00000000    0.00000000
     atom  204 type  2   force =     0.00000000    0.00000000    0.00000000
     atom  205 type  2   force =     0.00000000    0.00000000    0.00000000
     atom  206 type  2   force =     0.00000000    0.00000000    0.00000000
     atom  207 type  2   force =     0.00000000    0.00000000    0.00000000
     atom  208 type  2   force =     0.00000000    0.00000000    0.00000000
     atom  209 type  2   force =     0.00000000    0.00000000    0.00000000
     atom  210 type  2   force =     0.00000000    0.00000000    0.00000000
     atom  211 type  2   force =     0.00000000    0.00000000    0.00000000
     atom  212 type  2   force =     0.00000000    0.00000000    0.00000000
     atom  213 type  2   force =     0.00000000    0.00000000    0.00000000
     atom  214 type  2   force =     0.00000000    0.00000000    0.00000000
     atom  215 type  2   force =     0.00000000    0.00000000    0.00000000
     The Hubbard contrib.    to forces
     atom    1 type  1   force =     0.00000000    0.00000000    0.00000000
     atom    2 type  1   force =     0.00000000    0.00000000    0.00000000
     atom    3 type  1   force =     0.00000000    0.00000000    0.00000000
     atom    4 type  1   force =     0.00000000    0.00000000    0.00000000
     atom    5 type  1   force =     0.00000000    0.00000000    0.00000000
     atom    6 type  1   force =     0.00000000    0.00000000    0.00000000
     atom    7 type  1   force =     0.00000000    0.00000000    0.00000000
     atom    8 type  1   force =     0.00000000    0.00000000    0.00000000
     atom    9 type  1   force =     0.00000000    0.00000000    0.00000000
     atom   10 type  1   force =     0.00000000    0.00000000    0.00000000
     atom   11 type  1   force =     0.00000000    0.00000000    0.00000000
     atom   12 type  1   force =     0.00000000    0.00000000    0.00000000
     atom   13 type  1   force =     0.00000000    0.00000000    0.00000000
     atom   14 type  1   force =     0.00000000    0.00000000    0.00000000
     atom   15 type  1   force =     0.00000000    0.00000000    0.00000000
     atom   16 type  1   force =     0.00000000    0.00000000    0.00000000
     atom   17 type  1   force =     0.00000000    0.00000000    0.00000000
     atom   18 type  1   force =     0.00000000    0.00000000    0.00000000
     atom   19 type  1   force =     0.00000000    0.00000000    0.00000000
     atom   20 type  1   force =     0.00000000    0.00000000    0.00000000
     atom   21 type  1   force =     0.00000000    0.00000000    0.00000000
     atom   22 type  1   force =     0.00000000    0.00000000    0.00000000
     atom   23 type  1   force =     0.00000000    0.00000000    0.00000000
     atom   24 type  1   force =     0.00000000    0.00000000    0.00000000
     atom   25 type  1   force =     0.00000000    0.00000000    0.00000000
     atom   26 type  1   force =     0.00000000    0.00000000    0.00000000
     atom   27 type  1   force =     0.00000000    0.00000000    0.00000000
     atom   28 type  1   force =     0.00000000    0.00000000    0.00000000
     atom   29 type  1   force =     0.00000000    0.00000000    0.00000000
     atom   30 type  1   force =     0.00000000    0.00000000    0.00000000
     atom   31 type  1   force =     0.00000000    0.00000000    0.00000000
     atom   32 type  1   force =     0.00000000    0.00000000    0.00000000
     atom   33 type  1   force =     0.00000000    0.00000000    0.00000000
     atom   34 type  1   force =     0.00000000    0.00000000    0.00000000
     atom   35 type  1   force =     0.00000000    0.00000000    0.00000000
     atom   36 type  1   force =     0.00000000    0.00000000    0.00000000
     atom   37 type  1   force =     0.00000000    0.00000000    0.00000000
     atom   38 type  1   force =     0.00000000    0.00000000    0.00000000
     atom   39 type  1   force =     0.00000000    0.00000000    0.00000000
     atom   40 type  1   force =     0.00000000    0.00000000    0.00000000
     atom   41 type  1   force =     0.00000000    0.00000000    0.00000000
     atom   42 type  1   force =     0.00000000    0.00000000    0.00000000
     atom   43 type  1   force =     0.00000000    0.00000000    0.00000000
     atom   44 type  1   force =     0.00000000    0.00000000    0.00000000
     atom   45 type  1   force =     0.00000000    0.00000000    0.00000000
     atom   46 type  1   force =     0.00000000    0.00000000    0.00000000
     atom   47 type  1   force =     0.00000000    0.00000000    0.00000000
     atom   48 type  1   force =     0.00000000    0.00000000    0.00000000
     atom   49 type  1   force =     0.00000000    0.00000000    0.00000000
     atom   50 type  1   force =     0.00000000    0.00000000    0.00000000
     atom   51 type  1   force =     0.00000000    0.00000000    0.00000000
     atom   52 type  1   force =     0.00000000    0.00000000    0.00000000
     atom   53 type  1   force =     0.00000000    0.00000000    0.00000000
     atom   54 type  1   force =     0.00000000    0.00000000    0.00000000
     atom   55 type  1   force =     0.00000000    0.00000000    0.00000000
     atom   56 type  1   force =     0.00000000    0.00000000    0.00000000
     atom   57 type  1   force =     0.00000000    0.00000000    0.00000000
     atom   58 type  1   force =     0.00000000    0.00000000    0.00000000
     atom   59 type  1   force =     0.00000000    0.00000000    0.00000000
     atom   60 type  1   force =     0.00000000    0.00000000    0.00000000
     atom   61 type  1   force =     0.00000000    0.00000000    0.00000000
     atom   62 type  1   force =     0.00000000    0.00000000    0.00000000
     atom   63 type  1   force =     0.00000000    0.00000000    0.00000000
     atom   64 type  1   force =     0.00000000    0.00000000    0.00000000
     atom   65 type  1   force =     0.00000000    0.00000000    0.00000000
     atom   66 type  1   force =     0.00000000    0.00000000    0.00000000
     atom   67 type  1   force =     0.00000000    0.00000000    0.00000000
     atom   68 type  1   force =     0.00000000    0.00000000    0.00000000
     atom   69 type  1   force =     0.00000000    0.00000000    0.00000000
     atom   70 type  1   force =     0.00000000    0.00000000    0.00000000
     atom   71 type  1   force =     0.00000000    0.00000000    0.00000000
     atom   72 type  1   force =     0.00000000    0.00000000    0.00000000
     atom   73 type  1   force =     0.00000000    0.00000000    0.00000000
     atom   74 type  1   force =     0.00000000    0.00000000    0.00000000
     atom   75 type  1   force =     0.00000000    0.00000000    0.00000000
     atom   76 type  1   force =     0.00000000    0.00000000    0.00000000
     atom   77 type  1   force =     0.00000000    0.00000000    0.00000000
     atom   78 type  1   force =     0.00000000    0.00000000    0.00000000
     atom   79 type  1   force =     0.00000000    0.00000000    0.00000000
     atom   80 type  1   force =     0.00000000    0.00000000    0.00000000
     atom   81 type  1   force =     0.00000000    0.00000000    0.00000000
     atom   82 type  1   force =     0.00000000    0.00000000    0.00000000
     atom   83 type  1   force =     0.00000000    0.00000000    0.00000000
     atom   84 type  1   force =     0.00000000    0.00000000    0.00000000
     atom   85 type  1   force =     0.00000000    0.00000000    0.00000000
     atom   86 type  1   force =     0.00000000    0.00000000    0.00000000
     atom   87 type  1   force =     0.00000000    0.00000000    0.00000000
     atom   88 type  1   force =     0.00000000    0.00000000    0.00000000
     atom   89 type  1   force =     0.00000000    0.00000000    0.00000000
     atom   90 type  1   force =     0.00000000    0.00000000    0.00000000
     atom   91 type  1   force =     0.00000000    0.00000000    0.00000000
     atom   92 type  1   force =     0.00000000    0.00000000    0.00000000
     atom   93 type  1   force =     0.00000000    0.00000000    0.00000000
     atom   94 type  1   force =     0.00000000    0.00000000    0.00000000
     atom   95 type  1   force =     0.00000000    0.00000000    0.00000000
     atom   96 type  1   force =     0.00000000    0.00000000    0.00000000
     atom   97 type  1   force =     0.00000000    0.00000000    0.00000000
     atom   98 type  1   force =     0.00000000    0.00000000    0.00000000
     atom   99 type  1   force =     0.00000000    0.00000000    0.00000000
     atom  100 type  1   force =     0.00000000    0.00000000    0.00000000
     atom  101 type  1   force =     0.00000000    0.00000000    0.00000000
     atom  102 type  1   force =     0.00000000    0.00000000    0.00000000
     atom  103 type  1   force =     0.00000000    0.00000000    0.00000000
     atom  104 type  1   force =     0.00000000    0.00000000    0.00000000
     atom  105 type  1   force =     0.00000000    0.00000000    0.00000000
     atom  106 type  1   force =     0.00000000    0.00000000    0.00000000
     atom  107 type  1   force =     0.00000000    0.00000000    0.00000000
     atom  108 type  1   force =     0.00000000    0.00000000    0.00000000
     atom  109 type  2   force =     0.00000000    0.00000000    0.00000000
     atom  110 type  2   force =     0.00000000    0.00000000    0.00000000
     atom  111 type  2   force =     0.00000000    0.00000000    0.00000000
     atom  112 type  2   force =     0.00000000    0.00000000    0.00000000
     atom  113 type  2   force =     0.00000000    0.00000000    0.00000000
     atom  114 type  2   force =     0.00000000    0.00000000    0.00000000
     atom  115 type  2   force =     0.00000000    0.00000000    0.00000000
     atom  116 type  2   force =     0.00000000    0.00000000    0.00000000
     atom  117 type  2   force =     0.00000000    0.00000000    0.00000000
     atom  118 type  2   force =     0.00000000    0.00000000    0.00000000
     atom  119 type  2   force =     0.00000000    0.00000000    0.00000000
     atom  120 type  2   force =     0.00000000    0.00000000    0.00000000
     atom  121 type  2   force =     0.00000000    0.00000000    0.00000000
     atom  122 type  2   force =     0.00000000    0.00000000    0.00000000
     atom  123 type  2   force =     0.00000000    0.00000000    0.00000000
     atom  124 type  2   force =     0.00000000    0.00000000    0.00000000
     atom  125 type  2   force =     0.00000000    0.00000000    0.00000000
     atom  126 type  2   force =     0.00000000    0.00000000    0.00000000
     atom  127 type  2   force =     0.00000000    0.00000000    0.00000000
     atom  128 type  2   force =     0.00000000    0.00000000    0.00000000
     atom  129 type  2   force =     0.00000000    0.00000000    0.00000000
     atom  130 type  2   force =     0.00000000    0.00000000    0.00000000
     atom  131 type  2   force =     0.00000000    0.00000000    0.00000000
     atom  132 type  2   force =     0.00000000    0.00000000    0.00000000
     atom  133 type  2   force =     0.00000000    0.00000000    0.00000000
     atom  134 type  2   force =     0.00000000    0.00000000    0.00000000
     atom  135 type  2   force =     0.00000000    0.00000000    0.00000000
     atom  136 type  2   force =     0.00000000    0.00000000    0.00000000
     atom  137 type  2   force =     0.00000000    0.00000000    0.00000000
     atom  138 type  2   force =     0.00000000    0.00000000    0.00000000
     atom  139 type  2   force =     0.00000000    0.00000000    0.00000000
     atom  140 type  2   force =     0.00000000    0.00000000    0.00000000
     atom  141 type  2   force =     0.00000000    0.00000000    0.00000000
     atom  142 type  2   force =     0.00000000    0.00000000    0.00000000
     atom  143 type  2   force =     0.00000000    0.00000000    0.00000000
     atom  144 type  2   force =     0.00000000    0.00000000    0.00000000
     atom  145 type  2   force =     0.00000000    0.00000000    0.00000000
     atom  146 type  2   force =     0.00000000    0.00000000    0.00000000
     atom  147 type  2   force =     0.00000000    0.00000000    0.00000000
     atom  148 type  2   force =     0.00000000    0.00000000    0.00000000
     atom  149 type  2   force =     0.00000000    0.00000000    0.00000000
     atom  150 type  2   force =     0.00000000    0.00000000    0.00000000
     atom  151 type  2   force =     0.00000000    0.00000000    0.00000000
     atom  152 type  2   force =     0.00000000    0.00000000    0.00000000
     atom  153 type  2   force =     0.00000000    0.00000000    0.00000000
     atom  154 type  2   force =     0.00000000    0.00000000    0.00000000
     atom  155 type  2   force =     0.00000000    0.00000000    0.00000000
     atom  156 type  2   force =     0.00000000    0.00000000    0.00000000
     atom  157 type  2   force =     0.00000000    0.00000000    0.00000000
     atom  158 type  2   force =     0.00000000    0.00000000    0.00000000
     atom  159 type  2   force =     0.00000000    0.00000000    0.00000000
     atom  160 type  2   force =     0.00000000    0.00000000    0.00000000
     atom  161 type  2   force =     0.00000000    0.00000000    0.00000000
     atom  162 type  2   force =     0.00000000    0.00000000    0.00000000
     atom  163 type  2   force =     0.00000000    0.00000000    0.00000000
     atom  164 type  2   force =     0.00000000    0.00000000    0.00000000
     atom  165 type  2   force =     0.00000000    0.00000000    0.00000000
     atom  166 type  2   force =     0.00000000    0.00000000    0.00000000
     atom  167 type  2   force =     0.00000000    0.00000000    0.00000000
     atom  168 type  2   force =     0.00000000    0.00000000    0.00000000
     atom  169 type  2   force =     0.00000000    0.00000000    0.00000000
     atom  170 type  2   force =     0.00000000    0.00000000    0.00000000
     atom  171 type  2   force =     0.00000000    0.00000000    0.00000000
     atom  172 type  2   force =     0.00000000    0.00000000    0.00000000
     atom  173 type  2   force =     0.00000000    0.00000000    0.00000000
     atom  174 type  2   force =     0.00000000    0.00000000    0.00000000
     atom  175 type  2   force =     0.00000000    0.00000000    0.00000000
     atom  176 type  2   force =     0.00000000    0.00000000    0.00000000
     atom  177 type  2   force =     0.00000000    0.00000000    0.00000000
     atom  178 type  2   force =     0.00000000    0.00000000    0.00000000
     atom  179 type  2   force =     0.00000000    0.00000000    0.00000000
     atom  180 type  2   force =     0.00000000    0.00000000    0.00000000
     atom  181 type  2   force =     0.00000000    0.00000000    0.00000000
     atom  182 type  2   force =     0.00000000    0.00000000    0.00000000
     atom  183 type  2   force =     0.00000000    0.00000000    0.00000000
     atom  184 type  2   force =     0.00000000    0.00000000    0.00000000
     atom  185 type  2   force =     0.00000000    0.00000000    0.00000000
     atom  186 type  2   force =     0.00000000    0.00000000    0.00000000
     atom  187 type  2   force =     0.00000000    0.00000000    0.00000000
     atom  188 type  2   force =     0.00000000    0.00000000    0.00000000
     atom  189 type  2   force =     0.00000000    0.00000000    0.00000000
     atom  190 type  2   force =     0.00000000    0.00000000    0.00000000
     atom  191 type  2   force =     0.00000000    0.00000000    0.00000000
     atom  192 type  2   force =     0.00000000    0.00000000    0.00000000
     atom  193 type  2   force =     0.00000000    0.00000000    0.00000000
     atom  194 type  2   force =     0.00000000    0.00000000    0.00000000
     atom  195 type  2   force =     0.00000000    0.00000000    0.00000000
     atom  196 type  2   force =     0.00000000    0.00000000    0.00000000
     atom  197 type  2   force =     0.00000000    0.00000000    0.00000000
     atom  198 type  2   force =     0.00000000    0.00000000    0.00000000
     atom  199 type  2   force =     0.00000000    0.00000000    0.00000000
     atom  200 type  2   force =     0.00000000    0.00000000    0.00000000
     atom  201 type  2   force =     0.00000000    0.00000000    0.00000000
     atom  202 type  2   force =     0.00000000    0.00000000    0.00000000
     atom  203 type  2   force =     0.00000000    0.00000000    0.00000000
     atom  204 type  2   force =     0.00000000    0.00000000    0.00000000
     atom  205 type  2   force =     0.00000000    0.00000000    0.00000000
     atom  206 type  2   force =     0.00000000    0.00000000    0.00000000
     atom  207 type  2   force =     0.00000000    0.00000000    0.00000000
     atom  208 type  2   force =     0.00000000    0.00000000    0.00000000
     atom  209 type  2   force =     0.00000000    0.00000000    0.00000000
     atom  210 type  2   force =     0.00000000    0.00000000    0.00000000
     atom  211 type  2   force =     0.00000000    0.00000000    0.00000000
     atom  212 type  2   force =     0.00000000    0.00000000    0.00000000
     atom  213 type  2   force =     0.00000000    0.00000000    0.00000000
     atom  214 type  2   force =     0.00000000    0.00000000    0.00000000
     atom  215 type  2   force =     0.00000000    0.00000000    0.00000000
     The SCF correction term to forces
     atom    1 type  1   force =     0.00000005   -0.00000009    0.00000025
     atom    2 type  1   force =     0.00000009   -0.00000014   -0.00000258
     atom    3 type  1   force =     0.00000003   -0.00000010    0.00000247
     atom    4 type  1   force =     0.00000046   -0.00000189    0.00000055
     atom    5 type  1   force =     0.00000023   -0.00000066   -0.00000137
     atom    6 type  1   force =     0.00000025   -0.00000118    0.00000097
     atom    7 type  1   force =     0.00000005    0.00000199    0.00000067
     atom    8 type  1   force =     0.00000010    0.00000097   -0.00000117
     atom    9 type  1   force =     0.00000014    0.00000122    0.00000078
     atom   10 type  1   force =    -0.00000273   -0.00000041    0.00000033
     atom   11 type  1   force =    -0.00000026   -0.00000055   -0.00000169
     atom   12 type  1   force =    -0.00000006   -0.00000057    0.00000130
     atom   13 type  1   force =    -0.00000126    0.00000041    0.00000088
     atom   14 type  1   force =    -0.00000006    0.00000082   -0.00000066
     atom   15 type  1   force =    -0.00000050   -0.00000069    0.00000002
     atom   16 type  1   force =    -0.00000092    0.00000047    0.00000095
     atom   17 type  1   force =     0.00000070    0.00000003   -0.00000046
     atom   18 type  1   force =    -0.00000034    0.00000136   -0.00000037
     atom   19 type  1   force =     0.00000278    0.00000007    0.00000039
     atom   20 type  1   force =     0.00000022   -0.00000026   -0.00000155
     atom   21 type  1   force =     0.00000003   -0.00000030    0.00000136
     atom   22 type  1   force =     0.00000126   -0.00000022    0.00000106
     atom   23 type  1   force =    -0.00000003   -0.00000055   -0.00000102
     atom   24 type  1   force =     0.00000064   -0.00000171    0.00000030
     atom   25 type  1   force =     0.00000082   -0.00000017    0.00000070
     atom   26 type  1   force =    -0.00000106    0.00000001   -0.00000025
     atom   27 type  1   force =    -0.00000021    0.00000106   -0.00000029
     atom   28 type  1   force =     0.00000039   -0.00000238   -0.00000228
     atom   29 type  1   force =     0.00000018   -0.00000178   -0.00000016
     atom   30 type  1   force =     0.00000024   -0.00000256    0.00000231
     atom   31 type  1   force =     0.00000025   -0.00000007   -0.00000169
     atom   32 type  1   force =     0.00000017    0.00000015   -0.00000057
     atom   33 type  1   force =     0.00000024   -0.00000008    0.00000213
     atom   34 type  1   force =    -0.00000005    0.00000228   -0.00000214
     atom   35 type  1   force =     0.00000006    0.00000162   -0.00000033
     atom   36 type  1   force =    -0.00000018    0.00000267    0.00000228
     atom   37 type  1   force =    -0.00000197   -0.00000175    0.00000029
     atom   38 type  1   force =    -0.00000020    0.00000025   -0.00000064
     atom   39 type  1   force =    -0.00000204   -0.00000218    0.00000021
     atom   40 type  1   force =     0.00000000    0.00000006    0.00000135
     atom   41 type  1   force =    -0.00000071    0.00000028   -0.00000243
     atom   42 type  1   force =    -0.00000055   -0.00000007    0.00000040
     atom   43 type  1   force =    -0.00000139    0.00000122    0.00000056
     atom   44 type  1   force =    -0.00000021   -0.00000067   -0.00000068
     atom   45 type  1   force =    -0.00000168    0.00000199    0.00000028
     atom   46 type  1   force =     0.00000167   -0.00000148   -0.00000005
     atom   47 type  1   force =     0.00000016    0.00000021   -0.00000060
     atom   48 type  1   force =     0.00000198   -0.00000193    0.00000038
     atom   49 type  1   force =    -0.00000017   -0.00000004    0.00000051
     atom   50 type  1   force =     0.00000067    0.00000103   -0.00000180
     atom   51 type  1   force =     0.00000048    0.00000013    0.00000086
     atom   52 type  1   force =     0.00000152    0.00000187    0.00000032
     atom   53 type  1   force =    -0.00000021   -0.00000027   -0.00000065
     atom   54 type  1   force =     0.00000167    0.00000220    0.00000031
     atom   55 type  1   force =    -0.00000169    0.00000014   -0.00000198
     atom   56 type  1   force =    -0.00000086   -0.00000006   -0.00000045
     atom   57 type  1   force =    -0.00000187    0.00000006    0.00000241
     atom   58 type  1   force =    -0.00000094   -0.00000164   -0.00000183
     atom   59 type  1   force =     0.00000154    0.00000037   -0.00000056
     atom   60 type  1   force =    -0.00000154   -0.00000200    0.00000224
     atom   61 type  1   force =    -0.00000060    0.00000190   -0.00000180
     atom   62 type  1   force =     0.00000168   -0.00000001   -0.00000060
     atom   63 type  1   force =    -0.00000109    0.00000208    0.00000224
     atom   64 type  1   force =    -0.00000016   -0.00000033    0.00000043
     atom   65 type  1   force =    -0.00000019   -0.00000044   -0.00000025
     atom   66 type  1   force =    -0.00000016   -0.00000036   -0.00000007
     atom   67 type  1   force =     0.00000001   -0.00000007    0.00000083
     atom   68 type  1   force =    -0.00000077   -0.00000063   -0.00000116
     atom   69 type  1   force =    -0.00000013   -0.00000075    0.00000009
     atom   70 type  1   force =    -0.00000065    0.00000032    0.00000141
     atom   71 type  1   force =    -0.00000004   -0.00000017   -0.00000163
     atom   72 type  1   force =    -0.00000023    0.00000097    0.00000007
     atom   73 type  1   force =     0.00000173   -0.00000013   -0.00000217
     atom   74 type  1   force =     0.00000097   -0.00000036   -0.00000046
     atom   75 type  1   force =     0.00000203   -0.00000009    0.00000248
     atom   76 type  1   force =     0.00000075   -0.00000177   -0.00000213
     atom   77 type  1   force =    -0.00000098   -0.00000007   -0.00000042
     atom   78 type  1   force =     0.00000121   -0.00000219    0.00000240
     atom   79 type  1   force =     0.00000125    0.00000187   -0.00000187
     atom   80 type  1   force =    -0.00000112   -0.00000002   -0.00000058
     atom   81 type  1   force =     0.00000146    0.00000211    0.00000232
     atom   82 type  1   force =    -0.00000291   -0.00000212    0.00000040
     atom   83 type  1   force =    -0.00000073   -0.00000183   -0.00000261
     atom   84 type  1   force =    -0.00000132   -0.00000172    0.00000231
     atom   85 type  1   force =    -0.00000142   -0.00000015    0.00000062
     atom   86 type  1   force =     0.00000196    0.00000014   -0.00000024
     atom   87 type  1   force =     0.00000069    0.00000016   -0.00000019
     atom   88 type  1   force =    -0.00000235    0.00000188    0.00000038
     atom   89 type  1   force =    -0.00000013    0.00000133   -0.00000224
     atom   90 type  1   force =    -0.00000067    0.00000143    0.00000188
     atom   91 type  1   force =     0.00000041   -0.00000118    0.00000069
     atom   92 type  1   force =     0.00000016   -0.00000014   -0.00000162
     atom   93 type  1   force =     0.00000013   -0.00000049    0.00000107
     atom   94 type  1   force =    -0.00000007    0.00000031    0.00000097
     atom   95 type  1   force =    -0.00000103    0.00000126   -0.00000052
     atom   96 type  1   force =    -0.00000050    0.00000082    0.00000076
     atom   97 type  1   force =    -0.00000054    0.00000084    0.00000053
     atom   98 type  1   force =    -0.00000060   -0.00000057   -0.00000164
     atom   99 type  1   force =    -0.00000038    0.00000033    0.00000096
     atom  100 type  1   force =     0.00000227   -0.00000213    0.00000033
     atom  101 type  1   force =     0.00000054   -0.00000174   -0.00000237
     atom  102 type  1   force =     0.00000101   -0.00000162    0.00000220
     atom  103 type  1   force =     0.00000126    0.00000006    0.00000057
     atom  104 type  1   force =    -0.00000099    0.00000019   -0.00000036
     atom  105 type  1   force =    -0.00000026    0.00000017   -0.00000013
     atom  106 type  1   force =     0.00000280    0.00000222    0.00000029
     atom  107 type  1   force =     0.00000094    0.00000174   -0.00000231
     atom  108 type  1   force =     0.00000140    0.00000182    0.00000217
     atom  109 type  2   force =     0.00000015   -0.00000119    0.00000019
     atom  110 type  2   force =     0.00000018   -0.00000208   -0.00000176
     atom  111 type  2   force =     0.00000012   -0.00000210    0.00000165
     atom  112 type  2   force =     0.00000013   -0.00000005    0.00000039
     atom  113 type  2   force =     0.00000016    0.00000007   -0.00000135
     atom  114 type  2   force =     0.00000015    0.00000007    0.00000110
     atom  115 type  2   force =     0.00000002    0.00000122    0.00000025
     atom  116 type  2   force =     0.00000002    0.00000192   -0.00000167
     atom  117 type  2   force =     0.00000001    0.00000208    0.00000153
     atom  118 type  2   force =    -0.00000178   -0.00000193    0.00000035
     atom  119 type  2   force =    -0.00000021    0.00000019   -0.00000095
     atom  120 type  2   force =    -0.00000017    0.00000003    0.00000068
     atom  121 type  2   force =    -0.00000106    0.00000008    0.00000073
     atom  122 type  2   force =     0.00000031    0.00000028   -0.00000007
     atom  123 type  2   force =    -0.00000066    0.00000013   -0.00000019
     atom  124 type  2   force =    -0.00000156    0.00000160    0.00000037
     atom  125 type  2   force =     0.00000001   -0.00000060   -0.00000097
     atom  126 type  2   force =    -0.00000007   -0.00000016    0.00000049
     atom  127 type  2   force =     0.00000176   -0.00000169    0.00000043
     atom  128 type  2   force =     0.00000003    0.00000025   -0.00000097
     atom  129 type  2   force =     0.00000017    0.00000014    0.00000072
     atom  130 type  2   force =     0.00000102   -0.00000002    0.00000068
     atom  131 type  2   force =    -0.00000039    0.00000043   -0.00000038
     atom  132 type  2   force =     0.00000056    0.00000038    0.00000002
     atom  133 type  2   force =     0.00000160    0.00000184    0.00000025
     atom  134 type  2   force =    -0.00000018   -0.00000024   -0.00000080
     atom  135 type  2   force =    -0.00000017    0.00000001    0.00000054
     atom  136 type  2   force =     0.00000004   -0.00000002   -0.00000127
     atom  137 type  2   force =     0.00000004   -0.00000011   -0.00000017
     atom  138 type  2   force =    -0.00000003   -0.00000001    0.00000135
     atom  139 type  2   force =     0.00000024   -0.00000125   -0.00000223
     atom  140 type  2   force =     0.00000008   -0.00000098   -0.00000024
     atom  141 type  2   force =     0.00000024   -0.00000146    0.00000239
     atom  142 type  2   force =     0.00000013    0.00000138   -0.00000213
     atom  143 type  2   force =     0.00000020    0.00000109   -0.00000032
     atom  144 type  2   force =     0.00000003    0.00000147    0.00000226
     atom  145 type  2   force =    -0.00000127   -0.00000024   -0.00000099
     atom  146 type  2   force =    -0.00000081   -0.00000028   -0.00000032
     atom  147 type  2   force =    -0.00000135   -0.00000022    0.00000134
     atom  148 type  2   force =    -0.00000048    0.00000009    0.00000108
     atom  149 type  2   force =    -0.00000035    0.00000034   -0.00000084
     atom  150 type  2   force =    -0.00000059   -0.00000041   -0.00000045
     atom  151 type  2   force =    -0.00000021    0.00000048    0.00000109
     atom  152 type  2   force =    -0.00000018    0.00000003   -0.00000098
     atom  153 type  2   force =    -0.00000056    0.00000082   -0.00000025
     atom  154 type  2   force =     0.00000134   -0.00000001   -0.00000117
     atom  155 type  2   force =     0.00000084   -0.00000030   -0.00000036
     atom  156 type  2   force =     0.00000137   -0.00000008    0.00000142
     atom  157 type  2   force =     0.00000036   -0.00000043    0.00000052
     atom  158 type  2   force =     0.00000046   -0.00000041   -0.00000067
     atom  159 type  2   force =     0.00000068   -0.00000083   -0.00000014
     atom  160 type  2   force =     0.00000008    0.00000019    0.00000095
     atom  161 type  2   force =    -0.00000032    0.00000005   -0.00000077
     atom  162 type  2   force =     0.00000042    0.00000061   -0.00000029
     atom  163 type  2   force =    -0.00000154   -0.00000159   -0.00000142
     atom  164 type  2   force =    -0.00000028   -0.00000059   -0.00000028
     atom  165 type  2   force =    -0.00000176   -0.00000174    0.00000165
     atom  166 type  2   force =    -0.00000009   -0.00000004   -0.00000035
     atom  167 type  2   force =     0.00000172    0.00000022   -0.00000063
     atom  168 type  2   force =    -0.00000059   -0.00000006    0.00000087
     atom  169 type  2   force =    -0.00000122    0.00000140   -0.00000137
     atom  170 type  2   force =     0.00000003    0.00000023   -0.00000032
     atom  171 type  2   force =    -0.00000141    0.00000173    0.00000168
     atom  172 type  2   force =     0.00000015   -0.00000051    0.00000055
     atom  173 type  2   force =    -0.00000003    0.00000077   -0.00000036
     atom  174 type  2   force =     0.00000009   -0.00000083   -0.00000030
     atom  175 type  2   force =    -0.00000026    0.00000022    0.00000169
     atom  176 type  2   force =    -0.00000019    0.00000017   -0.00000045
     atom  177 type  2   force =    -0.00000040    0.00000034    0.00000077
     atom  178 type  2   force =    -0.00000012   -0.00000107   -0.00000038
     atom  179 type  2   force =    -0.00000020    0.00000079   -0.00000028
     atom  180 type  2   force =     0.00000131   -0.00000166   -0.00000165
     atom  181 type  2   force =     0.00000024   -0.00000053   -0.00000022
     atom  182 type  2   force =     0.00000155   -0.00000181    0.00000177
     atom  183 type  2   force =     0.00000031   -0.00000004   -0.00000057
     atom  184 type  2   force =    -0.00000118    0.00000014   -0.00000050
     atom  185 type  2   force =     0.00000064    0.00000001    0.00000103
     atom  186 type  2   force =     0.00000156    0.00000172   -0.00000142
     atom  187 type  2   force =     0.00000033    0.00000062   -0.00000035
     atom  188 type  2   force =     0.00000172    0.00000188    0.00000169
     atom  189 type  2   force =    -0.00000135   -0.00000001    0.00000017
     atom  190 type  2   force =    -0.00000141   -0.00000005   -0.00000175
     atom  191 type  2   force =    -0.00000164   -0.00000005    0.00000158
     atom  192 type  2   force =    -0.00000218   -0.00000115    0.00000044
     atom  193 type  2   force =     0.00000105   -0.00000007   -0.00000073
     atom  194 type  2   force =     0.00000055   -0.00000050    0.00000040
     atom  195 type  2   force =    -0.00000180    0.00000137    0.00000050
     atom  196 type  2   force =     0.00000130    0.00000035   -0.00000049
     atom  197 type  2   force =     0.00000079    0.00000065    0.00000011
     atom  198 type  2   force =    -0.00000005   -0.00000015    0.00000027
     atom  199 type  2   force =    -0.00000014   -0.00000035   -0.00000168
     atom  200 type  2   force =    -0.00000013   -0.00000036    0.00000134
     atom  201 type  2   force =     0.00000010   -0.00000064    0.00000067
     atom  202 type  2   force =    -0.00000035    0.00000019   -0.00000076
     atom  203 type  2   force =    -0.00000025   -0.00000100    0.00000037
     atom  204 type  2   force =    -0.00000027    0.00000078    0.00000065
     atom  205 type  2   force =    -0.00000039   -0.00000017   -0.00000032
     atom  206 type  2   force =    -0.00000009    0.00000095   -0.00000011
     atom  207 type  2   force =     0.00000135    0.00000000    0.00000018
     atom  208 type  2   force =     0.00000152   -0.00000019   -0.00000171
     atom  209 type  2   force =     0.00000175   -0.00000011    0.00000161
     atom  210 type  2   force =     0.00000178   -0.00000131    0.00000041
     atom  211 type  2   force =    -0.00000079   -0.00000033   -0.00000067
     atom  212 type  2   force =    -0.00000053   -0.00000071    0.00000036
     atom  213 type  2   force =     0.00000209    0.00000122    0.00000036
     atom  214 type  2   force =    -0.00000075    0.00000041   -0.00000058
     atom  215 type  2   force =    -0.00000045    0.00000060    0.00000030

     Total force =     0.102739     Total SCF correction =     0.000028


     Computing stress (Cartesian axis) and pressure

          total   stress  (Ry/bohr**3)                   (kbar)     P= -141.29
  -0.00096047   0.00000000   0.00000000       -141.29      0.00      0.00
   0.00000000  -0.00096047   0.00000000          0.00   -141.29      0.00
   0.00000000   0.00000000  -0.00096047          0.00      0.00   -141.29

     kinetic stress (kbar)  54176.50      0.00      0.00
                                0.00  54176.50      0.00
                                0.00      0.00  54176.50

     local   stress (kbar) -19306.10      0.00     -0.00
                                0.00 -19306.10     -0.00
                               -0.00     -0.00 -19306.10

     nonloc. stress (kbar)  -4585.68      0.00      0.00
                                0.00  -4585.68      0.00
                                0.00      0.00  -4585.68

     hartree stress (kbar)  12143.44     -0.00      0.00
                               -0.00  12143.44      0.00
                                0.00      0.00  12143.44

     exc-cor stress (kbar)  -7546.40     -0.00      0.00
                               -0.00  -7546.40     -0.00
                                0.00     -0.00  -7546.40

     corecor stress (kbar)      0.00      0.00      0.00
                                0.00      0.00      0.00
                                0.00      0.00      0.00

     ewald   stress (kbar) -35023.06     -0.00      0.00
                               -0.00 -35023.06      0.00
                                0.00      0.00 -35023.06

     hubbard stress (kbar)      0.00      0.00      0.00
                                0.00      0.00      0.00
                                0.00      0.00      0.00

     london  stress (kbar)      0.00      0.00      0.00
                                0.00      0.00      0.00
                                0.00      0.00      0.00

     XDM     stress (kbar)      0.00      0.00      0.00
                                0.00      0.00      0.00
                                0.00      0.00      0.00

     dft-nl  stress (kbar)      0.00      0.00      0.00
                                0.00      0.00      0.00
                                0.00      0.00      0.00

     TS-vdW  stress (kbar)      0.00      0.00      0.00
                                0.00      0.00      0.00
                                0.00      0.00      0.00



     Writing output data file pwscf.save
 
     init_run     :      1.65s CPU      2.24s WALL (       1 calls)
     electrons    :    362.03s CPU    369.49s WALL (       1 calls)
     forces       :      0.85s CPU      0.88s WALL (       1 calls)
     stress       :     11.79s CPU     11.84s WALL (       1 calls)

     Called by init_run:
     wfcinit      :      1.44s CPU      2.01s WALL (       1 calls)
     wfcinit:atom :      0.00s CPU      0.00s WALL (       1 calls)
     wfcinit:wfcr :      1.41s CPU      1.96s WALL (       1 calls)
     potinit      :      0.04s CPU      0.05s WALL (       1 calls)

     Called by electrons:
     c_bands      :    357.95s CPU    365.26s WALL (      13 calls)
     sum_band     :      3.60s CPU      3.65s WALL (      13 calls)
     v_of_rho     :      0.35s CPU      0.41s WALL (      14 calls)
     v_h          :      0.03s CPU      0.04s WALL (      14 calls)
     v_xc         :      0.32s CPU      0.37s WALL (      14 calls)
     mix_rho      :      0.05s CPU      0.06s WALL (      13 calls)

     Called by c_bands:
     init_us_2    :      0.20s CPU      0.22s WALL (      27 calls)
     regterg      :    357.35s CPU    364.64s WALL (      13 calls)

     Called by sum_band:

     Called by *egterg:
     h_psi        :     35.47s CPU     36.29s WALL (     213 calls)
     g_psi        :      0.10s CPU      0.10s WALL (     199 calls)
     rdiaghg      :    294.74s CPU    300.92s WALL (     212 calls)
     regterg:over :     11.31s CPU     11.46s WALL (     199 calls)
     regterg:upda :      9.65s CPU      9.76s WALL (     199 calls)
     regterg:last :      4.43s CPU      4.56s WALL (      15 calls)
     rdiaghg:chol :     11.96s CPU     12.09s WALL (     212 calls)
     rdiaghg:inve :      8.06s CPU      8.10s WALL (     212 calls)
     rdiaghg:para :     18.30s CPU     19.54s WALL (     424 calls)

     Called by h_psi:
     h_psi:pot    :     35.19s CPU     36.01s WALL (     213 calls)
     h_psi:calbec :      7.35s CPU      7.42s WALL (     213 calls)
     vloc_psi     :     21.53s CPU     22.21s WALL (     213 calls)
     add_vuspsi   :      6.32s CPU      6.38s WALL (     213 calls)

     General routines
     calbec       :      8.19s CPU      8.27s WALL (     218 calls)
     fft          :      0.57s CPU      0.64s WALL (     161 calls)
     fftw         :     23.89s CPU     24.61s WALL (   41842 calls)
 
     Parallel routines
     fft_scatter  :     14.58s CPU     15.27s WALL (   42003 calls)
 
     PWSCF        :  6m20.19s CPU     6m29.39s WALL

 
   This run was terminated on:   1:44: 4  18Jun2023            

=------------------------------------------------------------------------------=
   JOB DONE.
=------------------------------------------------------------------------------=
