
     Program PWSCF v.6.1 starts on 10Jul2022 at 16:51:49 

     This program is part of the open-source Quantum ESPRESSO suite
     for quantum simulation of materials; please cite
         "P. Giannozzi et al., J. Phys.:Condens. Matter 21 395502 (2009);
          URL http://www.quantum-espresso.org", 
     in publications or presentations arising from this work. More details at
     http://www.quantum-espresso.org/quote

     Parallel version (MPI & OpenMP), running on      80 processor cores
     Number of MPI processes:                80
     Threads/MPI process:                     1
     K-points division:     npool     =       2
     R & G space division:  proc/nbgrp/npool/nimage =      40
     Waiting for input...
     Reading input from standard input
Warning: card &IONS ignored
Warning: card     ION_DYNAMICS='BFGS' ignored
Warning: card     ION_POSITIONS='DEFAULT' ignored
Warning: card / ignored

     Current dimensions of program PWSCF are:
     Max number of different atomic species (ntypx) = 10
     Max number of k-points (npk) =  40000
     Max angular momentum in pseudopotentials (lmaxx) =  3

     gamma-point specific algorithms are used

     Subspace diagonalization in iterative solution of the eigenvalue problem:
     one sub-group per band group will be used
     scalapack distributed-memory algorithm (size of sub-group:  4*  4 procs)

 
     Parallelization info
     --------------------
     sticks:   dense  smooth     PW     G-vecs:    dense   smooth      PW
     Min         275     275     68                21888    21888    2724
     Max         278     278     70                21902    21902    2734
     Sum       11057   11057   2757               875727   875727  109127
 


     bravais-lattice index     =            0
     lattice parameter (alat)  =      20.2276  a.u.
     unit-cell volume          =    8276.2749 (a.u.)^3
     number of atoms/cell      =          215
     number of atomic types    =            2
     number of electrons       =       860.00 (up: 431.00, down: 429.00)
     number of Kohn-Sham states=          448
     kinetic-energy cutoff     =      85.0000  Ry
     charge density cutoff     =     340.0000  Ry
     convergence threshold     =      1.0E-10
     mixing beta               =       0.7000
     number of iterations used =            8  plain     mixing
     Exchange-correlation      = PBE ( 1  4  3  4 0 0)

     celldm(1)=  20.227629  celldm(2)=   0.000000  celldm(3)=   0.000000
     celldm(4)=   0.000000  celldm(5)=   0.000000  celldm(6)=   0.000000

     crystal axes: (cart. coord. in units of alat)
               a(1) = (   1.000000   0.000000   0.000000 )  
               a(2) = (   0.000000   1.000000   0.000000 )  
               a(3) = (   0.000000   0.000000   1.000000 )  

     reciprocal axes: (cart. coord. in units 2 pi/alat)
               b(1) = (  1.000000  0.000000  0.000000 )  
               b(2) = (  0.000000  1.000000  0.000000 )  
               b(3) = (  0.000000  0.000000  1.000000 )  


     PseudoPot. # 1 for C  read from file:
     /home/jinyuchem/program/QE/pseudo-potential/C_ONCV_PBE-1.0.upf
     MD5 check sum: 40f8c33130f0afa4272e9dcc1c4fb0df
     Pseudo is Norm-conserving, Zval =  4.0
     Generated using ONCVPSP code by D. R. Hamann
     Using radial grid of  602 points,  4 beta functions with: 
                l(1) =   0
                l(2) =   0
                l(3) =   1
                l(4) =   1

     PseudoPot. # 2 for Si read from file:
     /home/jinyuchem/program/QE/pseudo-potential/Si_ONCV_PBE-1.1.upf
     MD5 check sum: 893f9c914d8b8e384479fa6fd8b59ac5
     Pseudo is Norm-conserving, Zval =  4.0
     Generated using ONCVPSP code by D. R. Hamann
     Using radial grid of  602 points,  4 beta functions with: 
                l(1) =   0
                l(2) =   0
                l(3) =   1
                l(4) =   1

     atomic species   valence    mass     pseudopotential
        C              4.00    12.01100     C ( 1.00)
        Si             4.00    28.08550     Si( 1.00)

     Starting magnetic structure 
     atomic species   magnetization
        C            0.000
        Si           0.000

      6 Sym. Ops. (no inversion) found ( 4 have fractional translation)


                                    s                        frac. trans.

      isym =  1     identity                                     

 cryst.   s( 1) = (     1          0          0      )
                  (     0          1          0      )
                  (     0          0          1      )

 cart.    s( 1) = (  1.0000000  0.0000000  0.0000000 )
                  (  0.0000000  1.0000000  0.0000000 )
                  (  0.0000000  0.0000000  1.0000000 )


      isym =  2     120 deg rotation - cart. axis [-1,-1,-1]     

 cryst.   s( 2) = (     0          0          1      )    f =( -0.1666667 )
                  (     1          0          0      )       (  0.0000000 )
                  (     0          1          0      )       (  0.1666667 )

 cart.    s( 2) = (  0.0000000  1.0000000  0.0000000 )    f =( -0.1666667 )
                  (  0.0000000  0.0000000  1.0000000 )       (  0.0000000 )
                  (  1.0000000  0.0000000  0.0000000 )       (  0.1666667 )


      isym =  3     120 deg rotation - cart. axis [1,1,1]        

 cryst.   s( 3) = (     0          1          0      )    f =( -0.1666667 )
                  (     0          0          1      )       (  0.1666667 )
                  (     1          0          0      )       (  0.0000000 )

 cart.    s( 3) = (  0.0000000  0.0000000  1.0000000 )    f =( -0.1666667 )
                  (  1.0000000  0.0000000  0.0000000 )       (  0.1666667 )
                  (  0.0000000  1.0000000  0.0000000 )       (  0.0000000 )


      isym =  4     inv. 180 deg rotation - cart. axis [1,-1,0]  

 cryst.   s( 4) = (     0          1          0      )    f =( -0.1666667 )
                  (     1          0          0      )       (  0.1666667 )
                  (     0          0          1      )       (  0.0000000 )

 cart.    s( 4) = (  0.0000000  1.0000000  0.0000000 )    f =( -0.1666667 )
                  (  1.0000000  0.0000000  0.0000000 )       (  0.1666667 )
                  (  0.0000000  0.0000000  1.0000000 )       (  0.0000000 )


      isym =  5     inv. 180 deg rotation - cart. axis [-1,0,1]  

 cryst.   s( 5) = (     0          0          1      )    f =( -0.1666667 )
                  (     0          1          0      )       (  0.0000000 )
                  (     1          0          0      )       (  0.1666667 )

 cart.    s( 5) = (  0.0000000  0.0000000  1.0000000 )    f =( -0.1666667 )
                  (  0.0000000  1.0000000  0.0000000 )       (  0.0000000 )
                  (  1.0000000  0.0000000  0.0000000 )       (  0.1666667 )


      isym =  6     inv. 180 deg rotation - cart. axis [0,1,-1]  

 cryst.   s( 6) = (     1          0          0      )
                  (     0          0          1      )
                  (     0          1          0      )

 cart.    s( 6) = (  1.0000000  0.0000000  0.0000000 )
                  (  0.0000000  0.0000000  1.0000000 )
                  (  0.0000000  1.0000000  0.0000000 )


   Cartesian axes

     site n.     atom                  positions (alat units)
         1           C   tau(   1) = (  -0.0002880  -0.0007096  -0.0007096  )
         2           C   tau(   2) = (   0.0832800   0.0828482   0.0828482  )
         3           C   tau(   3) = (   0.0004240   0.1663523   0.1663523  )
         4           C   tau(   4) = (   0.0842595   0.2496376   0.2496376  )
         5           C   tau(   5) = (   0.1667205   0.0000538   0.1662894  )
         6           C   tau(   6) = (   0.2503078   0.0836411   0.2498629  )
         7           C   tau(   7) = (   0.1667205   0.1662894   0.0000538  )
         8           C   tau(   8) = (   0.2503078   0.2498629   0.0836411  )
         9           C   tau(   9) = (   0.0003326  -0.0000433   0.3325986  )
        10           C   tau(  10) = (   0.0839590   0.0828034   0.4161684  )
        11           C   tau(  11) = (   0.0010670   0.1652701   0.4997313  )
        12           C   tau(  12) = (   0.0843408   0.2485433   0.5831898  )
        13           C   tau(  13) = (   0.1664347  -0.0002319   0.4995644  )
        14           C   tau(  14) = (   0.2498458   0.0831791   0.5833193  )
        15           C   tau(  15) = (   0.1674734   0.1667757   0.3332630  )
        16           C   tau(  16) = (   0.2509945   0.2503979   0.4168841  )
        17           C   tau(  17) = (  -0.0007665  -0.0013280   0.6660575  )
        18           C   tau(  18) = (   0.0828292   0.0821676   0.7496522  )
        19           C   tau(  19) = (  -0.0000558   0.1653634   0.8332775  )
        20           C   tau(  20) = (   0.0832183   0.2491565   0.9165516  )
        21           C   tau(  21) = (   0.1659570  -0.0007096   0.8330453  )
        22           C   tau(  22) = (   0.2495148   0.0828482   0.9166133  )
        23           C   tau(  23) = (   0.1667961   0.1656427   0.6667239  )
        24           C   tau(  24) = (   0.2496277   0.2492483   0.7503042  )
        25           C   tau(  25) = (   0.0003326   0.3325986  -0.0000433  )
        26           C   tau(  26) = (   0.0839590   0.4161684   0.0828034  )
        27           C   tau(  27) = (   0.0010670   0.4997313   0.1652701  )
        28           C   tau(  28) = (   0.0843408   0.5831898   0.2485433  )
        29           C   tau(  29) = (   0.1674734   0.3332630   0.1667757  )
        30           C   tau(  30) = (   0.2509945   0.4168841   0.2503979  )
        31           C   tau(  31) = (   0.1664347   0.4995644  -0.0002319  )
        32           C   tau(  32) = (   0.2498458   0.5833193   0.0831791  )
        33           C   tau(  33) = (   0.0010847   0.3327143   0.3327143  )
        34           C   tau(  34) = (   0.0840186   0.4161807   0.4161807  )
        35           C   tau(  35) = (   0.0004470   0.4992093   0.4992093  )
        36           C   tau(  36) = (   0.0826567   0.5824872   0.5824872  )
        37           C   tau(  37) = (   0.1673037   0.3329606   0.4999628  )
        38           C   tau(  38) = (   0.2500161   0.4164967   0.5834805  )
        39           C   tau(  39) = (   0.1673037   0.4999628   0.3329606  )
        40           C   tau(  40) = (   0.2500161   0.5834805   0.4164967  )
        41           C   tau(  41) = (   0.0018002   0.3308918   0.6668623  )
        42           C   tau(  42) = (   0.0833198   0.4155499   0.7498301  )
        43           C   tau(  43) = (  -0.0008364   0.4986088   0.8324970  )
        44           C   tau(  44) = (   0.0823935   0.5826000   0.9157269  )
        45           C   tau(  45) = (   0.1666233   0.3325986   0.8336659  )
        46           C   tau(  46) = (   0.2494701   0.4161684   0.9172923  )
        47           C   tau(  47) = (   0.1662434   0.4994363   0.6664331  )
        48           C   tau(  48) = (   0.2489812   0.5829493   0.7499643  )
        49           C   tau(  49) = (  -0.0007665   0.6660575  -0.0013280  )
        50           C   tau(  50) = (   0.0828292   0.7496522   0.0821676  )
        51           C   tau(  51) = (  -0.0000558   0.8332775   0.1653634  )
        52           C   tau(  52) = (   0.0832183   0.9165516   0.2491565  )
        53           C   tau(  53) = (   0.1667961   0.6667239   0.1656427  )
        54           C   tau(  54) = (   0.2496277   0.7503042   0.2492483  )
        55           C   tau(  55) = (   0.1659570   0.8330453  -0.0007096  )
        56           C   tau(  56) = (   0.2495148   0.9166133   0.0828482  )
        57           C   tau(  57) = (   0.0018002   0.6668623   0.3308918  )
        58           C   tau(  58) = (   0.0833198   0.7498301   0.4155499  )
        59           C   tau(  59) = (  -0.0008364   0.8324970   0.4986088  )
        60           C   tau(  60) = (   0.0823935   0.9157269   0.5826000  )
        61           C   tau(  61) = (   0.1662434   0.6664331   0.4994363  )
        62           C   tau(  62) = (   0.2489812   0.7499643   0.5829493  )
        63           C   tau(  63) = (   0.1666233   0.8336659   0.3325986  )
        64           C   tau(  64) = (   0.2494701   0.9172923   0.4161684  )
        65           C   tau(  65) = (  -0.0023939   0.6646249   0.6646249  )
        66           C   tau(  66) = (   0.0814423   0.7487105   0.7487105  )
        67           C   tau(  67) = (  -0.0012368   0.8320966   0.8320966  )
        68           C   tau(  68) = (   0.0824760   0.9158094   0.9158094  )
        69           C   tau(  69) = (   0.1653387   0.6660575   0.8325669  )
        70           C   tau(  70) = (   0.2488343   0.7496522   0.9161625  )
        71           C   tau(  71) = (   0.1653387   0.8325669   0.6660575  )
        72           C   tau(  72) = (   0.2488343   0.9161625   0.7496522  )
        73           C   tau(  73) = (   0.3329560   0.0000538   0.0000538  )
        74           C   tau(  74) = (   0.4165296   0.0836411   0.0836411  )
        75           C   tau(  75) = (   0.3338140   0.1671474   0.1671474  )
        76           C   tau(  76) = (   0.4175610   0.2508944   0.2508944  )
        77           C   tau(  77) = (   0.4999296   0.0008068   0.1667757  )
        78           C   tau(  78) = (   0.5835507   0.0843278   0.2503979  )
        79           C   tau(  79) = (   0.4999296   0.1667757   0.0008068  )
        80           C   tau(  80) = (   0.5835507   0.2503979   0.0843278  )
        81           C   tau(  81) = (   0.3334424   0.0008068   0.3332630  )
        82           C   tau(  82) = (   0.4170645   0.0843278   0.4168841  )
        83           C   tau(  83) = (   0.3339302   0.1672635   0.5003531  )
        84           C   tau(  84) = (   0.4171481   0.2504815   0.5843752  )
        85           C   tau(  85) = (   0.4996273   0.0006370   0.4999628  )
        86           C   tau(  86) = (   0.5831634   0.0833496   0.5834805  )
        87           C   tau(  87) = (   0.5009412   0.1682312   0.3342745  )
        88           C   tau(  88) = (   0.5850345   0.2520569   0.4183679  )
        89           C   tau(  89) = (   0.3323093   0.0001295   0.6667239  )
        90           C   tau(  90) = (   0.4159150   0.0829610   0.7503042  )
        91           C   tau(  91) = (   0.3330189   0.1663523   0.8337573  )
        92           C   tau(  92) = (   0.4163043   0.2496376   0.9175928  )
        93           C   tau(  93) = (   0.4992652  -0.0000433   0.8336659  )
        94           C   tau(  94) = (   0.5828350   0.0828034   0.9172923  )
        95           C   tau(  95) = (   0.4997778   0.1662779   0.6673972  )
        96           C   tau(  96) = (   0.5827500   0.2478132   0.7520632  )
        97           C   tau(  97) = (   0.3334424   0.3332630   0.0008068  )
        98           C   tau(  98) = (   0.4170645   0.4168841   0.0843278  )
        99           C   tau(  99) = (   0.3339302   0.5003531   0.1672635  )
       100           C   tau( 100) = (   0.4171481   0.5843752   0.2504815  )
       101           C   tau( 101) = (   0.5009412   0.3342745   0.1682312  )
       102           C   tau( 102) = (   0.5850345   0.4183679   0.2520569  )
       103           C   tau( 103) = (   0.4996273   0.4999628   0.0006370  )
       104           C   tau( 104) = (   0.5831634   0.5834805   0.0833496  )
       105           C   tau( 105) = (   0.3348979   0.3342745   0.3342745  )
       106           C   tau( 106) = (   0.4187236   0.4183679   0.4183679  )
       107           C   tau( 107) = (   0.3336286   0.5004746   0.5004746  )
       108           C   tau( 108) = (   0.4158313   0.5837434   0.5837434  )
       109           C   tau( 109) = (   0.5029027   0.3362360   0.5023909  )
       110           C   tau( 110) = (   0.5819847   0.4153180   0.5934214  )
       111           C   tau( 111) = (   0.5029027   0.5023909   0.3362360  )
       112           C   tau( 112) = (   0.5819847   0.5934214   0.4153180  )
       113           C   tau( 113) = (   0.3329445   0.3331112   0.6673972  )
       114           C   tau( 114) = (   0.4144799   0.4160834   0.7520632  )
       115           C   tau( 115) = (   0.3319367   0.4997313   0.8344004  )
       116           C   tau( 116) = (   0.4152099   0.5831899   0.9176742  )
       117           C   tau( 117) = (   0.4993810   0.3327143   0.8344180  )
       118           C   tau( 118) = (   0.5828473   0.4161807   0.9173520  )
       119           C   tau( 119) = (   0.4974196   0.4995692   0.6701925  )
       120           C   tau( 120) = (   0.5794436   0.5834031   0.7522140  )
       121           C   tau( 121) = (   0.3323093   0.6667239   0.0001295  )
       122           C   tau( 122) = (   0.4159150   0.7503042   0.0829610  )
       123           C   tau( 123) = (   0.3330189   0.8337573   0.1663523  )
       124           C   tau( 124) = (   0.4163043   0.9175928   0.2496376  )
       125           C   tau( 125) = (   0.4997778   0.6673972   0.1662779  )
       126           C   tau( 126) = (   0.5827500   0.7520632   0.2478132  )
       127           C   tau( 127) = (   0.4992652   0.8336659  -0.0000433  )
       128           C   tau( 128) = (   0.5828350   0.9172923   0.0828034  )
       129           C   tau( 129) = (   0.3329445   0.6673972   0.3331112  )
       130           C   tau( 130) = (   0.4144799   0.7520632   0.4160834  )
       131           C   tau( 131) = (   0.3319367   0.8344004   0.4997313  )
       132           C   tau( 132) = (   0.4152099   0.9176742   0.5831899  )
       133           C   tau( 133) = (   0.4974196   0.6701925   0.4995692  )
       134           C   tau( 134) = (   0.5794436   0.7522140   0.5834031  )
       135           C   tau( 135) = (   0.4993810   0.8344180   0.3327143  )
       136           C   tau( 136) = (   0.5828473   0.9173520   0.4161807  )
       137           C   tau( 137) = (   0.3322583   0.6667403   0.6667403  )
       138           C   tau( 138) = (   0.4151994   0.7502100   0.7502100  )
       139           C   tau( 139) = (   0.3320301   0.8332775   0.8332775  )
       140           C   tau( 140) = (   0.4158232   0.9165516   0.9165516  )
       141           C   tau( 141) = (   0.4975585   0.6668623   0.8351335  )
       142           C   tau( 142) = (   0.5822165   0.7498301   0.9166531  )
       143           C   tau( 143) = (   0.4975585   0.8351335   0.6668623  )
       144           C   tau( 144) = (   0.5822165   0.9166531   0.7498301  )
       145           C   tau( 145) = (   0.6662310  -0.0002319  -0.0002319  )
       146           C   tau( 146) = (   0.7499860   0.0831791   0.0831791  )
       147           C   tau( 147) = (   0.6670197   0.1672635   0.1672635  )
       148           C   tau( 148) = (   0.7510419   0.2504815   0.2504815  )
       149           C   tau( 149) = (   0.8333905   0.0001295   0.1656427  )
       150           C   tau( 150) = (   0.9169709   0.0829610   0.2492483  )
       151           C   tau( 151) = (   0.8333905   0.1656427   0.0001295  )
       152           C   tau( 152) = (   0.9169709   0.2492483   0.0829610  )
       153           C   tau( 153) = (   0.6666295   0.0006370   0.3329606  )
       154           C   tau( 154) = (   0.7501471   0.0833496   0.4164967  )
       155           C   tau( 155) = (   0.6671413   0.1669620   0.5004746  )
       156           C   tau( 156) = (   0.7504100   0.2491647   0.5837434  )
       157           C   tau( 157) = (   0.8330998  -0.0004233   0.4994363  )
       158           C   tau( 158) = (   0.9166310   0.0823146   0.5829493  )
       159           C   tau( 159) = (   0.8340638   0.1662779   0.3331112  )
       160           C   tau( 160) = (   0.9187299   0.2478132   0.4160834  )
       161           C   tau( 161) = (   0.6661029  -0.0004233   0.6664331  )
       162           C   tau( 162) = (   0.7496159   0.0823146   0.7499643  )
       163           C   tau( 163) = (   0.6663979   0.1652701   0.8344004  )
       164           C   tau( 164) = (   0.7498565   0.2485433   0.9176742  )
       165           C   tau( 165) = (   0.8327242  -0.0013280   0.8325669  )
       166           C   tau( 166) = (   0.9163188   0.0821676   0.9161625  )
       167           C   tau( 167) = (   0.8334070   0.1655917   0.6667403  )
       168           C   tau( 168) = (   0.9168766   0.2485328   0.7502100  )
       169           C   tau( 169) = (   0.6666295   0.3329606   0.0006370  )
       170           C   tau( 170) = (   0.7501471   0.4164967   0.0833496  )
       171           C   tau( 171) = (   0.6671413   0.5004746   0.1669620  )
       172           C   tau( 172) = (   0.7504100   0.5837434   0.2491647  )
       173           C   tau( 173) = (   0.8340638   0.3331112   0.1662779  )
       174           C   tau( 174) = (   0.9187299   0.4160834   0.2478132  )
       175           C   tau( 175) = (   0.8330998   0.4994363  -0.0004233  )
       176           C   tau( 176) = (   0.9166310   0.5829493   0.0823146  )
       177           C   tau( 177) = (   0.6690575   0.3362360   0.3362360  )
       178           C   tau( 178) = (   0.7600880   0.4153180   0.4153180  )
       179           C   tau( 179) = (   0.8368592   0.3307529   0.4995692  )
       180           C   tau( 180) = (   0.9188806   0.4127769   0.5834031  )
       181           C   tau( 181) = (   0.8368592   0.4995692   0.3307529  )
       182           C   tau( 182) = (   0.9188806   0.5834031   0.4127769  )
       183           C   tau( 183) = (   0.6662359   0.3307529   0.6701925  )
       184           C   tau( 184) = (   0.7500697   0.4127769   0.7522140  )
       185           C   tau( 185) = (   0.6658759   0.4992093   0.8337803  )
       186           C   tau( 186) = (   0.7491538   0.5824872   0.9159900  )
       187           C   tau( 187) = (   0.8335289   0.3308918   0.8351335  )
       188           C   tau( 188) = (   0.9164968   0.4155499   0.9166531  )
       189           C   tau( 189) = (   0.8343379   0.4895660   0.6676712  )
       190           C   tau( 190) = (   0.9134268   0.5806074   0.7467601  )
       191           C   tau( 191) = (   0.6661029   0.6664331  -0.0004233  )
       192           C   tau( 192) = (   0.7496159   0.7499643   0.0823146  )
       193           C   tau( 193) = (   0.6663979   0.8344004   0.1652701  )
       194           C   tau( 194) = (   0.7498565   0.9176742   0.2485433  )
       195           C   tau( 195) = (   0.8334070   0.6667403   0.1655917  )
       196           C   tau( 196) = (   0.9168766   0.7502100   0.2485328  )
       197           C   tau( 197) = (   0.8327242   0.8325669  -0.0013280  )
       198           C   tau( 198) = (   0.9163188   0.9161625   0.0821676  )
       199           C   tau( 199) = (   0.6662359   0.6701925   0.3307529  )
       200           C   tau( 200) = (   0.7500697   0.7522140   0.4127769  )
       201           C   tau( 201) = (   0.6658759   0.8337803   0.4992093  )
       202           C   tau( 202) = (   0.7491538   0.9159900   0.5824872  )
       203           C   tau( 203) = (   0.8343379   0.6676712   0.4895660  )
       204           C   tau( 204) = (   0.9134268   0.7467601   0.5806074  )
       205           C   tau( 205) = (   0.8335289   0.8351335   0.3308918  )
       206           C   tau( 206) = (   0.9164968   0.9166531   0.4155499  )
       207           C   tau( 207) = (   0.6562327   0.6676711   0.6676712  )
       208           C   tau( 208) = (   0.7472740   0.7467601   0.7467601  )
       209           C   tau( 209) = (   0.6652755   0.8324970   0.8324970  )
       210           C   tau( 210) = (   0.7492667   0.9157269   0.9157269  )
       211           C   tau( 211) = (   0.8312916   0.6646250   0.8309394  )
       212           C   tau( 212) = (   0.9153771   0.7487105   0.9147757  )
       213           C   tau( 213) = (   0.8312916   0.8309394   0.6646250  )
       214           C   tau( 214) = (   0.9153771   0.9147757   0.7487105  )
       215           Si  tau( 215) = (   0.7081733   0.5415066   0.5415066  )

   Crystallographic axes

     site n.     atom                  positions (cryst. coord.)
         1           C   tau(   1) = ( -0.0002880 -0.0007096 -0.0007096  )
         2           C   tau(   2) = (  0.0832800  0.0828482  0.0828482  )
         3           C   tau(   3) = (  0.0004240  0.1663523  0.1663523  )
         4           C   tau(   4) = (  0.0842595  0.2496376  0.2496376  )
         5           C   tau(   5) = (  0.1667205  0.0000538  0.1662894  )
         6           C   tau(   6) = (  0.2503078  0.0836411  0.2498629  )
         7           C   tau(   7) = (  0.1667205  0.1662894  0.0000538  )
         8           C   tau(   8) = (  0.2503078  0.2498629  0.0836411  )
         9           C   tau(   9) = (  0.0003326 -0.0000433  0.3325986  )
        10           C   tau(  10) = (  0.0839590  0.0828034  0.4161684  )
        11           C   tau(  11) = (  0.0010670  0.1652701  0.4997313  )
        12           C   tau(  12) = (  0.0843408  0.2485433  0.5831898  )
        13           C   tau(  13) = (  0.1664347 -0.0002319  0.4995644  )
        14           C   tau(  14) = (  0.2498458  0.0831791  0.5833193  )
        15           C   tau(  15) = (  0.1674734  0.1667757  0.3332630  )
        16           C   tau(  16) = (  0.2509945  0.2503979  0.4168841  )
        17           C   tau(  17) = ( -0.0007665 -0.0013280  0.6660575  )
        18           C   tau(  18) = (  0.0828292  0.0821676  0.7496522  )
        19           C   tau(  19) = ( -0.0000558  0.1653634  0.8332775  )
        20           C   tau(  20) = (  0.0832183  0.2491565  0.9165516  )
        21           C   tau(  21) = (  0.1659570 -0.0007096  0.8330453  )
        22           C   tau(  22) = (  0.2495148  0.0828482  0.9166133  )
        23           C   tau(  23) = (  0.1667961  0.1656427  0.6667239  )
        24           C   tau(  24) = (  0.2496277  0.2492483  0.7503042  )
        25           C   tau(  25) = (  0.0003326  0.3325986 -0.0000433  )
        26           C   tau(  26) = (  0.0839590  0.4161684  0.0828034  )
        27           C   tau(  27) = (  0.0010670  0.4997313  0.1652701  )
        28           C   tau(  28) = (  0.0843408  0.5831898  0.2485433  )
        29           C   tau(  29) = (  0.1674734  0.3332630  0.1667757  )
        30           C   tau(  30) = (  0.2509945  0.4168841  0.2503979  )
        31           C   tau(  31) = (  0.1664347  0.4995644 -0.0002319  )
        32           C   tau(  32) = (  0.2498458  0.5833193  0.0831791  )
        33           C   tau(  33) = (  0.0010847  0.3327143  0.3327143  )
        34           C   tau(  34) = (  0.0840186  0.4161807  0.4161807  )
        35           C   tau(  35) = (  0.0004470  0.4992093  0.4992093  )
        36           C   tau(  36) = (  0.0826567  0.5824872  0.5824872  )
        37           C   tau(  37) = (  0.1673037  0.3329606  0.4999628  )
        38           C   tau(  38) = (  0.2500161  0.4164967  0.5834805  )
        39           C   tau(  39) = (  0.1673037  0.4999628  0.3329606  )
        40           C   tau(  40) = (  0.2500161  0.5834805  0.4164967  )
        41           C   tau(  41) = (  0.0018002  0.3308918  0.6668623  )
        42           C   tau(  42) = (  0.0833198  0.4155499  0.7498301  )
        43           C   tau(  43) = ( -0.0008364  0.4986088  0.8324970  )
        44           C   tau(  44) = (  0.0823935  0.5826000  0.9157269  )
        45           C   tau(  45) = (  0.1666233  0.3325986  0.8336659  )
        46           C   tau(  46) = (  0.2494701  0.4161684  0.9172923  )
        47           C   tau(  47) = (  0.1662434  0.4994363  0.6664331  )
        48           C   tau(  48) = (  0.2489812  0.5829493  0.7499643  )
        49           C   tau(  49) = ( -0.0007665  0.6660575 -0.0013280  )
        50           C   tau(  50) = (  0.0828292  0.7496522  0.0821676  )
        51           C   tau(  51) = ( -0.0000558  0.8332775  0.1653634  )
        52           C   tau(  52) = (  0.0832183  0.9165516  0.2491565  )
        53           C   tau(  53) = (  0.1667961  0.6667239  0.1656427  )
        54           C   tau(  54) = (  0.2496277  0.7503042  0.2492483  )
        55           C   tau(  55) = (  0.1659570  0.8330453 -0.0007096  )
        56           C   tau(  56) = (  0.2495148  0.9166133  0.0828482  )
        57           C   tau(  57) = (  0.0018002  0.6668623  0.3308918  )
        58           C   tau(  58) = (  0.0833198  0.7498301  0.4155499  )
        59           C   tau(  59) = ( -0.0008364  0.8324970  0.4986088  )
        60           C   tau(  60) = (  0.0823935  0.9157269  0.5826000  )
        61           C   tau(  61) = (  0.1662434  0.6664331  0.4994363  )
        62           C   tau(  62) = (  0.2489812  0.7499643  0.5829493  )
        63           C   tau(  63) = (  0.1666233  0.8336659  0.3325986  )
        64           C   tau(  64) = (  0.2494701  0.9172923  0.4161684  )
        65           C   tau(  65) = ( -0.0023939  0.6646249  0.6646249  )
        66           C   tau(  66) = (  0.0814423  0.7487105  0.7487105  )
        67           C   tau(  67) = ( -0.0012368  0.8320966  0.8320966  )
        68           C   tau(  68) = (  0.0824760  0.9158094  0.9158094  )
        69           C   tau(  69) = (  0.1653387  0.6660575  0.8325669  )
        70           C   tau(  70) = (  0.2488343  0.7496522  0.9161625  )
        71           C   tau(  71) = (  0.1653387  0.8325669  0.6660575  )
        72           C   tau(  72) = (  0.2488343  0.9161625  0.7496522  )
        73           C   tau(  73) = (  0.3329560  0.0000538  0.0000538  )
        74           C   tau(  74) = (  0.4165296  0.0836411  0.0836411  )
        75           C   tau(  75) = (  0.3338140  0.1671474  0.1671474  )
        76           C   tau(  76) = (  0.4175610  0.2508944  0.2508944  )
        77           C   tau(  77) = (  0.4999296  0.0008068  0.1667757  )
        78           C   tau(  78) = (  0.5835507  0.0843278  0.2503979  )
        79           C   tau(  79) = (  0.4999296  0.1667757  0.0008068  )
        80           C   tau(  80) = (  0.5835507  0.2503979  0.0843278  )
        81           C   tau(  81) = (  0.3334424  0.0008068  0.3332630  )
        82           C   tau(  82) = (  0.4170645  0.0843278  0.4168841  )
        83           C   tau(  83) = (  0.3339302  0.1672635  0.5003531  )
        84           C   tau(  84) = (  0.4171481  0.2504815  0.5843752  )
        85           C   tau(  85) = (  0.4996273  0.0006370  0.4999628  )
        86           C   tau(  86) = (  0.5831634  0.0833496  0.5834805  )
        87           C   tau(  87) = (  0.5009412  0.1682312  0.3342745  )
        88           C   tau(  88) = (  0.5850345  0.2520569  0.4183679  )
        89           C   tau(  89) = (  0.3323093  0.0001295  0.6667239  )
        90           C   tau(  90) = (  0.4159150  0.0829610  0.7503042  )
        91           C   tau(  91) = (  0.3330189  0.1663523  0.8337573  )
        92           C   tau(  92) = (  0.4163043  0.2496376  0.9175928  )
        93           C   tau(  93) = (  0.4992652 -0.0000433  0.8336659  )
        94           C   tau(  94) = (  0.5828350  0.0828034  0.9172923  )
        95           C   tau(  95) = (  0.4997778  0.1662779  0.6673972  )
        96           C   tau(  96) = (  0.5827500  0.2478132  0.7520632  )
        97           C   tau(  97) = (  0.3334424  0.3332630  0.0008068  )
        98           C   tau(  98) = (  0.4170645  0.4168841  0.0843278  )
        99           C   tau(  99) = (  0.3339302  0.5003531  0.1672635  )
       100           C   tau( 100) = (  0.4171481  0.5843752  0.2504815  )
       101           C   tau( 101) = (  0.5009412  0.3342745  0.1682312  )
       102           C   tau( 102) = (  0.5850345  0.4183679  0.2520569  )
       103           C   tau( 103) = (  0.4996273  0.4999628  0.0006370  )
       104           C   tau( 104) = (  0.5831634  0.5834805  0.0833496  )
       105           C   tau( 105) = (  0.3348979  0.3342745  0.3342745  )
       106           C   tau( 106) = (  0.4187236  0.4183679  0.4183679  )
       107           C   tau( 107) = (  0.3336286  0.5004746  0.5004746  )
       108           C   tau( 108) = (  0.4158313  0.5837434  0.5837434  )
       109           C   tau( 109) = (  0.5029027  0.3362360  0.5023909  )
       110           C   tau( 110) = (  0.5819847  0.4153180  0.5934214  )
       111           C   tau( 111) = (  0.5029027  0.5023909  0.3362360  )
       112           C   tau( 112) = (  0.5819847  0.5934214  0.4153180  )
       113           C   tau( 113) = (  0.3329445  0.3331112  0.6673972  )
       114           C   tau( 114) = (  0.4144799  0.4160834  0.7520632  )
       115           C   tau( 115) = (  0.3319367  0.4997313  0.8344004  )
       116           C   tau( 116) = (  0.4152099  0.5831899  0.9176742  )
       117           C   tau( 117) = (  0.4993810  0.3327143  0.8344180  )
       118           C   tau( 118) = (  0.5828473  0.4161807  0.9173520  )
       119           C   tau( 119) = (  0.4974196  0.4995692  0.6701925  )
       120           C   tau( 120) = (  0.5794436  0.5834031  0.7522140  )
       121           C   tau( 121) = (  0.3323093  0.6667239  0.0001295  )
       122           C   tau( 122) = (  0.4159150  0.7503042  0.0829610  )
       123           C   tau( 123) = (  0.3330189  0.8337573  0.1663523  )
       124           C   tau( 124) = (  0.4163043  0.9175928  0.2496376  )
       125           C   tau( 125) = (  0.4997778  0.6673972  0.1662779  )
       126           C   tau( 126) = (  0.5827500  0.7520632  0.2478132  )
       127           C   tau( 127) = (  0.4992652  0.8336659 -0.0000433  )
       128           C   tau( 128) = (  0.5828350  0.9172923  0.0828034  )
       129           C   tau( 129) = (  0.3329445  0.6673972  0.3331112  )
       130           C   tau( 130) = (  0.4144799  0.7520632  0.4160834  )
       131           C   tau( 131) = (  0.3319367  0.8344004  0.4997313  )
       132           C   tau( 132) = (  0.4152099  0.9176742  0.5831899  )
       133           C   tau( 133) = (  0.4974196  0.6701925  0.4995692  )
       134           C   tau( 134) = (  0.5794436  0.7522140  0.5834031  )
       135           C   tau( 135) = (  0.4993810  0.8344180  0.3327143  )
       136           C   tau( 136) = (  0.5828473  0.9173520  0.4161807  )
       137           C   tau( 137) = (  0.3322583  0.6667403  0.6667403  )
       138           C   tau( 138) = (  0.4151994  0.7502100  0.7502100  )
       139           C   tau( 139) = (  0.3320301  0.8332775  0.8332775  )
       140           C   tau( 140) = (  0.4158232  0.9165516  0.9165516  )
       141           C   tau( 141) = (  0.4975585  0.6668623  0.8351335  )
       142           C   tau( 142) = (  0.5822165  0.7498301  0.9166531  )
       143           C   tau( 143) = (  0.4975585  0.8351335  0.6668623  )
       144           C   tau( 144) = (  0.5822165  0.9166531  0.7498301  )
       145           C   tau( 145) = (  0.6662310 -0.0002319 -0.0002319  )
       146           C   tau( 146) = (  0.7499860  0.0831791  0.0831791  )
       147           C   tau( 147) = (  0.6670197  0.1672635  0.1672635  )
       148           C   tau( 148) = (  0.7510419  0.2504815  0.2504815  )
       149           C   tau( 149) = (  0.8333905  0.0001295  0.1656427  )
       150           C   tau( 150) = (  0.9169709  0.0829610  0.2492483  )
       151           C   tau( 151) = (  0.8333905  0.1656427  0.0001295  )
       152           C   tau( 152) = (  0.9169709  0.2492483  0.0829610  )
       153           C   tau( 153) = (  0.6666295  0.0006370  0.3329606  )
       154           C   tau( 154) = (  0.7501471  0.0833496  0.4164967  )
       155           C   tau( 155) = (  0.6671413  0.1669620  0.5004746  )
       156           C   tau( 156) = (  0.7504100  0.2491647  0.5837434  )
       157           C   tau( 157) = (  0.8330998 -0.0004233  0.4994363  )
       158           C   tau( 158) = (  0.9166310  0.0823146  0.5829493  )
       159           C   tau( 159) = (  0.8340638  0.1662779  0.3331112  )
       160           C   tau( 160) = (  0.9187299  0.2478132  0.4160834  )
       161           C   tau( 161) = (  0.6661029 -0.0004233  0.6664331  )
       162           C   tau( 162) = (  0.7496159  0.0823146  0.7499643  )
       163           C   tau( 163) = (  0.6663979  0.1652701  0.8344004  )
       164           C   tau( 164) = (  0.7498565  0.2485433  0.9176742  )
       165           C   tau( 165) = (  0.8327242 -0.0013280  0.8325669  )
       166           C   tau( 166) = (  0.9163188  0.0821676  0.9161625  )
       167           C   tau( 167) = (  0.8334070  0.1655917  0.6667403  )
       168           C   tau( 168) = (  0.9168766  0.2485328  0.7502100  )
       169           C   tau( 169) = (  0.6666295  0.3329606  0.0006370  )
       170           C   tau( 170) = (  0.7501471  0.4164967  0.0833496  )
       171           C   tau( 171) = (  0.6671413  0.5004746  0.1669620  )
       172           C   tau( 172) = (  0.7504100  0.5837434  0.2491647  )
       173           C   tau( 173) = (  0.8340638  0.3331112  0.1662779  )
       174           C   tau( 174) = (  0.9187299  0.4160834  0.2478132  )
       175           C   tau( 175) = (  0.8330998  0.4994363 -0.0004233  )
       176           C   tau( 176) = (  0.9166310  0.5829493  0.0823146  )
       177           C   tau( 177) = (  0.6690575  0.3362360  0.3362360  )
       178           C   tau( 178) = (  0.7600880  0.4153180  0.4153180  )
       179           C   tau( 179) = (  0.8368592  0.3307529  0.4995692  )
       180           C   tau( 180) = (  0.9188806  0.4127769  0.5834031  )
       181           C   tau( 181) = (  0.8368592  0.4995692  0.3307529  )
       182           C   tau( 182) = (  0.9188806  0.5834031  0.4127769  )
       183           C   tau( 183) = (  0.6662359  0.3307529  0.6701925  )
       184           C   tau( 184) = (  0.7500697  0.4127769  0.7522140  )
       185           C   tau( 185) = (  0.6658759  0.4992093  0.8337803  )
       186           C   tau( 186) = (  0.7491538  0.5824872  0.9159900  )
       187           C   tau( 187) = (  0.8335289  0.3308918  0.8351335  )
       188           C   tau( 188) = (  0.9164968  0.4155499  0.9166531  )
       189           C   tau( 189) = (  0.8343379  0.4895660  0.6676712  )
       190           C   tau( 190) = (  0.9134268  0.5806074  0.7467601  )
       191           C   tau( 191) = (  0.6661029  0.6664331 -0.0004233  )
       192           C   tau( 192) = (  0.7496159  0.7499643  0.0823146  )
       193           C   tau( 193) = (  0.6663979  0.8344004  0.1652701  )
       194           C   tau( 194) = (  0.7498565  0.9176742  0.2485433  )
       195           C   tau( 195) = (  0.8334070  0.6667403  0.1655917  )
       196           C   tau( 196) = (  0.9168766  0.7502100  0.2485328  )
       197           C   tau( 197) = (  0.8327242  0.8325669 -0.0013280  )
       198           C   tau( 198) = (  0.9163188  0.9161625  0.0821676  )
       199           C   tau( 199) = (  0.6662359  0.6701925  0.3307529  )
       200           C   tau( 200) = (  0.7500697  0.7522140  0.4127769  )
       201           C   tau( 201) = (  0.6658759  0.8337803  0.4992093  )
       202           C   tau( 202) = (  0.7491538  0.9159900  0.5824872  )
       203           C   tau( 203) = (  0.8343379  0.6676712  0.4895660  )
       204           C   tau( 204) = (  0.9134268  0.7467601  0.5806074  )
       205           C   tau( 205) = (  0.8335289  0.8351335  0.3308918  )
       206           C   tau( 206) = (  0.9164968  0.9166531  0.4155499  )
       207           C   tau( 207) = (  0.6562327  0.6676711  0.6676712  )
       208           C   tau( 208) = (  0.7472740  0.7467601  0.7467601  )
       209           C   tau( 209) = (  0.6652755  0.8324970  0.8324970  )
       210           C   tau( 210) = (  0.7492667  0.9157269  0.9157269  )
       211           C   tau( 211) = (  0.8312916  0.6646250  0.8309394  )
       212           C   tau( 212) = (  0.9153771  0.7487105  0.9147757  )
       213           C   tau( 213) = (  0.8312916  0.8309394  0.6646250  )
       214           C   tau( 214) = (  0.9153771  0.9147757  0.7487105  )
       215           Si  tau( 215) = (  0.7081733  0.5415066  0.5415066  )

     number of k points=     1
                       cart. coord. in units 2pi/alat
        k(    1) = (   0.0000000   0.0000000   0.0000000), wk =   1.0000000

                       cryst. coord.
        k(    1) = (   0.0000000   0.0000000   0.0000000), wk =   1.0000000

     Dense  grid:   437864 G-vectors     FFT dimensions: ( 120, 120, 120)

     Estimated max dynamical RAM per process >     104.17MB

     Estimated total allocated dynamical RAM >    8333.52MB
     Generating pointlists ...
     new r_m :   0.0585 (alat units)  1.1842 (a.u.) for type    1
     new r_m :   0.0767 (alat units)  1.5505 (a.u.) for type    2

     Initial potential from superposition of free atoms

     starting charge  858.46296, renormalised to  860.00000
     Starting wfc are random

     total cpu time spent up to now is        4.0 secs

     per-process dynamical memory:    84.9 Mb

     Self-consistent Calculation

     iteration #  1     ecut=    85.00 Ry     beta=0.70
     Davidson diagonalization with overlap
     ethr =  1.00E-02,  avg # of iterations = 11.0

     total cpu time spent up to now is       26.5 secs

     total energy              =   -2444.14132049 Ry
     Harris-Foulkes estimate   =   -2449.67167330 Ry
     estimated scf accuracy    <      12.41619390 Ry

     total magnetization       =     2.00 Bohr mag/cell
     absolute magnetization    =     2.00 Bohr mag/cell

     iteration #  2     ecut=    85.00 Ry     beta=0.70
     Davidson diagonalization with overlap
     ethr =  1.44E-03,  avg # of iterations =  7.0

     total cpu time spent up to now is       35.5 secs

     total energy              =   -2445.18620534 Ry
     Harris-Foulkes estimate   =   -2445.67302133 Ry
     estimated scf accuracy    <       0.79216764 Ry

     total magnetization       =     2.00 Bohr mag/cell
     absolute magnetization    =     2.05 Bohr mag/cell

     iteration #  3     ecut=    85.00 Ry     beta=0.70
     Davidson diagonalization with overlap
     ethr =  9.21E-05,  avg # of iterations =  8.0

     total cpu time spent up to now is       52.6 secs

     total energy              =   -2444.88074051 Ry
     Harris-Foulkes estimate   =   -2446.39457950 Ry
     estimated scf accuracy    <       4.56561537 Ry

     total magnetization       =     2.00 Bohr mag/cell
     absolute magnetization    =     2.21 Bohr mag/cell

     iteration #  4     ecut=    85.00 Ry     beta=0.70
     Davidson diagonalization with overlap
     ethr =  9.21E-05,  avg # of iterations = 11.0

     total cpu time spent up to now is       69.2 secs

     total energy              =   -2445.60124490 Ry
     Harris-Foulkes estimate   =   -2445.63659193 Ry
     estimated scf accuracy    <       0.10345497 Ry

     total magnetization       =     2.00 Bohr mag/cell
     absolute magnetization    =     2.11 Bohr mag/cell

     iteration #  5     ecut=    85.00 Ry     beta=0.70
     Davidson diagonalization with overlap
     ethr =  1.20E-05,  avg # of iterations =  9.5

     total cpu time spent up to now is       81.6 secs

     total energy              =   -2445.61503655 Ry
     Harris-Foulkes estimate   =   -2445.62730117 Ry
     estimated scf accuracy    <       0.03115455 Ry

     total magnetization       =     2.00 Bohr mag/cell
     absolute magnetization    =     2.12 Bohr mag/cell

     iteration #  6     ecut=    85.00 Ry     beta=0.70
     Davidson diagonalization with overlap
     ethr =  3.62E-06,  avg # of iterations = 11.5

     total cpu time spent up to now is       95.6 secs

     total energy              =   -2445.62082051 Ry
     Harris-Foulkes estimate   =   -2445.62322436 Ry
     estimated scf accuracy    <       0.00643136 Ry

     total magnetization       =     2.00 Bohr mag/cell
     absolute magnetization    =     2.14 Bohr mag/cell

     iteration #  7     ecut=    85.00 Ry     beta=0.70
     Davidson diagonalization with overlap
     ethr =  7.48E-07,  avg # of iterations = 12.5

     total cpu time spent up to now is      110.1 secs

     total energy              =   -2445.62205159 Ry
     Harris-Foulkes estimate   =   -2445.62260736 Ry
     estimated scf accuracy    <       0.00146584 Ry

     total magnetization       =     2.00 Bohr mag/cell
     absolute magnetization    =     2.15 Bohr mag/cell

     iteration #  8     ecut=    85.00 Ry     beta=0.70
     Davidson diagonalization with overlap
     ethr =  1.70E-07,  avg # of iterations = 12.5

     total cpu time spent up to now is      124.4 secs

     total energy              =   -2445.62235750 Ry
     Harris-Foulkes estimate   =   -2445.62239801 Ry
     estimated scf accuracy    <       0.00013866 Ry

     total magnetization       =     2.00 Bohr mag/cell
     absolute magnetization    =     2.16 Bohr mag/cell

     iteration #  9     ecut=    85.00 Ry     beta=0.70
     Davidson diagonalization with overlap
     ethr =  1.61E-08,  avg # of iterations = 12.5

     total cpu time spent up to now is      140.7 secs

     total energy              =   -2445.62238825 Ry
     Harris-Foulkes estimate   =   -2445.62240313 Ry
     estimated scf accuracy    <       0.00005487 Ry

     total magnetization       =     2.00 Bohr mag/cell
     absolute magnetization    =     2.16 Bohr mag/cell

     iteration # 10     ecut=    85.00 Ry     beta=0.70
     Davidson diagonalization with overlap
     ethr =  6.38E-09,  avg # of iterations = 11.5

     total cpu time spent up to now is      153.8 secs

     total energy              =   -2445.62240173 Ry
     Harris-Foulkes estimate   =   -2445.62240139 Ry
     estimated scf accuracy    <       0.00000753 Ry

     total magnetization       =     2.00 Bohr mag/cell
     absolute magnetization    =     2.17 Bohr mag/cell

     iteration # 11     ecut=    85.00 Ry     beta=0.70
     Davidson diagonalization with overlap
     ethr =  8.76E-10,  avg # of iterations = 11.5

     total cpu time spent up to now is      169.6 secs

     total energy              =   -2445.62240494 Ry
     Harris-Foulkes estimate   =   -2445.62240442 Ry
     estimated scf accuracy    <       0.00000176 Ry

     total magnetization       =     2.00 Bohr mag/cell
     absolute magnetization    =     2.17 Bohr mag/cell

     iteration # 12     ecut=    85.00 Ry     beta=0.70
     Davidson diagonalization with overlap
     ethr =  2.05E-10,  avg # of iterations = 11.0

     total cpu time spent up to now is      185.5 secs

     total energy              =   -2445.62240570 Ry
     Harris-Foulkes estimate   =   -2445.62240563 Ry
     estimated scf accuracy    <       0.00000062 Ry

     total magnetization       =     2.00 Bohr mag/cell
     absolute magnetization    =     2.17 Bohr mag/cell

     iteration # 13     ecut=    85.00 Ry     beta=0.70
     Davidson diagonalization with overlap
     ethr =  7.15E-11,  avg # of iterations = 10.0

     total cpu time spent up to now is      199.7 secs

     total energy              =   -2445.62240600 Ry
     Harris-Foulkes estimate   =   -2445.62240594 Ry
     estimated scf accuracy    <       0.00000021 Ry

     total magnetization       =     2.00 Bohr mag/cell
     absolute magnetization    =     2.18 Bohr mag/cell

     iteration # 14     ecut=    85.00 Ry     beta=0.70
     Davidson diagonalization with overlap
     ethr =  2.48E-11,  avg # of iterations = 10.0

     total cpu time spent up to now is      215.9 secs

     total energy              =   -2445.62240609 Ry
     Harris-Foulkes estimate   =   -2445.62240612 Ry
     estimated scf accuracy    <       0.00000015 Ry

     total magnetization       =     2.00 Bohr mag/cell
     absolute magnetization    =     2.18 Bohr mag/cell

     iteration # 15     ecut=    85.00 Ry     beta=0.70
     Davidson diagonalization with overlap
     ethr =  1.79E-11,  avg # of iterations = 10.0

     total cpu time spent up to now is      228.9 secs

     total energy              =   -2445.62240613 Ry
     Harris-Foulkes estimate   =   -2445.62240613 Ry
     estimated scf accuracy    <       0.00000001 Ry

     total magnetization       =     2.00 Bohr mag/cell
     absolute magnetization    =     2.18 Bohr mag/cell

     iteration # 16     ecut=    85.00 Ry     beta=0.70
     Davidson diagonalization with overlap
     ethr =  1.43E-12,  avg # of iterations = 10.5

     total cpu time spent up to now is      246.7 secs

     total energy              =   -2445.62240614 Ry
     Harris-Foulkes estimate   =   -2445.62240614 Ry
     estimated scf accuracy    <       0.00000001 Ry

     total magnetization       =     2.00 Bohr mag/cell
     absolute magnetization    =     2.18 Bohr mag/cell

     iteration # 17     ecut=    85.00 Ry     beta=0.70
     Davidson diagonalization with overlap
     ethr =  1.38E-12,  avg # of iterations = 11.0

     total cpu time spent up to now is      260.1 secs

     total energy              =   -2445.62240614 Ry
     Harris-Foulkes estimate   =   -2445.62240614 Ry
     estimated scf accuracy    <          2.6E-09 Ry

     total magnetization       =     2.00 Bohr mag/cell
     absolute magnetization    =     2.18 Bohr mag/cell

     iteration # 18     ecut=    85.00 Ry     beta=0.70
     Davidson diagonalization with overlap
     ethr =  3.02E-13,  avg # of iterations = 13.0

     total cpu time spent up to now is      276.0 secs

     total energy              =   -2445.62240614 Ry
     Harris-Foulkes estimate   =   -2445.62240614 Ry
     estimated scf accuracy    <          8.3E-10 Ry

     total magnetization       =     2.00 Bohr mag/cell
     absolute magnetization    =     2.18 Bohr mag/cell

     iteration # 19     ecut=    85.00 Ry     beta=0.70
     Davidson diagonalization with overlap
     ethr =  1.00E-13,  avg # of iterations = 12.5

     total cpu time spent up to now is      291.5 secs

     total energy              =   -2445.62240614 Ry
     Harris-Foulkes estimate   =   -2445.62240614 Ry
     estimated scf accuracy    <          2.4E-10 Ry

     total magnetization       =     2.00 Bohr mag/cell
     absolute magnetization    =     2.18 Bohr mag/cell

     iteration # 20     ecut=    85.00 Ry     beta=0.70
     Davidson diagonalization with overlap
     ethr =  1.00E-13,  avg # of iterations = 12.0

     total cpu time spent up to now is      303.4 secs

     total energy              =   -2445.62240614 Ry
     Harris-Foulkes estimate   =   -2445.62240614 Ry
     estimated scf accuracy    <          1.1E-10 Ry

     total magnetization       =     2.00 Bohr mag/cell
     absolute magnetization    =     2.18 Bohr mag/cell

     iteration # 21     ecut=    85.00 Ry     beta=0.70
     Davidson diagonalization with overlap
     ethr =  1.00E-13,  avg # of iterations =  7.0
 
     Magnetic moment per site:
     atom:    1    charge:    1.9441    magn:    0.0013    constr:    0.0000
     atom:    2    charge:    1.9428    magn:    0.0020    constr:    0.0000
     atom:    3    charge:    1.9434    magn:    0.0015    constr:    0.0000
     atom:    4    charge:    1.9441    magn:    0.0026    constr:    0.0000
     atom:    5    charge:    1.9431    magn:    0.0020    constr:    0.0000
     atom:    6    charge:    1.9449    magn:    0.0013    constr:    0.0000
     atom:    7    charge:    1.9431    magn:    0.0020    constr:    0.0000
     atom:    8    charge:    1.9449    magn:    0.0013    constr:    0.0000
     atom:    9    charge:    1.9435    magn:    0.0024    constr:    0.0000
     atom:   10    charge:    1.9465    magn:    0.0027    constr:    0.0000
     atom:   11    charge:    1.9461    magn:    0.0028    constr:    0.0000
     atom:   12    charge:    1.9462    magn:    0.0028    constr:    0.0000
     atom:   13    charge:    1.9441    magn:    0.0026    constr:    0.0000
     atom:   14    charge:    1.9443    magn:    0.0026    constr:    0.0000
     atom:   15    charge:    1.9421    magn:    0.0008    constr:    0.0000
     atom:   16    charge:    1.9419    magn:    0.0006    constr:    0.0000
     atom:   17    charge:    1.9413    magn:    0.0006    constr:    0.0000
     atom:   18    charge:    1.9415    magn:    0.0008    constr:    0.0000
     atom:   19    charge:    1.9439    magn:    0.0026    constr:    0.0000
     atom:   20    charge:    1.9432    magn:    0.0015    constr:    0.0000
     atom:   21    charge:    1.9441    magn:    0.0013    constr:    0.0000
     atom:   22    charge:    1.9428    magn:    0.0020    constr:    0.0000
     atom:   23    charge:    1.9464    magn:    0.0027    constr:    0.0000
     atom:   24    charge:    1.9435    magn:    0.0024    constr:    0.0000
     atom:   25    charge:    1.9435    magn:    0.0024    constr:    0.0000
     atom:   26    charge:    1.9465    magn:    0.0027    constr:    0.0000
     atom:   27    charge:    1.9461    magn:    0.0028    constr:    0.0000
     atom:   28    charge:    1.9462    magn:    0.0028    constr:    0.0000
     atom:   29    charge:    1.9421    magn:    0.0008    constr:    0.0000
     atom:   30    charge:    1.9419    magn:    0.0006    constr:    0.0000
     atom:   31    charge:    1.9441    magn:    0.0026    constr:    0.0000
     atom:   32    charge:    1.9443    magn:    0.0026    constr:    0.0000
     atom:   33    charge:    1.9408    magn:    0.0003    constr:    0.0000
     atom:   34    charge:    1.9420    magn:    0.0013    constr:    0.0000
     atom:   35    charge:    1.9344    magn:    0.0029    constr:    0.0000
     atom:   36    charge:    1.9425    magn:    0.0007    constr:    0.0000
     atom:   37    charge:    1.9426    magn:    0.0004    constr:    0.0000
     atom:   38    charge:    1.9425    magn:    0.0013    constr:    0.0000
     atom:   39    charge:    1.9426    magn:    0.0004    constr:    0.0000
     atom:   40    charge:    1.9425    magn:    0.0013    constr:    0.0000
     atom:   41    charge:    1.9492    magn:    0.0117    constr:    0.0000
     atom:   42    charge:    1.9434    magn:    0.0005    constr:    0.0000
     atom:   43    charge:    1.9327    magn:    0.0095    constr:    0.0000
     atom:   44    charge:    1.9394    magn:    0.0013    constr:    0.0000
     atom:   45    charge:    1.9435    magn:    0.0024    constr:    0.0000
     atom:   46    charge:    1.9465    magn:    0.0027    constr:    0.0000
     atom:   47    charge:    1.9420    magn:    0.0013    constr:    0.0000
     atom:   48    charge:    1.9420    magn:    0.0004    constr:    0.0000
     atom:   49    charge:    1.9413    magn:    0.0006    constr:    0.0000
     atom:   50    charge:    1.9415    magn:    0.0008    constr:    0.0000
     atom:   51    charge:    1.9439    magn:    0.0026    constr:    0.0000
     atom:   52    charge:    1.9432    magn:    0.0015    constr:    0.0000
     atom:   53    charge:    1.9464    magn:    0.0027    constr:    0.0000
     atom:   54    charge:    1.9435    magn:    0.0024    constr:    0.0000
     atom:   55    charge:    1.9441    magn:    0.0013    constr:    0.0000
     atom:   56    charge:    1.9428    magn:    0.0020    constr:    0.0000
     atom:   57    charge:    1.9492    magn:    0.0117    constr:    0.0000
     atom:   58    charge:    1.9434    magn:    0.0005    constr:    0.0000
     atom:   59    charge:    1.9327    magn:    0.0095    constr:    0.0000
     atom:   60    charge:    1.9394    magn:    0.0013    constr:    0.0000
     atom:   61    charge:    1.9420    magn:    0.0013    constr:    0.0000
     atom:   62    charge:    1.9420    magn:    0.0004    constr:    0.0000
     atom:   63    charge:    1.9435    magn:    0.0024    constr:    0.0000
     atom:   64    charge:    1.9465    magn:    0.0027    constr:    0.0000
     atom:   65    charge:    1.9346    magn:    0.0032    constr:    0.0000
     atom:   66    charge:    1.9356    magn:    0.0003    constr:    0.0000
     atom:   67    charge:    1.9424    magn:    0.0001    constr:    0.0000
     atom:   68    charge:    1.9406    magn:    0.0010    constr:    0.0000
     atom:   69    charge:    1.9413    magn:    0.0006    constr:    0.0000
     atom:   70    charge:    1.9415    magn:    0.0008    constr:    0.0000
     atom:   71    charge:    1.9413    magn:    0.0006    constr:    0.0000
     atom:   72    charge:    1.9415    magn:    0.0008    constr:    0.0000
     atom:   73    charge:    1.9431    magn:    0.0020    constr:    0.0000
     atom:   74    charge:    1.9449    magn:    0.0013    constr:    0.0000
     atom:   75    charge:    1.9414    magn:    0.0010    constr:    0.0000
     atom:   76    charge:    1.9425    magn:    0.0001    constr:    0.0000
     atom:   77    charge:    1.9421    magn:    0.0008    constr:    0.0000
     atom:   78    charge:    1.9419    magn:    0.0006    constr:    0.0000
     atom:   79    charge:    1.9421    magn:    0.0008    constr:    0.0000
     atom:   80    charge:    1.9419    magn:    0.0006    constr:    0.0000
     atom:   81    charge:    1.9421    magn:    0.0008    constr:    0.0000
     atom:   82    charge:    1.9419    magn:    0.0006    constr:    0.0000
     atom:   83    charge:    1.9404    magn:    0.0013    constr:    0.0000
     atom:   84    charge:    1.9333    magn:    0.0095    constr:    0.0000
     atom:   85    charge:    1.9426    magn:    0.0004    constr:    0.0000
     atom:   86    charge:    1.9425    magn:    0.0013    constr:    0.0000
     atom:   87    charge:    1.9356    magn:    0.0003    constr:    0.0000
     atom:   88    charge:    1.9346    magn:    0.0032    constr:    0.0000
     atom:   89    charge:    1.9464    magn:    0.0027    constr:    0.0000
     atom:   90    charge:    1.9435    magn:    0.0024    constr:    0.0000
     atom:   91    charge:    1.9434    magn:    0.0015    constr:    0.0000
     atom:   92    charge:    1.9441    magn:    0.0026    constr:    0.0000
     atom:   93    charge:    1.9435    magn:    0.0024    constr:    0.0000
     atom:   94    charge:    1.9465    magn:    0.0027    constr:    0.0000
     atom:   95    charge:    1.9438    magn:    0.0005    constr:    0.0000
     atom:   96    charge:    1.9492    magn:    0.0117    constr:    0.0000
     atom:   97    charge:    1.9421    magn:    0.0008    constr:    0.0000
     atom:   98    charge:    1.9419    magn:    0.0006    constr:    0.0000
     atom:   99    charge:    1.9404    magn:    0.0013    constr:    0.0000
     atom:  100    charge:    1.9333    magn:    0.0095    constr:    0.0000
     atom:  101    charge:    1.9356    magn:    0.0003    constr:    0.0000
     atom:  102    charge:    1.9346    magn:    0.0032    constr:    0.0000
     atom:  103    charge:    1.9426    magn:    0.0004    constr:    0.0000
     atom:  104    charge:    1.9425    magn:    0.0013    constr:    0.0000
     atom:  105    charge:    1.9356    magn:    0.0003    constr:    0.0000
     atom:  106    charge:    1.9346    magn:    0.0032    constr:    0.0000
     atom:  107    charge:    1.9436    magn:    0.0007    constr:    0.0000
     atom:  108    charge:    1.9349    magn:    0.0030    constr:    0.0000
     atom:  109    charge:    1.9234    magn:   -0.0002    constr:    0.0000
     atom:  110    charge:    1.9412    magn:    0.1018    constr:    0.0000
     atom:  111    charge:    1.9234    magn:   -0.0002    constr:    0.0000
     atom:  112    charge:    1.9412    magn:    0.1018    constr:    0.0000
     atom:  113    charge:    1.9438    magn:    0.0005    constr:    0.0000
     atom:  114    charge:    1.9492    magn:    0.0117    constr:    0.0000
     atom:  115    charge:    1.9461    magn:    0.0028    constr:    0.0000
     atom:  116    charge:    1.9462    magn:    0.0028    constr:    0.0000
     atom:  117    charge:    1.9408    magn:    0.0003    constr:    0.0000
     atom:  118    charge:    1.9420    magn:    0.0013    constr:    0.0000
     atom:  119    charge:    1.9519    magn:    0.0064    constr:    0.0000
     atom:  120    charge:    1.9520    magn:    0.0063    constr:    0.0000
     atom:  121    charge:    1.9464    magn:    0.0027    constr:    0.0000
     atom:  122    charge:    1.9435    magn:    0.0024    constr:    0.0000
     atom:  123    charge:    1.9434    magn:    0.0015    constr:    0.0000
     atom:  124    charge:    1.9441    magn:    0.0026    constr:    0.0000
     atom:  125    charge:    1.9438    magn:    0.0005    constr:    0.0000
     atom:  126    charge:    1.9492    magn:    0.0117    constr:    0.0000
     atom:  127    charge:    1.9435    magn:    0.0024    constr:    0.0000
     atom:  128    charge:    1.9465    magn:    0.0027    constr:    0.0000
     atom:  129    charge:    1.9438    magn:    0.0005    constr:    0.0000
     atom:  130    charge:    1.9492    magn:    0.0117    constr:    0.0000
     atom:  131    charge:    1.9461    magn:    0.0028    constr:    0.0000
     atom:  132    charge:    1.9462    magn:    0.0028    constr:    0.0000
     atom:  133    charge:    1.9519    magn:    0.0064    constr:    0.0000
     atom:  134    charge:    1.9520    magn:    0.0063    constr:    0.0000
     atom:  135    charge:    1.9408    magn:    0.0003    constr:    0.0000
     atom:  136    charge:    1.9420    magn:    0.0013    constr:    0.0000
     atom:  137    charge:    1.9418    magn:    0.0013    constr:    0.0000
     atom:  138    charge:    1.9409    magn:    0.0003    constr:    0.0000
     atom:  139    charge:    1.9439    magn:    0.0026    constr:    0.0000
     atom:  140    charge:    1.9432    magn:    0.0015    constr:    0.0000
     atom:  141    charge:    1.9492    magn:    0.0117    constr:    0.0000
     atom:  142    charge:    1.9434    magn:    0.0005    constr:    0.0000
     atom:  143    charge:    1.9492    magn:    0.0117    constr:    0.0000
     atom:  144    charge:    1.9434    magn:    0.0005    constr:    0.0000
     atom:  145    charge:    1.9441    magn:    0.0026    constr:    0.0000
     atom:  146    charge:    1.9443    magn:    0.0026    constr:    0.0000
     atom:  147    charge:    1.9404    magn:    0.0013    constr:    0.0000
     atom:  148    charge:    1.9333    magn:    0.0095    constr:    0.0000
     atom:  149    charge:    1.9464    magn:    0.0027    constr:    0.0000
     atom:  150    charge:    1.9435    magn:    0.0024    constr:    0.0000
     atom:  151    charge:    1.9464    magn:    0.0027    constr:    0.0000
     atom:  152    charge:    1.9435    magn:    0.0024    constr:    0.0000
     atom:  153    charge:    1.9426    magn:    0.0004    constr:    0.0000
     atom:  154    charge:    1.9425    magn:    0.0013    constr:    0.0000
     atom:  155    charge:    1.9436    magn:    0.0007    constr:    0.0000
     atom:  156    charge:    1.9349    magn:    0.0030    constr:    0.0000
     atom:  157    charge:    1.9420    magn:    0.0013    constr:    0.0000
     atom:  158    charge:    1.9420    magn:    0.0004    constr:    0.0000
     atom:  159    charge:    1.9438    magn:    0.0005    constr:    0.0000
     atom:  160    charge:    1.9492    magn:    0.0117    constr:    0.0000
     atom:  161    charge:    1.9420    magn:    0.0013    constr:    0.0000
     atom:  162    charge:    1.9420    magn:    0.0004    constr:    0.0000
     atom:  163    charge:    1.9461    magn:    0.0028    constr:    0.0000
     atom:  164    charge:    1.9462    magn:    0.0028    constr:    0.0000
     atom:  165    charge:    1.9413    magn:    0.0006    constr:    0.0000
     atom:  166    charge:    1.9415    magn:    0.0008    constr:    0.0000
     atom:  167    charge:    1.9418    magn:    0.0013    constr:    0.0000
     atom:  168    charge:    1.9409    magn:    0.0003    constr:    0.0000
     atom:  169    charge:    1.9426    magn:    0.0004    constr:    0.0000
     atom:  170    charge:    1.9425    magn:    0.0013    constr:    0.0000
     atom:  171    charge:    1.9436    magn:    0.0007    constr:    0.0000
     atom:  172    charge:    1.9349    magn:    0.0030    constr:    0.0000
     atom:  173    charge:    1.9438    magn:    0.0005    constr:    0.0000
     atom:  174    charge:    1.9492    magn:    0.0117    constr:    0.0000
     atom:  175    charge:    1.9420    magn:    0.0013    constr:    0.0000
     atom:  176    charge:    1.9420    magn:    0.0004    constr:    0.0000
     atom:  177    charge:    1.9234    magn:   -0.0002    constr:    0.0000
     atom:  178    charge:    1.9412    magn:    0.1018    constr:    0.0000
     atom:  179    charge:    1.9519    magn:    0.0064    constr:    0.0000
     atom:  180    charge:    1.9520    magn:    0.0063    constr:    0.0000
     atom:  181    charge:    1.9519    magn:    0.0064    constr:    0.0000
     atom:  182    charge:    1.9520    magn:    0.0063    constr:    0.0000
     atom:  183    charge:    1.9519    magn:    0.0064    constr:    0.0000
     atom:  184    charge:    1.9520    magn:    0.0063    constr:    0.0000
     atom:  185    charge:    1.9344    magn:    0.0029    constr:    0.0000
     atom:  186    charge:    1.9425    magn:    0.0007    constr:    0.0000
     atom:  187    charge:    1.9492    magn:    0.0117    constr:    0.0000
     atom:  188    charge:    1.9434    magn:    0.0005    constr:    0.0000
     atom:  189    charge:    1.9410    magn:    0.1017    constr:    0.0000
     atom:  190    charge:    1.9235    magn:   -0.0002    constr:    0.0000
     atom:  191    charge:    1.9420    magn:    0.0013    constr:    0.0000
     atom:  192    charge:    1.9420    magn:    0.0004    constr:    0.0000
     atom:  193    charge:    1.9461    magn:    0.0028    constr:    0.0000
     atom:  194    charge:    1.9462    magn:    0.0028    constr:    0.0000
     atom:  195    charge:    1.9418    magn:    0.0013    constr:    0.0000
     atom:  196    charge:    1.9409    magn:    0.0003    constr:    0.0000
     atom:  197    charge:    1.9413    magn:    0.0006    constr:    0.0000
     atom:  198    charge:    1.9415    magn:    0.0008    constr:    0.0000
     atom:  199    charge:    1.9519    magn:    0.0064    constr:    0.0000
     atom:  200    charge:    1.9520    magn:    0.0063    constr:    0.0000
     atom:  201    charge:    1.9344    magn:    0.0029    constr:    0.0000
     atom:  202    charge:    1.9425    magn:    0.0007    constr:    0.0000
     atom:  203    charge:    1.9410    magn:    0.1017    constr:    0.0000
     atom:  204    charge:    1.9235    magn:   -0.0002    constr:    0.0000
     atom:  205    charge:    1.9492    magn:    0.0117    constr:    0.0000
     atom:  206    charge:    1.9434    magn:    0.0005    constr:    0.0000
     atom:  207    charge:    1.9410    magn:    0.1017    constr:    0.0000
     atom:  208    charge:    1.9235    magn:   -0.0002    constr:    0.0000
     atom:  209    charge:    1.9327    magn:    0.0095    constr:    0.0000
     atom:  210    charge:    1.9394    magn:    0.0013    constr:    0.0000
     atom:  211    charge:    1.9346    magn:    0.0032    constr:    0.0000
     atom:  212    charge:    1.9356    magn:    0.0003    constr:    0.0000
     atom:  213    charge:    1.9346    magn:    0.0032    constr:    0.0000
     atom:  214    charge:    1.9356    magn:    0.0003    constr:    0.0000
     atom:  215    charge:    1.1876    magn:    0.0163    constr:    0.0000

     total cpu time spent up to now is      310.0 secs

     End of self-consistent calculation

 ------ SPIN UP ------------


          k = 0.0000 0.0000 0.0000 ( 54564 PWs)   bands (ev):

    -8.1426  -7.1687  -7.1687  -7.1525  -7.1525  -7.0761  -7.0008  -6.1801
    -6.1657  -6.1657  -6.1536  -6.1536  -6.1436  -6.1436  -6.1035  -6.1035
    -6.0999  -6.0068  -5.8356  -5.1658  -5.1595  -5.1595  -5.1390  -5.1308
    -5.1308  -5.0639  -4.8961  -4.1602  -4.1602  -4.1326  -4.1326  -4.0839
    -4.0489  -3.2804  -3.2686  -3.2474  -3.2474  -3.2423  -3.2423  -3.2378
    -3.2251  -3.2226  -3.2226  -3.2203  -3.2203  -3.2016  -3.2016  -3.1940
    -3.1940  -3.1919  -3.1641  -3.1558  -3.1558  -3.1376  -3.1376  -2.9648
    -2.8915  -2.4730  -2.4706  -2.4706  -2.4520  -2.4520  -2.4430  -2.4411
    -2.4315  -2.4315  -2.4292  -2.4292  -2.4199  -2.4199  -2.4079  -2.4079
    -2.3664  -2.3664  -2.3516  -2.3516  -2.3393  -2.3305  -2.3305  -1.8734
    -1.4197  -0.7761  -0.7754  -0.7754  -0.7474  -0.7423  -0.7423  -0.7278
    -0.7278  -0.6843  -0.6843  -0.5222  -0.1646   0.5270   0.5270   0.5602
     0.5685   0.5685   0.6193   1.0133   1.0133   1.0334   1.0354   1.0414
     1.0414   1.0497   1.0579   1.0660   1.0660   1.0719   1.0793   1.0793
     1.1048   1.1176   1.1176   1.1204   1.1204   1.1460   1.1460   1.1599
     1.1599   1.1998   1.2114   1.2456   1.2541   1.2541   1.2565   1.2565
     1.2704   1.2704   1.2821   1.2821   1.2836   1.2836   1.2863   1.2871
     1.2918   1.2987   1.3018   1.3018   1.3865   1.3865   1.4901   1.5582
     1.5582   1.9588   2.0842   2.3263   2.3499   2.3499   2.3716   2.3716
     2.3844   2.4086   2.4086   2.4625   2.4625   3.1063   3.1538   3.8998
     3.9001   3.9002   3.9002   3.9003   3.9003   3.9127   3.9127   3.9169
     3.9169   3.9170   3.9320   3.9371   3.9987   3.9987   4.0357   4.0445
     4.0445   4.0953   4.1331   4.5647   4.5656   4.5656   4.5677   4.5677
     4.5695   4.5870   4.5902   4.5910   4.5910   4.5986   4.5986   4.6099
     4.6099   4.6132   4.6373   4.6373   4.6549   4.7207   4.7207   4.7425
     4.7425   5.1517   5.4055   5.4341   5.4395   5.4395   5.4447   5.4484
     5.4571   5.4571   5.4590   5.4590   5.4593   5.4593   5.4773   5.4773
     5.4902   5.4998   5.5232   5.5247   5.5247   5.5809   5.5809   5.6368
     5.6368   5.6681   5.6750   5.9262   5.9338   5.9473   5.9511   5.9511
     5.9600   5.9600   5.9634   5.9634   5.9635   5.9811   5.9837   5.9837
     6.0115   6.0115   6.0154   6.0154   6.0403   6.0556   6.0556   6.0750
     6.1112   6.1112   6.2528   6.2528   6.3174   6.3174   6.4265   6.7166
     6.7244   6.9789   7.0055   7.0055   7.0621   7.0621   7.0770   7.5694
     7.5753   7.5753   7.5850   7.5850   7.6153   7.6297   7.6297   7.6357
     7.6357   7.7303   7.9259   7.9551   7.9551   7.9582   7.9609   7.9694
     7.9789   7.9789   7.9980   7.9980   8.0381   8.0521   8.0521   8.2427
     8.2531   8.2531   8.2542   8.2542   8.2558   8.2705   8.2731   8.2731
     8.2830   8.2830   8.2832   8.2986   8.3076   8.3076   8.3141   8.3141
     8.3267   8.3364   8.3364   8.3373   8.3373   8.3701   8.4112   8.4165
     8.4256   8.4281   8.4281   8.4429   8.4429   8.4449   8.4449   8.4459
     8.4580   8.4602   8.4665   8.4665   8.4673   8.4697   8.4697   8.4816
     8.4816   8.4847   8.4847   8.4868   8.4890   8.4890   8.5030   8.5030
     8.5257   8.5257   8.5275   8.5596   8.5607   8.5607   8.5652   8.5730
     8.5730   8.5817   8.6212   8.6231   8.6361   8.6361   8.6366   8.6366
     8.9071   8.9569   8.9569   9.0160   9.0160   9.0828   9.2652   9.2811
     9.2873   9.2873   9.2895   9.2950   9.2998   9.2998   9.3034   9.3075
     9.3115   9.3115   9.3151   9.3151   9.3227   9.3507   9.3507   9.3513
     9.3513   9.5952   9.8485   9.8485  10.1246  10.1246  10.3483  10.6750
    10.6855  10.6855  10.6900  10.7033  10.7033  10.7405  10.7622  10.7622
    10.8022  10.8292  10.8292  10.9264  10.9301  10.9301  10.9339  10.9339
    10.9485  10.9485  10.9556  10.9677  10.9878  10.9878  11.0054  11.0054
    11.0260  11.0407  11.0407  11.4061  11.5063  11.5063  11.5815  11.5815
    11.6962  11.8497  11.8683  11.8748  11.8962  11.8962  11.9136  11.9136
    12.2884  12.2884  12.8322  12.8322  13.1761  13.7878  13.7878  17.4735
    17.4735  17.4778  17.4901  17.4901  17.5244  18.0712  18.0712  18.0862
    18.0960  18.0960  18.1298  18.2417  18.2417  18.2691  18.2893  18.2893

     occupation numbers 
     1.0000   1.0000   1.0000   1.0000   1.0000   1.0000   1.0000   1.0000
     1.0000   1.0000   1.0000   1.0000   1.0000   1.0000   1.0000   1.0000
     1.0000   1.0000   1.0000   1.0000   1.0000   1.0000   1.0000   1.0000
     1.0000   1.0000   1.0000   1.0000   1.0000   1.0000   1.0000   1.0000
     1.0000   1.0000   1.0000   1.0000   1.0000   1.0000   1.0000   1.0000
     1.0000   1.0000   1.0000   1.0000   1.0000   1.0000   1.0000   1.0000
     1.0000   1.0000   1.0000   1.0000   1.0000   1.0000   1.0000   1.0000
     1.0000   1.0000   1.0000   1.0000   1.0000   1.0000   1.0000   1.0000
     1.0000   1.0000   1.0000   1.0000   1.0000   1.0000   1.0000   1.0000
     1.0000   1.0000   1.0000   1.0000   1.0000   1.0000   1.0000   1.0000
     1.0000   1.0000   1.0000   1.0000   1.0000   1.0000   1.0000   1.0000
     1.0000   1.0000   1.0000   1.0000   1.0000   1.0000   1.0000   1.0000
     1.0000   1.0000   1.0000   1.0000   1.0000   1.0000   1.0000   1.0000
     1.0000   1.0000   1.0000   1.0000   1.0000   1.0000   1.0000   1.0000
     1.0000   1.0000   1.0000   1.0000   1.0000   1.0000   1.0000   1.0000
     1.0000   1.0000   1.0000   1.0000   1.0000   1.0000   1.0000   1.0000
     1.0000   1.0000   1.0000   1.0000   1.0000   1.0000   1.0000   1.0000
     1.0000   1.0000   1.0000   1.0000   1.0000   1.0000   1.0000   1.0000
     1.0000   1.0000   1.0000   1.0000   1.0000   1.0000   1.0000   1.0000
     1.0000   1.0000   1.0000   1.0000   1.0000   1.0000   1.0000   1.0000
     1.0000   1.0000   1.0000   1.0000   1.0000   1.0000   1.0000   1.0000
     1.0000   1.0000   1.0000   1.0000   1.0000   1.0000   1.0000   1.0000
     1.0000   1.0000   1.0000   1.0000   1.0000   1.0000   1.0000   1.0000
     1.0000   1.0000   1.0000   1.0000   1.0000   1.0000   1.0000   1.0000
     1.0000   1.0000   1.0000   1.0000   1.0000   1.0000   1.0000   1.0000
     1.0000   1.0000   1.0000   1.0000   1.0000   1.0000   1.0000   1.0000
     1.0000   1.0000   1.0000   1.0000   1.0000   1.0000   1.0000   1.0000
     1.0000   1.0000   1.0000   1.0000   1.0000   1.0000   1.0000   1.0000
     1.0000   1.0000   1.0000   1.0000   1.0000   1.0000   1.0000   1.0000
     1.0000   1.0000   1.0000   1.0000   1.0000   1.0000   1.0000   1.0000
     1.0000   1.0000   1.0000   1.0000   1.0000   1.0000   1.0000   1.0000
     1.0000   1.0000   1.0000   1.0000   1.0000   1.0000   1.0000   1.0000
     1.0000   1.0000   1.0000   1.0000   1.0000   1.0000   1.0000   1.0000
     1.0000   1.0000   1.0000   1.0000   1.0000   1.0000   1.0000   1.0000
     1.0000   1.0000   1.0000   1.0000   1.0000   1.0000   1.0000   1.0000
     1.0000   1.0000   1.0000   1.0000   1.0000   1.0000   1.0000   1.0000
     1.0000   1.0000   1.0000   1.0000   1.0000   1.0000   1.0000   1.0000
     1.0000   1.0000   1.0000   1.0000   1.0000   1.0000   1.0000   1.0000
     1.0000   1.0000   1.0000   1.0000   1.0000   1.0000   1.0000   1.0000
     1.0000   1.0000   1.0000   1.0000   1.0000   1.0000   1.0000   1.0000
     1.0000   1.0000   1.0000   1.0000   1.0000   1.0000   1.0000   1.0000
     1.0000   1.0000   1.0000   1.0000   1.0000   1.0000   1.0000   1.0000
     1.0000   1.0000   1.0000   1.0000   1.0000   1.0000   1.0000   1.0000
     1.0000   1.0000   1.0000   1.0000   1.0000   1.0000   1.0000   1.0000
     1.0000   1.0000   1.0000   1.0000   1.0000   1.0000   1.0000   1.0000
     1.0000   1.0000   1.0000   1.0000   1.0000   1.0000   1.0000   1.0000
     1.0000   1.0000   1.0000   1.0000   1.0000   1.0000   1.0000   1.0000
     1.0000   1.0000   1.0000   1.0000   1.0000   1.0000   1.0000   1.0000
     1.0000   1.0000   1.0000   1.0000   1.0000   1.0000   1.0000   1.0000
     1.0000   1.0000   1.0000   1.0000   1.0000   1.0000   1.0000   1.0000
     1.0000   1.0000   1.0000   1.0000   1.0000   1.0000   1.0000   1.0000
     1.0000   1.0000   1.0000   1.0000   1.0000   1.0000   1.0000   1.0000
     1.0000   1.0000   1.0000   1.0000   1.0000   1.0000   1.0000   1.0000
     1.0000   1.0000   1.0000   1.0000   1.0000   1.0000   1.0000   0.0000
     0.0000   0.0000   0.0000   0.0000   0.0000   0.0000   0.0000   0.0000
     0.0000   0.0000   0.0000   0.0000   0.0000   0.0000   0.0000   0.0000

 ------ SPIN DOWN ----------


          k = 0.0000 0.0000 0.0000 ( 54564 PWs)   bands (ev):

    -8.1340  -7.1572  -7.1572  -7.1472  -7.1472  -7.0697  -6.9844  -6.1721
    -6.1530  -6.1530  -6.1442  -6.1442  -6.1391  -6.1391  -6.0937  -6.0910
    -6.0910  -5.9927  -5.8113  -5.1555  -5.1441  -5.1441  -5.1317  -5.1202
    -5.1202  -5.0534  -4.8711  -4.1463  -4.1463  -4.1234  -4.1234  -4.0760
    -4.0380  -3.2675  -3.2539  -3.2331  -3.2316  -3.2316  -3.2310  -3.2310
    -3.2221  -3.2155  -3.2155  -3.2150  -3.2150  -3.1946  -3.1946  -3.1883
    -3.1842  -3.1842  -3.1577  -3.1421  -3.1421  -3.1157  -3.1157  -2.9505
    -2.8764  -2.4633  -2.4633  -2.4619  -2.4412  -2.4412  -2.4348  -2.4301
    -2.4251  -2.4242  -2.4218  -2.4218  -2.4111  -2.4111  -2.3961  -2.3961
    -2.3561  -2.3561  -2.3321  -2.3321  -2.3292  -2.2963  -2.2963  -1.8215
    -1.3759  -0.7666  -0.7638  -0.7638  -0.7404  -0.7200  -0.7200  -0.7179
    -0.7179  -0.6699  -0.6699  -0.4874  -0.1180   0.5390   0.5390   0.5689
     0.5778   0.5778   0.6294   1.0224   1.0224   1.0380   1.0452   1.0516
     1.0516   1.0649   1.0699   1.0748   1.0748   1.0763   1.0858   1.0858
     1.1129   1.1281   1.1281   1.1288   1.1288   1.1682   1.1682   1.1763
     1.1763   1.2186   1.2226   1.2518   1.2602   1.2602   1.2613   1.2613
     1.2779   1.2779   1.2913   1.2913   1.2945   1.2946   1.2946   1.2984
     1.3015   1.3062   1.3130   1.3130   1.4168   1.4168   1.5038   1.5972
     1.5972   1.9833   2.1124   2.3403   2.3585   2.3585   2.3806   2.3806
     2.3902   2.4309   2.4309   2.4928   2.4928   3.1764   3.2266   3.9077
     3.9077   3.9104   3.9104   3.9106   3.9114   3.9191   3.9191   3.9216
     3.9289   3.9289   3.9373   3.9415   4.0129   4.0129   4.0480   4.0632
     4.0632   4.1084   4.1604   4.5704   4.5789   4.5789   4.5796   4.5796
     4.5803   4.5940   4.5989   4.5989   4.6022   4.6045   4.6045   4.6168
     4.6168   4.6209   4.6461   4.6461   4.6665   4.7593   4.7593   4.7693
     4.7693   5.2018   5.4202   5.4435   5.4435   5.4511   5.4514   5.4531
     5.4621   5.4621   5.4649   5.4649   5.4728   5.4728   5.4837   5.4837
     5.4982   5.5093   5.5361   5.5361   5.5381   5.5961   5.5961   5.6573
     5.6573   5.6807   5.7109   5.9378   5.9417   5.9533   5.9595   5.9595
     5.9686   5.9686   5.9714   5.9714   5.9716   5.9886   5.9921   5.9921
     6.0256   6.0256   6.0285   6.0285   6.0594   6.0672   6.0672   6.0913
     6.1235   6.1235   6.2828   6.2828   6.3595   6.3595   6.4540   6.7766
     6.8044   6.9935   7.0166   7.0166   7.0818   7.0818   7.0871   7.5797
     7.5830   7.5830   7.5924   7.5924   7.6251   7.6423   7.6423   7.6546
     7.6546   7.7493   7.9501   7.9639   7.9639   7.9700   7.9772   7.9876
     7.9964   7.9964   8.0084   8.0084   8.0455   8.0637   8.0637   8.2538
     8.2607   8.2607   8.2616   8.2616   8.2624   8.2753   8.2785   8.2785
     8.2946   8.2946   8.3019   8.3065   8.3217   8.3217   8.3218   8.3218
     8.3329   8.3438   8.3438   8.3486   8.3486   8.3893   8.4237   8.4276
     8.4350   8.4438   8.4438   8.4499   8.4507   8.4507   8.4558   8.4558
     8.4666   8.4676   8.4741   8.4752   8.4752   8.4762   8.4762   8.4915
     8.4915   8.4927   8.4927   8.4928   8.4969   8.4969   8.5151   8.5151
     8.5377   8.5400   8.5400   8.5672   8.5691   8.5691   8.5752   8.5913
     8.5913   8.5913   8.6361   8.6486   8.6512   8.6512   8.6616   8.6616
     8.9736   8.9851   8.9851   9.0423   9.0423   9.1073   9.2803   9.2896
     9.2956   9.2956   9.3027   9.3110   9.3110   9.3149   9.3182   9.3186
     9.3186   9.3227   9.3264   9.3264   9.3332   9.3667   9.3667   9.3689
     9.3689   9.7811   9.9184   9.9184  10.2246  10.2246  10.3647  10.6846
    10.6935  10.6935  10.6983  10.7105  10.7105  10.7526  10.7739  10.7739
    10.8061  10.8398  10.8398  10.9361  10.9439  10.9439  10.9462  10.9462
    10.9553  10.9553  10.9778  10.9804  11.0037  11.0037  11.0161  11.0161
    11.0388  11.0487  11.0487  11.5324  11.5500  11.5500  11.6613  11.6613
    11.7043  11.8615  11.8794  11.8814  11.9044  11.9044  11.9274  11.9274
    12.5190  12.5190  12.9575  12.9575  13.1824  14.1849  14.1849  17.4823
    17.4823  17.4868  17.4972  17.4972  17.5355  18.0815  18.0815  18.0962
    18.1053  18.1053  18.1399  18.2497  18.2497  18.2772  18.2992  18.2992

     occupation numbers 
     1.0000   1.0000   1.0000   1.0000   1.0000   1.0000   1.0000   1.0000
     1.0000   1.0000   1.0000   1.0000   1.0000   1.0000   1.0000   1.0000
     1.0000   1.0000   1.0000   1.0000   1.0000   1.0000   1.0000   1.0000
     1.0000   1.0000   1.0000   1.0000   1.0000   1.0000   1.0000   1.0000
     1.0000   1.0000   1.0000   1.0000   1.0000   1.0000   1.0000   1.0000
     1.0000   1.0000   1.0000   1.0000   1.0000   1.0000   1.0000   1.0000
     1.0000   1.0000   1.0000   1.0000   1.0000   1.0000   1.0000   1.0000
     1.0000   1.0000   1.0000   1.0000   1.0000   1.0000   1.0000   1.0000
     1.0000   1.0000   1.0000   1.0000   1.0000   1.0000   1.0000   1.0000
     1.0000   1.0000   1.0000   1.0000   1.0000   1.0000   1.0000   1.0000
     1.0000   1.0000   1.0000   1.0000   1.0000   1.0000   1.0000   1.0000
     1.0000   1.0000   1.0000   1.0000   1.0000   1.0000   1.0000   1.0000
     1.0000   1.0000   1.0000   1.0000   1.0000   1.0000   1.0000   1.0000
     1.0000   1.0000   1.0000   1.0000   1.0000   1.0000   1.0000   1.0000
     1.0000   1.0000   1.0000   1.0000   1.0000   1.0000   1.0000   1.0000
     1.0000   1.0000   1.0000   1.0000   1.0000   1.0000   1.0000   1.0000
     1.0000   1.0000   1.0000   1.0000   1.0000   1.0000   1.0000   1.0000
     1.0000   1.0000   1.0000   1.0000   1.0000   1.0000   1.0000   1.0000
     1.0000   1.0000   1.0000   1.0000   1.0000   1.0000   1.0000   1.0000
     1.0000   1.0000   1.0000   1.0000   1.0000   1.0000   1.0000   1.0000
     1.0000   1.0000   1.0000   1.0000   1.0000   1.0000   1.0000   1.0000
     1.0000   1.0000   1.0000   1.0000   1.0000   1.0000   1.0000   1.0000
     1.0000   1.0000   1.0000   1.0000   1.0000   1.0000   1.0000   1.0000
     1.0000   1.0000   1.0000   1.0000   1.0000   1.0000   1.0000   1.0000
     1.0000   1.0000   1.0000   1.0000   1.0000   1.0000   1.0000   1.0000
     1.0000   1.0000   1.0000   1.0000   1.0000   1.0000   1.0000   1.0000
     1.0000   1.0000   1.0000   1.0000   1.0000   1.0000   1.0000   1.0000
     1.0000   1.0000   1.0000   1.0000   1.0000   1.0000   1.0000   1.0000
     1.0000   1.0000   1.0000   1.0000   1.0000   1.0000   1.0000   1.0000
     1.0000   1.0000   1.0000   1.0000   1.0000   1.0000   1.0000   1.0000
     1.0000   1.0000   1.0000   1.0000   1.0000   1.0000   1.0000   1.0000
     1.0000   1.0000   1.0000   1.0000   1.0000   1.0000   1.0000   1.0000
     1.0000   1.0000   1.0000   1.0000   1.0000   1.0000   1.0000   1.0000
     1.0000   1.0000   1.0000   1.0000   1.0000   1.0000   1.0000   1.0000
     1.0000   1.0000   1.0000   1.0000   1.0000   1.0000   1.0000   1.0000
     1.0000   1.0000   1.0000   1.0000   1.0000   1.0000   1.0000   1.0000
     1.0000   1.0000   1.0000   1.0000   1.0000   1.0000   1.0000   1.0000
     1.0000   1.0000   1.0000   1.0000   1.0000   1.0000   1.0000   1.0000
     1.0000   1.0000   1.0000   1.0000   1.0000   1.0000   1.0000   1.0000
     1.0000   1.0000   1.0000   1.0000   1.0000   1.0000   1.0000   1.0000
     1.0000   1.0000   1.0000   1.0000   1.0000   1.0000   1.0000   1.0000
     1.0000   1.0000   1.0000   1.0000   1.0000   1.0000   1.0000   1.0000
     1.0000   1.0000   1.0000   1.0000   1.0000   1.0000   1.0000   1.0000
     1.0000   1.0000   1.0000   1.0000   1.0000   1.0000   1.0000   1.0000
     1.0000   1.0000   1.0000   1.0000   1.0000   1.0000   1.0000   1.0000
     1.0000   1.0000   1.0000   1.0000   1.0000   1.0000   1.0000   1.0000
     1.0000   1.0000   1.0000   1.0000   1.0000   1.0000   1.0000   1.0000
     1.0000   1.0000   1.0000   1.0000   1.0000   1.0000   1.0000   1.0000
     1.0000   1.0000   1.0000   1.0000   1.0000   1.0000   1.0000   1.0000
     1.0000   1.0000   1.0000   1.0000   1.0000   1.0000   1.0000   1.0000
     1.0000   1.0000   1.0000   1.0000   1.0000   1.0000   1.0000   1.0000
     1.0000   1.0000   1.0000   1.0000   1.0000   1.0000   1.0000   1.0000
     1.0000   1.0000   1.0000   1.0000   1.0000   1.0000   1.0000   1.0000
     1.0000   1.0000   1.0000   1.0000   1.0000   0.0000   0.0000   0.0000
     0.0000   0.0000   0.0000   0.0000   0.0000   0.0000   0.0000   0.0000
     0.0000   0.0000   0.0000   0.0000   0.0000   0.0000   0.0000   0.0000

     highest occupied, lowest unoccupied level (ev):    13.7878   14.1849

!    total energy              =   -2445.62240614 Ry
     Harris-Foulkes estimate   =   -2445.62240614 Ry
     estimated scf accuracy    <          1.1E-11 Ry

     The total energy is the sum of the following terms:

     one-electron contribution =     840.06681072 Ry
     hartree contribution      =     215.99782415 Ry
     xc contribution           =    -764.08475911 Ry
     ewald contribution        =   -2737.60228191 Ry

     total magnetization       =     2.00 Bohr mag/cell
     absolute magnetization    =     2.18 Bohr mag/cell

     convergence has been achieved in  21 iterations

     Forces acting on atoms (cartesian axes, Ry/au):

     atom    1 type  1   force =    -0.00002203   -0.00000670   -0.00000670
     atom    2 type  1   force =    -0.00001898   -0.00000526   -0.00000526
     atom    3 type  1   force =    -0.00001189    0.00000108    0.00000108
     atom    4 type  1   force =    -0.00000157   -0.00000689   -0.00000689
     atom    5 type  1   force =    -0.00000700   -0.00000700   -0.00000202
     atom    6 type  1   force =    -0.00000144   -0.00000144   -0.00000053
     atom    7 type  1   force =    -0.00000700   -0.00000202   -0.00000700
     atom    8 type  1   force =    -0.00000144   -0.00000053   -0.00000144
     atom    9 type  1   force =    -0.00000514   -0.00000206    0.00001040
     atom   10 type  1   force =    -0.00000609   -0.00000999    0.00000940
     atom   11 type  1   force =     0.00000107    0.00000661    0.00000077
     atom   12 type  1   force =     0.00000530    0.00000216    0.00000573
     atom   13 type  1   force =    -0.00001292   -0.00001292    0.00000794
     atom   14 type  1   force =    -0.00000853   -0.00000853    0.00000334
     atom   15 type  1   force =    -0.00001120   -0.00001096    0.00000057
     atom   16 type  1   force =    -0.00001032   -0.00001106    0.00000091
     atom   17 type  1   force =    -0.00000990   -0.00000400   -0.00000629
     atom   18 type  1   force =    -0.00001059    0.00000311   -0.00001258
     atom   19 type  1   force =    -0.00000347    0.00000981   -0.00000347
     atom   20 type  1   force =    -0.00000217    0.00001224   -0.00000217
     atom   21 type  1   force =    -0.00000670   -0.00000670   -0.00002203
     atom   22 type  1   force =    -0.00000526   -0.00000526   -0.00001898
     atom   23 type  1   force =    -0.00000274    0.00000131   -0.00000309
     atom   24 type  1   force =    -0.00000310    0.00000364   -0.00000448
     atom   25 type  1   force =    -0.00000514    0.00001040   -0.00000206
     atom   26 type  1   force =    -0.00000609    0.00000940   -0.00000999
     atom   27 type  1   force =     0.00000107    0.00000077    0.00000661
     atom   28 type  1   force =     0.00000530    0.00000573    0.00000216
     atom   29 type  1   force =    -0.00001120    0.00000057   -0.00001096
     atom   30 type  1   force =    -0.00001032    0.00000091   -0.00001106
     atom   31 type  1   force =    -0.00001292    0.00000794   -0.00001292
     atom   32 type  1   force =    -0.00000853    0.00000334   -0.00000853
     atom   33 type  1   force =     0.00000785    0.00000055    0.00000055
     atom   34 type  1   force =     0.00000858    0.00000307    0.00000307
     atom   35 type  1   force =     0.00001178    0.00000031    0.00000031
     atom   36 type  1   force =     0.00001275    0.00000187    0.00000187
     atom   37 type  1   force =     0.00000137    0.00000199    0.00000380
     atom   38 type  1   force =     0.00001487    0.00000213   -0.00000060
     atom   39 type  1   force =     0.00000137    0.00000380    0.00000199
     atom   40 type  1   force =     0.00001487   -0.00000060    0.00000213
     atom   41 type  1   force =     0.00000984    0.00000588    0.00000072
     atom   42 type  1   force =     0.00000532    0.00001005   -0.00000148
     atom   43 type  1   force =    -0.00000415    0.00000388   -0.00000415
     atom   44 type  1   force =    -0.00000927    0.00000547   -0.00000927
     atom   45 type  1   force =    -0.00000206    0.00001040   -0.00000514
     atom   46 type  1   force =    -0.00000999    0.00000940   -0.00000609
     atom   47 type  1   force =     0.00001282    0.00000179   -0.00000414
     atom   48 type  1   force =     0.00000584    0.00000352    0.00000211
     atom   49 type  1   force =    -0.00000990   -0.00000629   -0.00000400
     atom   50 type  1   force =    -0.00001059   -0.00001258    0.00000311
     atom   51 type  1   force =    -0.00000347   -0.00000347    0.00000981
     atom   52 type  1   force =    -0.00000217   -0.00000217    0.00001224
     atom   53 type  1   force =    -0.00000274   -0.00000309    0.00000131
     atom   54 type  1   force =    -0.00000310   -0.00000448    0.00000364
     atom   55 type  1   force =    -0.00000670   -0.00002203   -0.00000670
     atom   56 type  1   force =    -0.00000526   -0.00001898   -0.00000526
     atom   57 type  1   force =     0.00000984    0.00000072    0.00000588
     atom   58 type  1   force =     0.00000532   -0.00000148    0.00001005
     atom   59 type  1   force =    -0.00000415   -0.00000415    0.00000388
     atom   60 type  1   force =    -0.00000927   -0.00000927    0.00000547
     atom   61 type  1   force =     0.00001282   -0.00000414    0.00000179
     atom   62 type  1   force =     0.00000584    0.00000211    0.00000352
     atom   63 type  1   force =    -0.00000206   -0.00000514    0.00001040
     atom   64 type  1   force =    -0.00000999   -0.00000609    0.00000940
     atom   65 type  1   force =    -0.00000163   -0.00000721   -0.00000721
     atom   66 type  1   force =    -0.00000399   -0.00000629   -0.00000629
     atom   67 type  1   force =    -0.00000837   -0.00000837   -0.00000837
     atom   68 type  1   force =    -0.00000896   -0.00000896   -0.00000896
     atom   69 type  1   force =    -0.00000400   -0.00000629   -0.00000990
     atom   70 type  1   force =     0.00000311   -0.00001258   -0.00001059
     atom   71 type  1   force =    -0.00000400   -0.00000990   -0.00000629
     atom   72 type  1   force =     0.00000311   -0.00001059   -0.00001258
     atom   73 type  1   force =    -0.00000202   -0.00000700   -0.00000700
     atom   74 type  1   force =    -0.00000053   -0.00000144   -0.00000144
     atom   75 type  1   force =     0.00000203    0.00000203    0.00000203
     atom   76 type  1   force =    -0.00000512   -0.00000512   -0.00000512
     atom   77 type  1   force =     0.00000057   -0.00001120   -0.00001096
     atom   78 type  1   force =     0.00000091   -0.00001032   -0.00001106
     atom   79 type  1   force =     0.00000057   -0.00001096   -0.00001120
     atom   80 type  1   force =     0.00000091   -0.00001106   -0.00001032
     atom   81 type  1   force =    -0.00001096   -0.00001120    0.00000057
     atom   82 type  1   force =    -0.00001106   -0.00001032    0.00000091
     atom   83 type  1   force =    -0.00000908   -0.00000908   -0.00000108
     atom   84 type  1   force =     0.00000014    0.00000014   -0.00000642
     atom   85 type  1   force =     0.00000199    0.00000137    0.00000380
     atom   86 type  1   force =     0.00000213    0.00001487   -0.00000060
     atom   87 type  1   force =    -0.00000647   -0.00001749   -0.00000647
     atom   88 type  1   force =    -0.00000472    0.00000367   -0.00000472
     atom   89 type  1   force =     0.00000131   -0.00000274   -0.00000309
     atom   90 type  1   force =     0.00000364   -0.00000310   -0.00000448
     atom   91 type  1   force =     0.00000108    0.00000108   -0.00001189
     atom   92 type  1   force =    -0.00000689   -0.00000689   -0.00000157
     atom   93 type  1   force =     0.00001040   -0.00000206   -0.00000514
     atom   94 type  1   force =     0.00000940   -0.00000999   -0.00000609
     atom   95 type  1   force =     0.00000061    0.00000444   -0.00000170
     atom   96 type  1   force =     0.00000387    0.00000471    0.00000242
     atom   97 type  1   force =    -0.00001096    0.00000057   -0.00001120
     atom   98 type  1   force =    -0.00001106    0.00000091   -0.00001032
     atom   99 type  1   force =    -0.00000908   -0.00000108   -0.00000908
     atom  100 type  1   force =     0.00000014   -0.00000642    0.00000014
     atom  101 type  1   force =    -0.00000647   -0.00000647   -0.00001749
     atom  102 type  1   force =    -0.00000472   -0.00000472    0.00000367
     atom  103 type  1   force =     0.00000199    0.00000380    0.00000137
     atom  104 type  1   force =     0.00000213   -0.00000060    0.00001487
     atom  105 type  1   force =    -0.00001749   -0.00000647   -0.00000647
     atom  106 type  1   force =     0.00000367   -0.00000472   -0.00000472
     atom  107 type  1   force =     0.00001213   -0.00000297   -0.00000297
     atom  108 type  1   force =     0.00001058    0.00000469    0.00000469
     atom  109 type  1   force =     0.00000231    0.00000231   -0.00000206
     atom  110 type  1   force =     0.00001313    0.00001313   -0.00000420
     atom  111 type  1   force =     0.00000231   -0.00000206    0.00000231
     atom  112 type  1   force =     0.00001313   -0.00000420    0.00001313
     atom  113 type  1   force =     0.00000444    0.00000061   -0.00000170
     atom  114 type  1   force =     0.00000471    0.00000387    0.00000242
     atom  115 type  1   force =     0.00000661    0.00000077    0.00000107
     atom  116 type  1   force =     0.00000216    0.00000573    0.00000530
     atom  117 type  1   force =     0.00000055    0.00000055    0.00000785
     atom  118 type  1   force =     0.00000307    0.00000307    0.00000858
     atom  119 type  1   force =     0.00000497    0.00000181    0.00000944
     atom  120 type  1   force =     0.00000342    0.00000625    0.00000975
     atom  121 type  1   force =     0.00000131   -0.00000309   -0.00000274
     atom  122 type  1   force =     0.00000364   -0.00000448   -0.00000310
     atom  123 type  1   force =     0.00000108   -0.00001189    0.00000108
     atom  124 type  1   force =    -0.00000689   -0.00000157   -0.00000689
     atom  125 type  1   force =     0.00000061   -0.00000170    0.00000444
     atom  126 type  1   force =     0.00000387    0.00000242    0.00000471
     atom  127 type  1   force =     0.00001040   -0.00000514   -0.00000206
     atom  128 type  1   force =     0.00000940   -0.00000609   -0.00000999
     atom  129 type  1   force =     0.00000444   -0.00000170    0.00000061
     atom  130 type  1   force =     0.00000471    0.00000242    0.00000387
     atom  131 type  1   force =     0.00000661    0.00000107    0.00000077
     atom  132 type  1   force =     0.00000216    0.00000530    0.00000573
     atom  133 type  1   force =     0.00000497    0.00000944    0.00000181
     atom  134 type  1   force =     0.00000342    0.00000975    0.00000625
     atom  135 type  1   force =     0.00000055    0.00000785    0.00000055
     atom  136 type  1   force =     0.00000307    0.00000858    0.00000307
     atom  137 type  1   force =     0.00000624    0.00000572    0.00000572
     atom  138 type  1   force =     0.00001198    0.00000540    0.00000540
     atom  139 type  1   force =     0.00000981   -0.00000347   -0.00000347
     atom  140 type  1   force =     0.00001224   -0.00000217   -0.00000217
     atom  141 type  1   force =     0.00000588    0.00000072    0.00000984
     atom  142 type  1   force =     0.00001005   -0.00000148    0.00000532
     atom  143 type  1   force =     0.00000588    0.00000984    0.00000072
     atom  144 type  1   force =     0.00001005    0.00000532   -0.00000148
     atom  145 type  1   force =     0.00000794   -0.00001292   -0.00001292
     atom  146 type  1   force =     0.00000334   -0.00000853   -0.00000853
     atom  147 type  1   force =    -0.00000108   -0.00000908   -0.00000908
     atom  148 type  1   force =    -0.00000642    0.00000014    0.00000014
     atom  149 type  1   force =    -0.00000309   -0.00000274    0.00000131
     atom  150 type  1   force =    -0.00000448   -0.00000310    0.00000364
     atom  151 type  1   force =    -0.00000309    0.00000131   -0.00000274
     atom  152 type  1   force =    -0.00000448    0.00000364   -0.00000310
     atom  153 type  1   force =     0.00000380    0.00000137    0.00000199
     atom  154 type  1   force =    -0.00000060    0.00001487    0.00000213
     atom  155 type  1   force =    -0.00000297    0.00001213   -0.00000297
     atom  156 type  1   force =     0.00000469    0.00001058    0.00000469
     atom  157 type  1   force =    -0.00000414    0.00001282    0.00000179
     atom  158 type  1   force =     0.00000211    0.00000584    0.00000352
     atom  159 type  1   force =    -0.00000170    0.00000444    0.00000061
     atom  160 type  1   force =     0.00000242    0.00000471    0.00000387
     atom  161 type  1   force =     0.00000179    0.00001282   -0.00000414
     atom  162 type  1   force =     0.00000352    0.00000584    0.00000211
     atom  163 type  1   force =     0.00000077    0.00000661    0.00000107
     atom  164 type  1   force =     0.00000573    0.00000216    0.00000530
     atom  165 type  1   force =    -0.00000629   -0.00000400   -0.00000990
     atom  166 type  1   force =    -0.00001258    0.00000311   -0.00001059
     atom  167 type  1   force =     0.00000572    0.00000624    0.00000572
     atom  168 type  1   force =     0.00000540    0.00001198    0.00000540
     atom  169 type  1   force =     0.00000380    0.00000199    0.00000137
     atom  170 type  1   force =    -0.00000060    0.00000213    0.00001487
     atom  171 type  1   force =    -0.00000297   -0.00000297    0.00001213
     atom  172 type  1   force =     0.00000469    0.00000469    0.00001058
     atom  173 type  1   force =    -0.00000170    0.00000061    0.00000444
     atom  174 type  1   force =     0.00000242    0.00000387    0.00000471
     atom  175 type  1   force =    -0.00000414    0.00000179    0.00001282
     atom  176 type  1   force =     0.00000211    0.00000352    0.00000584
     atom  177 type  1   force =    -0.00000206    0.00000231    0.00000231
     atom  178 type  1   force =    -0.00000420    0.00001313    0.00001313
     atom  179 type  1   force =     0.00000944    0.00000497    0.00000181
     atom  180 type  1   force =     0.00000975    0.00000342    0.00000625
     atom  181 type  1   force =     0.00000944    0.00000181    0.00000497
     atom  182 type  1   force =     0.00000975    0.00000625    0.00000342
     atom  183 type  1   force =     0.00000181    0.00000497    0.00000944
     atom  184 type  1   force =     0.00000625    0.00000342    0.00000975
     atom  185 type  1   force =     0.00000031    0.00000031    0.00001178
     atom  186 type  1   force =     0.00000187    0.00000187    0.00001275
     atom  187 type  1   force =     0.00000072    0.00000588    0.00000984
     atom  188 type  1   force =    -0.00000148    0.00001005    0.00000532
     atom  189 type  1   force =     0.00000946   -0.00000573    0.00000946
     atom  190 type  1   force =    -0.00000090   -0.00000273   -0.00000090
     atom  191 type  1   force =     0.00000179   -0.00000414    0.00001282
     atom  192 type  1   force =     0.00000352    0.00000211    0.00000584
     atom  193 type  1   force =     0.00000077    0.00000107    0.00000661
     atom  194 type  1   force =     0.00000573    0.00000530    0.00000216
     atom  195 type  1   force =     0.00000572    0.00000572    0.00000624
     atom  196 type  1   force =     0.00000540    0.00000540    0.00001198
     atom  197 type  1   force =    -0.00000629   -0.00000990   -0.00000400
     atom  198 type  1   force =    -0.00001258   -0.00001059    0.00000311
     atom  199 type  1   force =     0.00000181    0.00000944    0.00000497
     atom  200 type  1   force =     0.00000625    0.00000975    0.00000342
     atom  201 type  1   force =     0.00000031    0.00001178    0.00000031
     atom  202 type  1   force =     0.00000187    0.00001275    0.00000187
     atom  203 type  1   force =     0.00000946    0.00000946   -0.00000573
     atom  204 type  1   force =    -0.00000090   -0.00000090   -0.00000273
     atom  205 type  1   force =     0.00000072    0.00000984    0.00000588
     atom  206 type  1   force =    -0.00000148    0.00000532    0.00001005
     atom  207 type  1   force =    -0.00000573    0.00000946    0.00000946
     atom  208 type  1   force =    -0.00000273   -0.00000090   -0.00000090
     atom  209 type  1   force =     0.00000388   -0.00000415   -0.00000415
     atom  210 type  1   force =     0.00000547   -0.00000927   -0.00000927
     atom  211 type  1   force =    -0.00000721   -0.00000721   -0.00000163
     atom  212 type  1   force =    -0.00000629   -0.00000629   -0.00000399
     atom  213 type  1   force =    -0.00000721   -0.00000163   -0.00000721
     atom  214 type  1   force =    -0.00000629   -0.00000399   -0.00000629
     atom  215 type  2   force =     0.00000361    0.00000361    0.00000361
     The non-local contrib.  to forces
     atom    1 type  1   force =     0.00496834    0.00331711    0.00331711
     atom    2 type  1   force =    -0.00106946   -0.00130040   -0.00130040
     atom    3 type  1   force =     0.00243559   -0.00073795   -0.00073795
     atom    4 type  1   force =    -0.00059837   -0.00479176   -0.00479176
     atom    5 type  1   force =     0.00110354    0.00110354    0.00098330
     atom    6 type  1   force =    -0.00368995   -0.00368995   -0.00538180
     atom    7 type  1   force =     0.00110354    0.00098330    0.00110354
     atom    8 type  1   force =    -0.00368995   -0.00538180   -0.00368995
     atom    9 type  1   force =     0.00158075    0.00038937   -0.00173205
     atom   10 type  1   force =     0.00063783   -0.00034273   -0.00800440
     atom   11 type  1   force =     0.00114143   -0.00512186    0.01053990
     atom   12 type  1   force =     0.00488184   -0.00116676   -0.01062178
     atom   13 type  1   force =    -0.00009033   -0.00009033    0.00729900
     atom   14 type  1   force =    -0.00009913   -0.00009913   -0.00730941
     atom   15 type  1   force =    -0.00112118   -0.00056145    0.00185890
     atom   16 type  1   force =    -0.00368974   -0.00499362   -0.00551408
     atom   17 type  1   force =     0.00478135    0.00341548    0.00521894
     atom   18 type  1   force =     0.00052676    0.00106196   -0.00180616
     atom   19 type  1   force =     0.00453247    0.00024379    0.00453247
     atom   20 type  1   force =     0.00061154   -0.00265763    0.00061154
     atom   21 type  1   force =     0.00331711    0.00331711    0.00496834
     atom   22 type  1   force =    -0.00130040   -0.00130040   -0.00106946
     atom   23 type  1   force =     0.00010120   -0.00093518    0.00784970
     atom   24 type  1   force =    -0.00057991   -0.00173280    0.00153736
     atom   25 type  1   force =     0.00158075   -0.00173205    0.00038937
     atom   26 type  1   force =     0.00063783   -0.00800440   -0.00034273
     atom   27 type  1   force =     0.00114143    0.01053990   -0.00512186
     atom   28 type  1   force =     0.00488184   -0.01062178   -0.00116676
     atom   29 type  1   force =    -0.00112118    0.00185890   -0.00056145
     atom   30 type  1   force =    -0.00368974   -0.00551408   -0.00499362
     atom   31 type  1   force =    -0.00009033    0.00729900   -0.00009033
     atom   32 type  1   force =    -0.00009913   -0.00730941   -0.00009913
     atom   33 type  1   force =     0.00371427   -0.00266368   -0.00266368
     atom   34 type  1   force =     0.00675173   -0.00483557   -0.00483557
     atom   35 type  1   force =     0.00588285   -0.00642155   -0.00642155
     atom   36 type  1   force =     0.01398395   -0.00047858   -0.00047858
     atom   37 type  1   force =    -0.00364163   -0.00278602    0.00211891
     atom   38 type  1   force =     0.00008270   -0.00285318    0.00111938
     atom   39 type  1   force =    -0.00364163    0.00211891   -0.00278602
     atom   40 type  1   force =     0.00008270    0.00111938   -0.00285318
     atom   41 type  1   force =     0.00418121   -0.01147863    0.02061847
     atom   42 type  1   force =     0.00882339   -0.00175498    0.00319906
     atom   43 type  1   force =     0.00848981   -0.00823204    0.00848981
     atom   44 type  1   force =     0.00430625   -0.00323841    0.00430625
     atom   45 type  1   force =     0.00038937   -0.00173205    0.00158075
     atom   46 type  1   force =    -0.00034273   -0.00800440    0.00063783
     atom   47 type  1   force =    -0.00020915   -0.00134377    0.00270852
     atom   48 type  1   force =     0.00352085   -0.00218633    0.00256716
     atom   49 type  1   force =     0.00478135    0.00521894    0.00341548
     atom   50 type  1   force =     0.00052676   -0.00180616    0.00106196
     atom   51 type  1   force =     0.00453247    0.00453247    0.00024379
     atom   52 type  1   force =     0.00061154    0.00061154   -0.00265763
     atom   53 type  1   force =     0.00010120    0.00784970   -0.00093518
     atom   54 type  1   force =    -0.00057991    0.00153736   -0.00173280
     atom   55 type  1   force =     0.00331711    0.00496834    0.00331711
     atom   56 type  1   force =    -0.00130040   -0.00106946   -0.00130040
     atom   57 type  1   force =     0.00418121    0.02061847   -0.01147863
     atom   58 type  1   force =     0.00882339    0.00319906   -0.00175498
     atom   59 type  1   force =     0.00848981    0.00848981   -0.00823204
     atom   60 type  1   force =     0.00430625    0.00430625   -0.00323841
     atom   61 type  1   force =    -0.00020915    0.00270852   -0.00134377
     atom   62 type  1   force =     0.00352085    0.00256716   -0.00218633
     atom   63 type  1   force =     0.00038937    0.00158075   -0.00173205
     atom   64 type  1   force =    -0.00034273    0.00063783   -0.00800440
     atom   65 type  1   force =     0.02119032    0.00834584    0.00834584
     atom   66 type  1   force =     0.00804355   -0.00008972   -0.00008972
     atom   67 type  1   force =     0.00704910    0.00704910    0.00704910
     atom   68 type  1   force =     0.00025818    0.00025818    0.00025818
     atom   69 type  1   force =     0.00341548    0.00521894    0.00478135
     atom   70 type  1   force =     0.00106196   -0.00180616    0.00052676
     atom   71 type  1   force =     0.00341548    0.00478135    0.00521894
     atom   72 type  1   force =     0.00106196    0.00052676   -0.00180616
     atom   73 type  1   force =     0.00098330    0.00110354    0.00110354
     atom   74 type  1   force =    -0.00538180   -0.00368995   -0.00368995
     atom   75 type  1   force =    -0.00013897   -0.00013897   -0.00013897
     atom   76 type  1   force =    -0.00743966   -0.00743966   -0.00743966
     atom   77 type  1   force =     0.00185890   -0.00112118   -0.00056145
     atom   78 type  1   force =    -0.00551408   -0.00368974   -0.00499362
     atom   79 type  1   force =     0.00185890   -0.00056145   -0.00112118
     atom   80 type  1   force =    -0.00551408   -0.00499362   -0.00368974
     atom   81 type  1   force =    -0.00056145   -0.00112118    0.00185890
     atom   82 type  1   force =    -0.00499362   -0.00368974   -0.00551408
     atom   83 type  1   force =    -0.00452302   -0.00452302    0.00313430
     atom   84 type  1   force =    -0.00863859   -0.00863859    0.00789224
     atom   85 type  1   force =    -0.00278602   -0.00364163    0.00211891
     atom   86 type  1   force =    -0.00285318    0.00008270    0.00111938
     atom   87 type  1   force =    -0.00002481   -0.00822561   -0.00002481
     atom   88 type  1   force =    -0.00863652   -0.02133202   -0.00863652
     atom   89 type  1   force =    -0.00093518    0.00010120    0.00784970
     atom   90 type  1   force =    -0.00173280   -0.00057991    0.00153736
     atom   91 type  1   force =    -0.00073795   -0.00073795    0.00243559
     atom   92 type  1   force =    -0.00479176   -0.00479176   -0.00059837
     atom   93 type  1   force =    -0.00173205    0.00038937    0.00158075
     atom   94 type  1   force =    -0.00800440   -0.00034273    0.00063783
     atom   95 type  1   force =    -0.00346170   -0.00906808    0.00160380
     atom   96 type  1   force =    -0.02074241   -0.00417332    0.01111699
     atom   97 type  1   force =    -0.00056145    0.00185890   -0.00112118
     atom   98 type  1   force =    -0.00499362   -0.00551408   -0.00368974
     atom   99 type  1   force =    -0.00452302    0.00313430   -0.00452302
     atom  100 type  1   force =    -0.00863859    0.00789224   -0.00863859
     atom  101 type  1   force =    -0.00002481   -0.00002481   -0.00822561
     atom  102 type  1   force =    -0.00863652   -0.00863652   -0.02133202
     atom  103 type  1   force =    -0.00278602    0.00211891   -0.00364163
     atom  104 type  1   force =    -0.00285318    0.00111938    0.00008270
     atom  105 type  1   force =    -0.00822561   -0.00002481   -0.00002481
     atom  106 type  1   force =    -0.02133202   -0.00863652   -0.00863652
     atom  107 type  1   force =    -0.01416350    0.00035539    0.00035539
     atom  108 type  1   force =    -0.00597324    0.00613204    0.00613204
     atom  109 type  1   force =    -0.02550782   -0.02550782    0.00315067
     atom  110 type  1   force =    -0.16706090   -0.16706090    0.13361612
     atom  111 type  1   force =    -0.02550782    0.00315067   -0.02550782
     atom  112 type  1   force =    -0.16706090    0.13361612   -0.16706090
     atom  113 type  1   force =    -0.00906808   -0.00346170    0.00160380
     atom  114 type  1   force =    -0.00417332   -0.02074241    0.01111699
     atom  115 type  1   force =    -0.00512186    0.01053990    0.00114143
     atom  116 type  1   force =    -0.00116676   -0.01062178    0.00488184
     atom  117 type  1   force =    -0.00266368   -0.00266368    0.00371427
     atom  118 type  1   force =    -0.00483557   -0.00483557    0.00675173
     atom  119 type  1   force =    -0.03091783    0.02739738   -0.01409982
     atom  120 type  1   force =     0.01400467   -0.02757949    0.03065777
     atom  121 type  1   force =    -0.00093518    0.00784970    0.00010120
     atom  122 type  1   force =    -0.00173280    0.00153736   -0.00057991
     atom  123 type  1   force =    -0.00073795    0.00243559   -0.00073795
     atom  124 type  1   force =    -0.00479176   -0.00059837   -0.00479176
     atom  125 type  1   force =    -0.00346170    0.00160380   -0.00906808
     atom  126 type  1   force =    -0.02074241    0.01111699   -0.00417332
     atom  127 type  1   force =    -0.00173205    0.00158075    0.00038937
     atom  128 type  1   force =    -0.00800440    0.00063783   -0.00034273
     atom  129 type  1   force =    -0.00906808    0.00160380   -0.00346170
     atom  130 type  1   force =    -0.00417332    0.01111699   -0.02074241
     atom  131 type  1   force =    -0.00512186    0.00114143    0.01053990
     atom  132 type  1   force =    -0.00116676    0.00488184   -0.01062178
     atom  133 type  1   force =    -0.03091783   -0.01409982    0.02739738
     atom  134 type  1   force =     0.01400467    0.03065777   -0.02757949
     atom  135 type  1   force =    -0.00266368    0.00371427   -0.00266368
     atom  136 type  1   force =    -0.00483557    0.00675173   -0.00483557
     atom  137 type  1   force =    -0.00701200    0.00475376    0.00475376
     atom  138 type  1   force =    -0.00377738    0.00252414    0.00252414
     atom  139 type  1   force =     0.00024379    0.00453247    0.00453247
     atom  140 type  1   force =    -0.00265763    0.00061154    0.00061154
     atom  141 type  1   force =    -0.01147863    0.02061847    0.00418121
     atom  142 type  1   force =    -0.00175498    0.00319906    0.00882339
     atom  143 type  1   force =    -0.01147863    0.00418121    0.02061847
     atom  144 type  1   force =    -0.00175498    0.00882339    0.00319906
     atom  145 type  1   force =     0.00729900   -0.00009033   -0.00009033
     atom  146 type  1   force =    -0.00730941   -0.00009913   -0.00009913
     atom  147 type  1   force =     0.00313430   -0.00452302   -0.00452302
     atom  148 type  1   force =     0.00789224   -0.00863859   -0.00863859
     atom  149 type  1   force =     0.00784970    0.00010120   -0.00093518
     atom  150 type  1   force =     0.00153736   -0.00057991   -0.00173280
     atom  151 type  1   force =     0.00784970   -0.00093518    0.00010120
     atom  152 type  1   force =     0.00153736   -0.00173280   -0.00057991
     atom  153 type  1   force =     0.00211891   -0.00364163   -0.00278602
     atom  154 type  1   force =     0.00111938    0.00008270   -0.00285318
     atom  155 type  1   force =     0.00035539   -0.01416350    0.00035539
     atom  156 type  1   force =     0.00613204   -0.00597324    0.00613204
     atom  157 type  1   force =     0.00270852   -0.00020915   -0.00134377
     atom  158 type  1   force =     0.00256716    0.00352085   -0.00218633
     atom  159 type  1   force =     0.00160380   -0.00906808   -0.00346170
     atom  160 type  1   force =     0.01111699   -0.00417332   -0.02074241
     atom  161 type  1   force =    -0.00134377   -0.00020915    0.00270852
     atom  162 type  1   force =    -0.00218633    0.00352085    0.00256716
     atom  163 type  1   force =     0.01053990   -0.00512186    0.00114143
     atom  164 type  1   force =    -0.01062178   -0.00116676    0.00488184
     atom  165 type  1   force =     0.00521894    0.00341548    0.00478135
     atom  166 type  1   force =    -0.00180616    0.00106196    0.00052676
     atom  167 type  1   force =     0.00475376   -0.00701200    0.00475376
     atom  168 type  1   force =     0.00252414   -0.00377738    0.00252414
     atom  169 type  1   force =     0.00211891   -0.00278602   -0.00364163
     atom  170 type  1   force =     0.00111938   -0.00285318    0.00008270
     atom  171 type  1   force =     0.00035539    0.00035539   -0.01416350
     atom  172 type  1   force =     0.00613204    0.00613204   -0.00597324
     atom  173 type  1   force =     0.00160380   -0.00346170   -0.00906808
     atom  174 type  1   force =     0.01111699   -0.02074241   -0.00417332
     atom  175 type  1   force =     0.00270852   -0.00134377   -0.00020915
     atom  176 type  1   force =     0.00256716   -0.00218633    0.00352085
     atom  177 type  1   force =     0.00315067   -0.02550782   -0.02550782
     atom  178 type  1   force =     0.13361612   -0.16706090   -0.16706090
     atom  179 type  1   force =    -0.01409982   -0.03091783    0.02739738
     atom  180 type  1   force =     0.03065777    0.01400467   -0.02757949
     atom  181 type  1   force =    -0.01409982    0.02739738   -0.03091783
     atom  182 type  1   force =     0.03065777   -0.02757949    0.01400467
     atom  183 type  1   force =     0.02739738   -0.03091783   -0.01409982
     atom  184 type  1   force =    -0.02757949    0.01400467    0.03065777
     atom  185 type  1   force =    -0.00642155   -0.00642155    0.00588285
     atom  186 type  1   force =    -0.00047858   -0.00047858    0.01398395
     atom  187 type  1   force =     0.02061847   -0.01147863    0.00418121
     atom  188 type  1   force =     0.00319906   -0.00175498    0.00882339
     atom  189 type  1   force =     0.16694664   -0.13389382    0.16694664
     atom  190 type  1   force =     0.02521310   -0.00342782    0.02521310
     atom  191 type  1   force =    -0.00134377    0.00270852   -0.00020915
     atom  192 type  1   force =    -0.00218633    0.00256716    0.00352085
     atom  193 type  1   force =     0.01053990    0.00114143   -0.00512186
     atom  194 type  1   force =    -0.01062178    0.00488184   -0.00116676
     atom  195 type  1   force =     0.00475376    0.00475376   -0.00701200
     atom  196 type  1   force =     0.00252414    0.00252414   -0.00377738
     atom  197 type  1   force =     0.00521894    0.00478135    0.00341548
     atom  198 type  1   force =    -0.00180616    0.00052676    0.00106196
     atom  199 type  1   force =     0.02739738   -0.01409982   -0.03091783
     atom  200 type  1   force =    -0.02757949    0.03065777    0.01400467
     atom  201 type  1   force =    -0.00642155    0.00588285   -0.00642155
     atom  202 type  1   force =    -0.00047858    0.01398395   -0.00047858
     atom  203 type  1   force =     0.16694664    0.16694664   -0.13389382
     atom  204 type  1   force =     0.02521310    0.02521310   -0.00342782
     atom  205 type  1   force =     0.02061847    0.00418121   -0.01147863
     atom  206 type  1   force =     0.00319906    0.00882339   -0.00175498
     atom  207 type  1   force =    -0.13389382    0.16694664    0.16694664
     atom  208 type  1   force =    -0.00342782    0.02521310    0.02521310
     atom  209 type  1   force =    -0.00823204    0.00848981    0.00848981
     atom  210 type  1   force =    -0.00323841    0.00430625    0.00430625
     atom  211 type  1   force =     0.00834584    0.00834584    0.02119032
     atom  212 type  1   force =    -0.00008972   -0.00008972    0.00804355
     atom  213 type  1   force =     0.00834584    0.02119032    0.00834584
     atom  214 type  1   force =    -0.00008972    0.00804355   -0.00008972
     atom  215 type  2   force =    -0.00030983   -0.00030983   -0.00030983
     The ionic contribution  to forces
     atom    1 type  1   force =    -0.03024489   -0.03863975   -0.03863976
     atom    2 type  1   force =    -0.06410297   -0.01497538   -0.01497545
     atom    3 type  1   force =    -0.05306223    0.08223973    0.08223970
     atom    4 type  1   force =    -0.03772659    0.06628656    0.06628659
     atom    5 type  1   force =     0.01849703    0.01850275    0.06765111
     atom    6 type  1   force =     0.03741652    0.03741893    0.02684734
     atom    7 type  1   force =     0.01849708    0.06765119    0.01850269
     atom    8 type  1   force =     0.03741650    0.02684738    0.03741880
     atom    9 type  1   force =    -0.08849748   -0.03992415    0.12421955
     atom   10 type  1   force =    -0.04821066    0.01774403   -0.00169815
     atom   11 type  1   force =    -0.16154394    0.08327850    0.11259039
     atom   12 type  1   force =    -0.08490418    0.16322584   -0.11414889
     atom   13 type  1   force =    -0.05882687   -0.05883231    0.12305462
     atom   14 type  1   force =     0.05933729    0.05934218   -0.12576479
     atom   15 type  1   force =     0.04130492    0.12009859    0.11851413
     atom   16 type  1   force =     0.16930687    0.16016393   -0.00417283
     atom   17 type  1   force =    -0.16306737   -0.17182814    0.00015800
     atom   18 type  1   force =    -0.11818630   -0.04003525   -0.11644152
     atom   19 type  1   force =    -0.06744486    0.03616219   -0.06743846
     atom   20 type  1   force =    -0.07890294    0.05576064   -0.07889629
     atom   21 type  1   force =    -0.03864810   -0.03864965   -0.03024206
     atom   22 type  1   force =    -0.01497258   -0.01497557   -0.06409822
     atom   23 type  1   force =    -0.01620187    0.04728310   -0.00052992
     atom   24 type  1   force =     0.04253714    0.09010775   -0.12267911
     atom   25 type  1   force =    -0.08849749    0.12421956   -0.03992422
     atom   26 type  1   force =    -0.04821064   -0.00169821    0.01774386
     atom   27 type  1   force =    -0.16154394    0.11259029    0.08327841
     atom   28 type  1   force =    -0.08490419   -0.11414889    0.16322578
     atom   29 type  1   force =     0.04130495    0.11851412    0.12009850
     atom   30 type  1   force =     0.16930694   -0.00417291    0.16016388
     atom   31 type  1   force =    -0.05882685    0.12305446   -0.05883240
     atom   32 type  1   force =     0.05933728   -0.12576483    0.05934209
     atom   33 type  1   force =    -0.25993608    0.20500328    0.20500342
     atom   34 type  1   force =    -0.16594051    0.14693014    0.14693032
     atom   35 type  1   force =    -0.93610207    0.28019992    0.28020017
     atom   36 type  1   force =    -0.44638277    0.04067976    0.04067983
     atom   37 type  1   force =    -0.02274731    0.17298146    0.01489788
     atom   38 type  1   force =     0.18090601    0.12370306   -0.12285507
     atom   39 type  1   force =    -0.02274722    0.01489781    0.17298149
     atom   40 type  1   force =     0.18090600   -0.12285523    0.12370307
     atom   41 type  1   force =    -0.27261191    0.25382675   -0.06535566
     atom   42 type  1   force =    -0.20121467    0.24881684   -0.14537748
     atom   43 type  1   force =    -0.35910713    0.30454270   -0.35911204
     atom   44 type  1   force =    -0.19564025   -0.02115772   -0.19564455
     atom   45 type  1   force =    -0.03992027    0.12422231   -0.08849283
     atom   46 type  1   force =     0.01773929   -0.00170186   -0.04820610
     atom   47 type  1   force =    -0.18014086    0.12295453   -0.12348286
     atom   48 type  1   force =     0.02150866   -0.01639572   -0.17370762
     atom   49 type  1   force =    -0.16306747    0.00015803   -0.17182828
     atom   50 type  1   force =    -0.11818631   -0.11644149   -0.04003536
     atom   51 type  1   force =    -0.06744481   -0.06743849    0.03616205
     atom   52 type  1   force =    -0.07890289   -0.07889614    0.05576061
     atom   53 type  1   force =    -0.01620190   -0.00052999    0.04728304
     atom   54 type  1   force =     0.04253709   -0.12267910    0.09010762
     atom   55 type  1   force =    -0.03864815   -0.03024208   -0.03864972
     atom   56 type  1   force =    -0.01497262   -0.06409817   -0.01497566
     atom   57 type  1   force =    -0.27261187   -0.06535564    0.25382674
     atom   58 type  1   force =    -0.20121466   -0.14537758    0.24881690
     atom   59 type  1   force =    -0.35910717   -0.35911201    0.30454290
     atom   60 type  1   force =    -0.19564037   -0.19564455   -0.02115773
     atom   61 type  1   force =    -0.18014093   -0.12348296    0.12295473
     atom   62 type  1   force =     0.02150860   -0.17370767   -0.01639559
     atom   63 type  1   force =    -0.03992025   -0.08849278    0.12422226
     atom   64 type  1   force =     0.01773926   -0.04820600   -0.00170180
     atom   65 type  1   force =    -0.82359046   -0.18216291   -0.18216264
     atom   66 type  1   force =    -0.35064202   -0.24498301   -0.24498287
     atom   67 type  1   force =    -0.18825740   -0.18826109   -0.18826103
     atom   68 type  1   force =    -0.14093957   -0.14094495   -0.14094497
     atom   69 type  1   force =    -0.17183289    0.00015578   -0.16306612
     atom   70 type  1   force =    -0.04003507   -0.11644130   -0.11818278
     atom   71 type  1   force =    -0.17183282   -0.16306611    0.00015584
     atom   72 type  1   force =    -0.04003504   -0.11818272   -0.11644126
     atom   73 type  1   force =     0.06765033    0.01850068    0.01850055
     atom   74 type  1   force =     0.02683752    0.03741911    0.03741901
     atom   75 type  1   force =     0.14344356    0.14343906    0.14343901
     atom   76 type  1   force =     0.18397662    0.18397122    0.18397117
     atom   77 type  1   force =     0.11851674    0.04130118    0.12009884
     atom   78 type  1   force =    -0.00416585    0.16930579    0.16016521
     atom   79 type  1   force =     0.11851670    0.12009894    0.04130103
     atom   80 type  1   force =    -0.00416587    0.16016526    0.16930566
     atom   81 type  1   force =     0.12009622    0.04129776    0.11851223
     atom   82 type  1   force =     0.16017021    0.16930879   -0.00417019
     atom   83 type  1   force =     0.19538508    0.19538833    0.02189467
     atom   84 type  1   force =     0.36030023    0.36030295   -0.30490780
     atom   85 type  1   force =     0.17297978   -0.02274426    0.01490288
     atom   86 type  1   force =     0.12370232    0.18090668   -0.12285571
     atom   87 type  1   force =     0.24488372    0.34983985    0.24488678
     atom   88 type  1   force =     0.18192617    0.82414166    0.18192415
     atom   89 type  1   force =     0.04727590   -0.01619967   -0.00052527
     atom   90 type  1   force =     0.09010323    0.04254465   -0.12267668
     atom   91 type  1   force =     0.08224354    0.08224041   -0.05305559
     atom   92 type  1   force =     0.06628319    0.06628766   -0.03772809
     atom   93 type  1   force =     0.12422634   -0.03992360   -0.08849225
     atom   94 type  1   force =    -0.00169488    0.01774168   -0.04820716
     atom   95 type  1   force =     0.14767004    0.20108985   -0.24686110
     atom   96 type  1   force =     0.06418997    0.27331313   -0.25533226
     atom   97 type  1   force =     0.12009623    0.11851221    0.04129762
     atom   98 type  1   force =     0.16017019   -0.00417029    0.16930872
     atom   99 type  1   force =     0.19538513    0.02189456    0.19538828
     atom  100 type  1   force =     0.36030021   -0.30490795    0.36030287
     atom  101 type  1   force =     0.24488370    0.24488678    0.34983975
     atom  102 type  1   force =     0.18192609    0.18192410    0.82414159
     atom  103 type  1   force =     0.17297977    0.01490280   -0.02274442
     atom  104 type  1   force =     0.12370232   -0.12285588    0.18090658
     atom  105 type  1   force =     0.34983813    0.24488922    0.24488920
     atom  106 type  1   force =     0.82414305    0.18192673    0.18192678
     atom  107 type  1   force =     0.44486261   -0.04023073   -0.04023058
     atom  108 type  1   force =     0.93834961   -0.28131822   -0.28131808
     atom  109 type  1   force =     0.89458158    0.89458641   -0.15095365
     atom  110 type  1   force =     1.71883491    1.71883898   -1.97352722
     atom  111 type  1   force =     0.89458154   -0.15095385    0.89458640
     atom  112 type  1   force =     1.71883491   -1.97352731    1.71883915
     atom  113 type  1   force =     0.20109191    0.14767195   -0.24685508
     atom  114 type  1   force =     0.27331048    0.06418832   -0.25532841
     atom  115 type  1   force =     0.08328715    0.11259290   -0.16154905
     atom  116 type  1   force =     0.16322932   -0.11415552   -0.08491096
     atom  117 type  1   force =     0.20500271    0.20500756   -0.25993352
     atom  118 type  1   force =     0.14693397    0.14692846   -0.16594110
     atom  119 type  1   force =     0.75598220    0.24506641   -0.91728463
     atom  120 type  1   force =     0.91825496   -0.24558994   -0.75727521
     atom  121 type  1   force =     0.04727589   -0.00052534   -0.01619973
     atom  122 type  1   force =     0.09010318   -0.12267680    0.04254456
     atom  123 type  1   force =     0.08224346   -0.05305557    0.08224032
     atom  124 type  1   force =     0.06628315   -0.03772806    0.06628763
     atom  125 type  1   force =     0.14766998   -0.24686119    0.20108975
     atom  126 type  1   force =     0.06418995   -0.25533231    0.27331307
     atom  127 type  1   force =     0.12422637   -0.08849224   -0.03992375
     atom  128 type  1   force =    -0.00169489   -0.04820702    0.01774155
     atom  129 type  1   force =     0.20109194   -0.24685522    0.14767199
     atom  130 type  1   force =     0.27331050   -0.25532847    0.06418836
     atom  131 type  1   force =     0.08328715   -0.16154900    0.11259306
     atom  132 type  1   force =     0.16322929   -0.08491090   -0.11415535
     atom  133 type  1   force =     0.75598224   -0.91728478    0.24506653
     atom  134 type  1   force =     0.91825521   -0.75727539   -0.24558956
     atom  135 type  1   force =     0.20500271   -0.25993351    0.20500754
     atom  136 type  1   force =     0.14693400   -0.16594100    0.14692856
     atom  137 type  1   force =     0.16411089   -0.14617841   -0.14617830
     atom  138 type  1   force =     0.26084095   -0.20699827   -0.20699818
     atom  139 type  1   force =     0.03615817   -0.06743826   -0.06743827
     atom  140 type  1   force =     0.05575895   -0.07889506   -0.07889517
     atom  141 type  1   force =     0.25382207   -0.06536232   -0.27261410
     atom  142 type  1   force =     0.24881877   -0.14537236   -0.20121029
     atom  143 type  1   force =     0.25382215   -0.27261412   -0.06536231
     atom  144 type  1   force =     0.24881877   -0.20121024   -0.14537229
     atom  145 type  1   force =     0.12305564   -0.05883030   -0.05883041
     atom  146 type  1   force =    -0.12576807    0.05934284    0.05934281
     atom  147 type  1   force =     0.02189959    0.19538800    0.19538792
     atom  148 type  1   force =    -0.30491000    0.36029597    0.36029595
     atom  149 type  1   force =    -0.00052164   -0.01620162    0.04728442
     atom  150 type  1   force =    -0.12268219    0.04254051    0.09010643
     atom  151 type  1   force =    -0.00052155    0.04728447   -0.01620168
     atom  152 type  1   force =    -0.12268219    0.09010644    0.04254035
     atom  153 type  1   force =     0.01489977   -0.02274585    0.17298234
     atom  154 type  1   force =    -0.12284919    0.18089883    0.12370545
     atom  155 type  1   force =    -0.04023020    0.44485851   -0.04023030
     atom  156 type  1   force =    -0.28131252    0.93834538   -0.28131807
     atom  157 type  1   force =    -0.12348756   -0.18013786    0.12295459
     atom  158 type  1   force =    -0.17371397    0.02150480   -0.01639468
     atom  159 type  1   force =    -0.24685148    0.20108566    0.14766675
     atom  160 type  1   force =    -0.25533201    0.27331238    0.06417998
     atom  161 type  1   force =     0.12296030   -0.18013776   -0.12348131
     atom  162 type  1   force =    -0.01639175    0.02150548   -0.17370848
     atom  163 type  1   force =     0.11259750    0.08328163   -0.16154397
     atom  164 type  1   force =    -0.11414717    0.16322363   -0.08490824
     atom  165 type  1   force =     0.00014794   -0.17182252   -0.16307252
     atom  166 type  1   force =    -0.11643763   -0.04002568   -0.11817987
     atom  167 type  1   force =    -0.14618130    0.16410323   -0.14617802
     atom  168 type  1   force =    -0.20699037    0.26083902   -0.20698922
     atom  169 type  1   force =     0.01489972    0.17298234   -0.02274601
     atom  170 type  1   force =    -0.12284924    0.12370544    0.18089877
     atom  171 type  1   force =    -0.04023021   -0.04023044    0.44485835
     atom  172 type  1   force =    -0.28131246   -0.28131816    0.93834535
     atom  173 type  1   force =    -0.24685148    0.14766681    0.20108563
     atom  174 type  1   force =    -0.25533206    0.06417990    0.27331225
     atom  175 type  1   force =    -0.12348756    0.12295457   -0.18013792
     atom  176 type  1   force =    -0.17371406   -0.01639472    0.02150465
     atom  177 type  1   force =    -0.15095510    0.89458210    0.89458218
     atom  178 type  1   force =    -1.97352303    1.71883644    1.71883654
     atom  179 type  1   force =    -0.91728461    0.75598417    0.24506050
     atom  180 type  1   force =    -0.75727075    0.91826111   -0.24558720
     atom  181 type  1   force =    -0.91728474    0.24506038    0.75598413
     atom  182 type  1   force =    -0.75727078   -0.24558724    0.91826122
     atom  183 type  1   force =     0.24506133    0.75598309   -0.91727946
     atom  184 type  1   force =    -0.24558390    0.91826418   -0.75727237
     atom  185 type  1   force =     0.28020166    0.28019447   -0.93609566
     atom  186 type  1   force =     0.04068472    0.04067676   -0.44637562
     atom  187 type  1   force =    -0.06535482    0.25382783   -0.27260635
     atom  188 type  1   force =    -0.14538248    0.24880760   -0.20121017
     atom  189 type  1   force =    -1.71779098    1.97419265   -1.71778518
     atom  190 type  1   force =    -0.89537028    0.15133859   -0.89536671
     atom  191 type  1   force =     0.12296034   -0.12348135   -0.18013788
     atom  192 type  1   force =    -0.01639171   -0.17370858    0.02150532
     atom  193 type  1   force =     0.11259753   -0.16154395    0.08328158
     atom  194 type  1   force =    -0.11414704   -0.08490815    0.16322364
     atom  195 type  1   force =    -0.14618133   -0.14617818    0.16410306
     atom  196 type  1   force =    -0.20699031   -0.20698926    0.26083898
     atom  197 type  1   force =     0.00014794   -0.16307249   -0.17182259
     atom  198 type  1   force =    -0.11643761   -0.11817978   -0.04002588
     atom  199 type  1   force =     0.24506135   -0.91727967    0.75598305
     atom  200 type  1   force =    -0.24558361   -0.75727257    0.91826455
     atom  201 type  1   force =     0.28020170   -0.93609562    0.28019475
     atom  202 type  1   force =     0.04068474   -0.44637562    0.04067686
     atom  203 type  1   force =    -1.71779099   -1.71778476    1.97419269
     atom  204 type  1   force =    -0.89537051   -0.89536685    0.15133838
     atom  205 type  1   force =    -0.06535478   -0.27260630    0.25382789
     atom  206 type  1   force =    -0.14538257   -0.20121003    0.24880764
     atom  207 type  1   force =     1.97419599   -1.71779197   -1.71779239
     atom  208 type  1   force =     0.15133983   -0.89536877   -0.89536881
     atom  209 type  1   force =     0.30454283   -0.35910496   -0.35910502
     atom  210 type  1   force =    -0.02116471   -0.19563911   -0.19563920
     atom  211 type  1   force =    -0.18215921   -0.18216441   -0.82359031
     atom  212 type  1   force =    -0.24498507   -0.24499021   -0.35064603
     atom  213 type  1   force =    -0.18215937   -0.82359023   -0.18216433
     atom  214 type  1   force =    -0.24498524   -0.35064606   -0.24499011
     atom  215 type  2   force =    -0.00051612   -0.00051492   -0.00051490
     The local contribution  to forces
     atom    1 type  1   force =     0.02519862    0.03526023    0.03526040
     atom    2 type  1   force =     0.06509724    0.01621502    0.01621518
     atom    3 type  1   force =     0.05055891   -0.08155613   -0.08155607
     atom    4 type  1   force =     0.03826801   -0.06155714   -0.06155720
     atom    5 type  1   force =    -0.01966328   -0.01966894   -0.06869161
     atom    6 type  1   force =    -0.03378319   -0.03378575   -0.02152111
     atom    7 type  1   force =    -0.01966334   -0.06869163   -0.01966881
     atom    8 type  1   force =    -0.03378317   -0.02152104   -0.03378556
     atom    9 type  1   force =     0.08685648    0.03947733   -0.12253279
     atom   10 type  1   force =     0.04751180   -0.01746674    0.00965678
     atom   11 type  1   force =     0.16034850   -0.07820565   -0.12318509
     atom   12 type  1   force =     0.07997253   -0.16211304    0.12472055
     atom   13 type  1   force =     0.05884903    0.05885459   -0.13040085
     atom   14 type  1   force =    -0.05930259   -0.05930692    0.13302213
     atom   15 type  1   force =    -0.04025027   -0.11960371   -0.12042762
     atom   16 type  1   force =    -0.16568277   -0.15523724    0.00963237
     atom   17 type  1   force =     0.15822164    0.16835360   -0.00543837
     atom   18 type  1   force =     0.11759390    0.03892040    0.11817954
     atom   19 type  1   force =     0.06285359   -0.03645213    0.06284717
     atom   20 type  1   force =     0.07823361   -0.05314630    0.07822706
     atom   21 type  1   force =     0.03526842    0.03527008    0.02519573
     atom   22 type  1   force =     0.01621182    0.01621531    0.06509277
     atom   23 type  1   force =     0.01604246   -0.04640259   -0.00737860
     atom   24 type  1   force =    -0.04201571   -0.08842712    0.12108147
     atom   25 type  1   force =     0.08685647   -0.12253269    0.03947741
     atom   26 type  1   force =     0.04751188    0.00965686   -0.01746663
     atom   27 type  1   force =     0.16034855   -0.12318499   -0.07820568
     atom   28 type  1   force =     0.07997260    0.12472055   -0.16211309
     atom   29 type  1   force =    -0.04025022   -0.12042753   -0.11960366
     atom   30 type  1   force =    -0.16568275    0.00963246   -0.15523726
     atom   31 type  1   force =     0.05884905   -0.13040080    0.05885471
     atom   32 type  1   force =    -0.05930254    0.13302210   -0.05930686
     atom   33 type  1   force =     0.25617415   -0.20239505   -0.20239514
     atom   34 type  1   force =     0.15914183   -0.14214737   -0.14214746
     atom   35 type  1   force =     0.93017490   -0.27383380   -0.27383389
     atom   36 type  1   force =     0.43235641   -0.04025500   -0.04025489
     atom   37 type  1   force =     0.02633535   -0.17024949   -0.01706887
     atom   38 type  1   force =    -0.18102893   -0.12090404    0.12167956
     atom   39 type  1   force =     0.02633541   -0.01706889   -0.17024961
     atom   40 type  1   force =    -0.18102881    0.12167955   -0.12090408
     atom   41 type  1   force =     0.26838538   -0.24239812    0.04468275
     atom   42 type  1   force =     0.19234158   -0.24710766    0.14212187
     atom   43 type  1   force =     0.35055804   -0.29636285    0.35056319
     atom   44 type  1   force =     0.19126975    0.02434619    0.19127438
     atom   45 type  1   force =     0.03947330   -0.12253544    0.08685158
     atom   46 type  1   force =    -0.01746212    0.00966023    0.04750713
     atom   47 type  1   force =     0.18030772   -0.12166472    0.12071486
     atom   48 type  1   force =    -0.02507924    0.01853000    0.17108765
     atom   49 type  1   force =     0.15822163   -0.00543833    0.16835376
     atom   50 type  1   force =     0.11759384    0.11817965    0.03892047
     atom   51 type  1   force =     0.06285348    0.06284724   -0.03645214
     atom   52 type  1   force =     0.07823361    0.07822695   -0.05314646
     atom   53 type  1   force =     0.01604250   -0.00737855   -0.04640261
     atom   54 type  1   force =    -0.04201565    0.12108152   -0.08842710
     atom   55 type  1   force =     0.03526837    0.02519583    0.03527025
     atom   56 type  1   force =     0.01621183    0.06509270    0.01621547
     atom   57 type  1   force =     0.26838525    0.04468278   -0.24239814
     atom   58 type  1   force =     0.19234147    0.14212202   -0.24710774
     atom   59 type  1   force =     0.35055800    0.35056314   -0.29636306
     atom   60 type  1   force =     0.19126984    0.19127439    0.02434629
     atom   61 type  1   force =     0.18030778    0.12071486   -0.12166484
     atom   62 type  1   force =    -0.02507910    0.17108775    0.01853002
     atom   63 type  1   force =     0.03947329    0.08685159   -0.12253549
     atom   64 type  1   force =    -0.01746204    0.04750700    0.00966008
     atom   65 type  1   force =     0.80234369    0.17375446    0.17375425
     atom   66 type  1   force =     0.34253971    0.24501180    0.24501171
     atom   67 type  1   force =     0.18114535    0.18114907    0.18114908
     atom   68 type  1   force =     0.14061651    0.14062227    0.14062241
     atom   69 type  1   force =     0.16835825   -0.00543615    0.15822032
     atom   70 type  1   force =     0.03892037    0.11817941    0.11759025
     atom   71 type  1   force =     0.16835824    0.15822035   -0.00543615
     atom   72 type  1   force =     0.03892040    0.11759016    0.11817934
     atom   73 type  1   force =    -0.06869090   -0.01966688   -0.01966669
     atom   74 type  1   force =    -0.02151093   -0.03378594   -0.03378573
     atom   75 type  1   force =    -0.14335778   -0.14335325   -0.14335318
     atom   76 type  1   force =    -0.17659769   -0.17659227   -0.17659230
     atom   77 type  1   force =    -0.12043030   -0.04024631   -0.11960401
     atom   78 type  1   force =     0.00962539   -0.16568180   -0.15523868
     atom   79 type  1   force =    -0.12043023   -0.11960412   -0.04024615
     atom   80 type  1   force =     0.00962546   -0.15523864   -0.16568166
     atom   81 type  1   force =    -0.11960106   -0.04024286   -0.12042585
     atom   82 type  1   force =    -0.15524346   -0.16568486    0.00962962
     atom   83 type  1   force =    -0.19092680   -0.19093003   -0.02508536
     atom   84 type  1   force =    -0.35171737   -0.35171949    0.29695370
     atom   85 type  1   force =    -0.17024783    0.02633244   -0.01707361
     atom   86 type  1   force =    -0.12090268   -0.18102934    0.12168022
     atom   87 type  1   force =    -0.24492084   -0.34168735   -0.24492415
     atom   88 type  1   force =    -0.17334941   -0.80286099   -0.17334783
     atom   89 type  1   force =    -0.04639541    0.01604073   -0.00738306
     atom   90 type  1   force =    -0.08842261   -0.04202299    0.12107914
     atom   91 type  1   force =    -0.08156005   -0.08155675    0.05055218
     atom   92 type  1   force =    -0.06155346   -0.06155835    0.03826942
     atom   93 type  1   force =    -0.12253940    0.03947690    0.08685113
     atom   94 type  1   force =     0.00965323   -0.01746425    0.04750837
     atom   95 type  1   force =    -0.14426388   -0.19207237    0.24519996
     atom   96 type  1   force =    -0.04349989   -0.26919087    0.24416215
     atom   97 type  1   force =    -0.11960112   -0.12042569   -0.04024264
     atom   98 type  1   force =    -0.15524345    0.00962973   -0.16568474
     atom   99 type  1   force =    -0.19092679   -0.02508534   -0.19092997
     atom  100 type  1   force =    -0.35171721    0.29695368   -0.35171938
     atom  101 type  1   force =    -0.24492088   -0.24492402   -0.34168726
     atom  102 type  1   force =    -0.17334938   -0.17334761   -0.80286092
     atom  103 type  1   force =    -0.17024781   -0.01707365    0.02633274
     atom  104 type  1   force =    -0.12090255    0.12168031   -0.18102907
     atom  105 type  1   force =    -0.34168537   -0.24492635   -0.24492648
     atom  106 type  1   force =    -0.80286231   -0.17335020   -0.17335040
     atom  107 type  1   force =    -0.43074203    0.03981646    0.03981629
     atom  108 type  1   force =    -0.93242122    0.27513474    0.27513460
     atom  109 type  1   force =    -0.86912637   -0.86913147    0.14774551
     atom  110 type  1   force =    -1.55181608   -1.55182087    1.83985059
     atom  111 type  1   force =    -0.86912631    0.14774575   -0.86913159
     atom  112 type  1   force =    -1.55181602    1.83985060   -1.55182112
     atom  113 type  1   force =    -0.19207487   -0.14426555    0.24519412
     atom  114 type  1   force =    -0.26918785   -0.04349803    0.24415818
     atom  115 type  1   force =    -0.07821478   -0.12318766    0.16035389
     atom  116 type  1   force =    -0.16211678    0.12472760    0.07997976
     atom  117 type  1   force =    -0.20239411   -0.20239944    0.25617151
     atom  118 type  1   force =    -0.14215131   -0.14214579    0.15914293
     atom  119 type  1   force =    -0.72511481   -0.27251811    0.93133764
     atom  120 type  1   force =    -0.93231169    0.27311960    0.72657147
     atom  121 type  1   force =    -0.04639546   -0.00738304    0.01604090
     atom  122 type  1   force =    -0.08842260    0.12107928   -0.04202283
     atom  123 type  1   force =    -0.08156001    0.05055224   -0.08155668
     atom  124 type  1   force =    -0.06155346    0.03826945   -0.06155839
     atom  125 type  1   force =    -0.14426370    0.24519993   -0.19207215
     atom  126 type  1   force =    -0.04349976    0.24416204   -0.26919083
     atom  127 type  1   force =    -0.12253939    0.08685117    0.03947709
     atom  128 type  1   force =     0.00965333    0.04750822   -0.01746407
     atom  129 type  1   force =    -0.19207477    0.24519415   -0.14426566
     atom  130 type  1   force =    -0.26918773    0.24415825   -0.04349803
     atom  131 type  1   force =    -0.07821461    0.16035385   -0.12318773
     atom  132 type  1   force =    -0.16211669    0.07997963    0.12472752
     atom  133 type  1   force =    -0.72511479    0.93133780   -0.27251827
     atom  134 type  1   force =    -0.93231196    0.72657171    0.27311918
     atom  135 type  1   force =    -0.20239411    0.25617147   -0.20239939
     atom  136 type  1   force =    -0.14215140    0.15914275   -0.14214586
     atom  137 type  1   force =    -0.15714836    0.14137504    0.14137489
     atom  138 type  1   force =    -0.25710768    0.20442457    0.20442437
     atom  139 type  1   force =    -0.03644777    0.06284705    0.06284695
     atom  140 type  1   force =    -0.05314442    0.07822604    0.07822608
     atom  141 type  1   force =    -0.24239369    0.04468950    0.26838772
     atom  142 type  1   force =    -0.24710958    0.14211687    0.19233718
     atom  143 type  1   force =    -0.24239382    0.26838780    0.04468944
     atom  144 type  1   force =    -0.24710971    0.19233712    0.14211672
     atom  145 type  1   force =    -0.13040213    0.05885275    0.05885297
     atom  146 type  1   force =     0.13302520   -0.05930768   -0.05930760
     atom  147 type  1   force =    -0.02509048   -0.19092977   -0.19092968
     atom  148 type  1   force =     0.29695615   -0.35171240   -0.35171244
     atom  149 type  1   force =    -0.00738669    0.01604252   -0.04640407
     atom  150 type  1   force =     0.12108479   -0.04201883   -0.08842578
     atom  151 type  1   force =    -0.00738676   -0.04640404    0.01604271
     atom  152 type  1   force =     0.12108471   -0.08842576   -0.04201864
     atom  153 type  1   force =    -0.01707036    0.02633376   -0.17025068
     atom  154 type  1   force =     0.12167367   -0.18102129   -0.12090630
     atom  155 type  1   force =     0.03981639   -0.43073741    0.03981603
     atom  156 type  1   force =     0.27512937   -0.93241646    0.27513442
     atom  157 type  1   force =     0.12071990    0.18030470   -0.12166486
     atom  158 type  1   force =     0.17109422   -0.02507501    0.01852916
     atom  159 type  1   force =     0.24519011   -0.19206802   -0.14426024
     atom  160 type  1   force =     0.24416141   -0.26918975   -0.04348985
     atom  161 type  1   force =    -0.12167070    0.18030467    0.12071342
     atom  162 type  1   force =     0.01852616   -0.02507577    0.17108853
     atom  163 type  1   force =    -0.12319240   -0.07820891    0.16034867
     atom  164 type  1   force =     0.12471933   -0.16211076    0.07997692
     atom  165 type  1   force =    -0.00542814    0.16834812    0.15822677
     atom  166 type  1   force =     0.11817572    0.03891102    0.11758725
     atom  167 type  1   force =     0.14137809   -0.15714031    0.14137447
     atom  168 type  1   force =     0.20441654   -0.25710557    0.20441533
     atom  169 type  1   force =    -0.01707027   -0.17025053    0.02633396
     atom  170 type  1   force =     0.12167371   -0.12090624   -0.18102127
     atom  171 type  1   force =     0.03981636    0.03981631   -0.43073723
     atom  172 type  1   force =     0.27512915    0.27513450   -0.93241649
     atom  173 type  1   force =     0.24519005   -0.14426028   -0.19206804
     atom  174 type  1   force =     0.24416142   -0.04348982   -0.26918971
     atom  175 type  1   force =     0.12071983   -0.12166476    0.18030477
     atom  176 type  1   force =     0.17109416    0.01852926   -0.02507497
     atom  177 type  1   force =     0.14774743   -0.86912712   -0.86912731
     atom  178 type  1   force =     1.83984614   -1.55181774   -1.55181795
     atom  179 type  1   force =     0.93133729   -0.72511661   -0.27251264
     atom  180 type  1   force =     0.72656666   -0.93231826    0.27311703
     atom  181 type  1   force =     0.93133728   -0.27251250   -0.72511656
     atom  182 type  1   force =     0.72656653    0.27311713   -0.93231830
     atom  183 type  1   force =    -0.27251268   -0.72511569    0.93133228
     atom  184 type  1   force =     0.27311382   -0.93232108    0.72656856
     atom  185 type  1   force =    -0.27383554   -0.27382842    0.93016930
     atom  186 type  1   force =    -0.04025979   -0.04025195    0.43234931
     atom  187 type  1   force =     0.04468187   -0.24239917    0.26837980
     atom  188 type  1   force =     0.14212707   -0.24709846    0.19233695
     atom  189 type  1   force =     1.55079805   -1.84036046    1.55079172
     atom  190 type  1   force =     0.87010121   -0.14796936    0.87009741
     atom  191 type  1   force =    -0.12167056    0.12071345    0.18030493
     atom  192 type  1   force =     0.01852619    0.17108853   -0.02507559
     atom  193 type  1   force =    -0.12319235    0.16034861   -0.07820888
     atom  194 type  1   force =     0.12471921    0.07997671   -0.16211094
     atom  195 type  1   force =     0.14137798    0.14137463   -0.15714027
     atom  196 type  1   force =     0.20441636    0.20441541   -0.25710564
     atom  197 type  1   force =    -0.00542812    0.15822663    0.16834829
     atom  198 type  1   force =     0.11817575    0.11758705    0.03891122
     atom  199 type  1   force =    -0.27251270    0.93133231   -0.72511578
     atom  200 type  1   force =     0.27311350    0.72656863   -0.93232149
     atom  201 type  1   force =    -0.27383566    0.93016917   -0.27382861
     atom  202 type  1   force =    -0.04025988    0.43234913   -0.04025205
     atom  203 type  1   force =     1.55079799    1.55079125   -1.84036052
     atom  204 type  1   force =     0.87010133    0.87009752   -0.14796913
     atom  205 type  1   force =     0.04468181    0.26837965   -0.24239933
     atom  206 type  1   force =     0.14212721    0.19233683   -0.24709856
     atom  207 type  1   force =    -1.84036381    1.55079899    1.55079931
     atom  208 type  1   force =    -0.14797048    0.87009933    0.87009935
     atom  209 type  1   force =    -0.29636258    0.35055642    0.35055654
     atom  210 type  1   force =     0.02435345    0.19126913    0.19126930
     atom  211 type  1   force =     0.17375053    0.17375591    0.80234334
     atom  212 type  1   force =     0.24501368    0.24501898    0.34254408
     atom  213 type  1   force =     0.17375067    0.80234316    0.17375583
     atom  214 type  1   force =     0.24501386    0.34254395    0.24501889
     atom  215 type  2   force =     0.00077403    0.00077175    0.00077153
     The core correction contribution to forces
     atom    1 type  1   force =     0.00000000    0.00000000    0.00000000
     atom    2 type  1   force =     0.00000000    0.00000000    0.00000000
     atom    3 type  1   force =     0.00000000    0.00000000    0.00000000
     atom    4 type  1   force =     0.00000000    0.00000000    0.00000000
     atom    5 type  1   force =     0.00000000    0.00000000    0.00000000
     atom    6 type  1   force =     0.00000000    0.00000000    0.00000000
     atom    7 type  1   force =     0.00000000    0.00000000    0.00000000
     atom    8 type  1   force =     0.00000000    0.00000000    0.00000000
     atom    9 type  1   force =     0.00000000    0.00000000    0.00000000
     atom   10 type  1   force =     0.00000000    0.00000000    0.00000000
     atom   11 type  1   force =     0.00000000    0.00000000    0.00000000
     atom   12 type  1   force =     0.00000000    0.00000000    0.00000000
     atom   13 type  1   force =     0.00000000    0.00000000    0.00000000
     atom   14 type  1   force =     0.00000000    0.00000000    0.00000000
     atom   15 type  1   force =     0.00000000    0.00000000    0.00000000
     atom   16 type  1   force =     0.00000000    0.00000000    0.00000000
     atom   17 type  1   force =     0.00000000    0.00000000    0.00000000
     atom   18 type  1   force =     0.00000000    0.00000000    0.00000000
     atom   19 type  1   force =     0.00000000    0.00000000    0.00000000
     atom   20 type  1   force =     0.00000000    0.00000000    0.00000000
     atom   21 type  1   force =     0.00000000    0.00000000    0.00000000
     atom   22 type  1   force =     0.00000000    0.00000000    0.00000000
     atom   23 type  1   force =     0.00000000    0.00000000    0.00000000
     atom   24 type  1   force =     0.00000000    0.00000000    0.00000000
     atom   25 type  1   force =     0.00000000    0.00000000    0.00000000
     atom   26 type  1   force =     0.00000000    0.00000000    0.00000000
     atom   27 type  1   force =     0.00000000    0.00000000    0.00000000
     atom   28 type  1   force =     0.00000000    0.00000000    0.00000000
     atom   29 type  1   force =     0.00000000    0.00000000    0.00000000
     atom   30 type  1   force =     0.00000000    0.00000000    0.00000000
     atom   31 type  1   force =     0.00000000    0.00000000    0.00000000
     atom   32 type  1   force =     0.00000000    0.00000000    0.00000000
     atom   33 type  1   force =     0.00000000    0.00000000    0.00000000
     atom   34 type  1   force =     0.00000000    0.00000000    0.00000000
     atom   35 type  1   force =     0.00000000    0.00000000    0.00000000
     atom   36 type  1   force =     0.00000000    0.00000000    0.00000000
     atom   37 type  1   force =     0.00000000    0.00000000    0.00000000
     atom   38 type  1   force =     0.00000000    0.00000000    0.00000000
     atom   39 type  1   force =     0.00000000    0.00000000    0.00000000
     atom   40 type  1   force =     0.00000000    0.00000000    0.00000000
     atom   41 type  1   force =     0.00000000    0.00000000    0.00000000
     atom   42 type  1   force =     0.00000000    0.00000000    0.00000000
     atom   43 type  1   force =     0.00000000    0.00000000    0.00000000
     atom   44 type  1   force =     0.00000000    0.00000000    0.00000000
     atom   45 type  1   force =     0.00000000    0.00000000    0.00000000
     atom   46 type  1   force =     0.00000000    0.00000000    0.00000000
     atom   47 type  1   force =     0.00000000    0.00000000    0.00000000
     atom   48 type  1   force =     0.00000000    0.00000000    0.00000000
     atom   49 type  1   force =     0.00000000    0.00000000    0.00000000
     atom   50 type  1   force =     0.00000000    0.00000000    0.00000000
     atom   51 type  1   force =     0.00000000    0.00000000    0.00000000
     atom   52 type  1   force =     0.00000000    0.00000000    0.00000000
     atom   53 type  1   force =     0.00000000    0.00000000    0.00000000
     atom   54 type  1   force =     0.00000000    0.00000000    0.00000000
     atom   55 type  1   force =     0.00000000    0.00000000    0.00000000
     atom   56 type  1   force =     0.00000000    0.00000000    0.00000000
     atom   57 type  1   force =     0.00000000    0.00000000    0.00000000
     atom   58 type  1   force =     0.00000000    0.00000000    0.00000000
     atom   59 type  1   force =     0.00000000    0.00000000    0.00000000
     atom   60 type  1   force =     0.00000000    0.00000000    0.00000000
     atom   61 type  1   force =     0.00000000    0.00000000    0.00000000
     atom   62 type  1   force =     0.00000000    0.00000000    0.00000000
     atom   63 type  1   force =     0.00000000    0.00000000    0.00000000
     atom   64 type  1   force =     0.00000000    0.00000000    0.00000000
     atom   65 type  1   force =     0.00000000    0.00000000    0.00000000
     atom   66 type  1   force =     0.00000000    0.00000000    0.00000000
     atom   67 type  1   force =     0.00000000    0.00000000    0.00000000
     atom   68 type  1   force =     0.00000000    0.00000000    0.00000000
     atom   69 type  1   force =     0.00000000    0.00000000    0.00000000
     atom   70 type  1   force =     0.00000000    0.00000000    0.00000000
     atom   71 type  1   force =     0.00000000    0.00000000    0.00000000
     atom   72 type  1   force =     0.00000000    0.00000000    0.00000000
     atom   73 type  1   force =     0.00000000    0.00000000    0.00000000
     atom   74 type  1   force =     0.00000000    0.00000000    0.00000000
     atom   75 type  1   force =     0.00000000    0.00000000    0.00000000
     atom   76 type  1   force =     0.00000000    0.00000000    0.00000000
     atom   77 type  1   force =     0.00000000    0.00000000    0.00000000
     atom   78 type  1   force =     0.00000000    0.00000000    0.00000000
     atom   79 type  1   force =     0.00000000    0.00000000    0.00000000
     atom   80 type  1   force =     0.00000000    0.00000000    0.00000000
     atom   81 type  1   force =     0.00000000    0.00000000    0.00000000
     atom   82 type  1   force =     0.00000000    0.00000000    0.00000000
     atom   83 type  1   force =     0.00000000    0.00000000    0.00000000
     atom   84 type  1   force =     0.00000000    0.00000000    0.00000000
     atom   85 type  1   force =     0.00000000    0.00000000    0.00000000
     atom   86 type  1   force =     0.00000000    0.00000000    0.00000000
     atom   87 type  1   force =     0.00000000    0.00000000    0.00000000
     atom   88 type  1   force =     0.00000000    0.00000000    0.00000000
     atom   89 type  1   force =     0.00000000    0.00000000    0.00000000
     atom   90 type  1   force =     0.00000000    0.00000000    0.00000000
     atom   91 type  1   force =     0.00000000    0.00000000    0.00000000
     atom   92 type  1   force =     0.00000000    0.00000000    0.00000000
     atom   93 type  1   force =     0.00000000    0.00000000    0.00000000
     atom   94 type  1   force =     0.00000000    0.00000000    0.00000000
     atom   95 type  1   force =     0.00000000    0.00000000    0.00000000
     atom   96 type  1   force =     0.00000000    0.00000000    0.00000000
     atom   97 type  1   force =     0.00000000    0.00000000    0.00000000
     atom   98 type  1   force =     0.00000000    0.00000000    0.00000000
     atom   99 type  1   force =     0.00000000    0.00000000    0.00000000
     atom  100 type  1   force =     0.00000000    0.00000000    0.00000000
     atom  101 type  1   force =     0.00000000    0.00000000    0.00000000
     atom  102 type  1   force =     0.00000000    0.00000000    0.00000000
     atom  103 type  1   force =     0.00000000    0.00000000    0.00000000
     atom  104 type  1   force =     0.00000000    0.00000000    0.00000000
     atom  105 type  1   force =     0.00000000    0.00000000    0.00000000
     atom  106 type  1   force =     0.00000000    0.00000000    0.00000000
     atom  107 type  1   force =     0.00000000    0.00000000    0.00000000
     atom  108 type  1   force =     0.00000000    0.00000000    0.00000000
     atom  109 type  1   force =     0.00000000    0.00000000    0.00000000
     atom  110 type  1   force =     0.00000000    0.00000000    0.00000000
     atom  111 type  1   force =     0.00000000    0.00000000    0.00000000
     atom  112 type  1   force =     0.00000000    0.00000000    0.00000000
     atom  113 type  1   force =     0.00000000    0.00000000    0.00000000
     atom  114 type  1   force =     0.00000000    0.00000000    0.00000000
     atom  115 type  1   force =     0.00000000    0.00000000    0.00000000
     atom  116 type  1   force =     0.00000000    0.00000000    0.00000000
     atom  117 type  1   force =     0.00000000    0.00000000    0.00000000
     atom  118 type  1   force =     0.00000000    0.00000000    0.00000000
     atom  119 type  1   force =     0.00000000    0.00000000    0.00000000
     atom  120 type  1   force =     0.00000000    0.00000000    0.00000000
     atom  121 type  1   force =     0.00000000    0.00000000    0.00000000
     atom  122 type  1   force =     0.00000000    0.00000000    0.00000000
     atom  123 type  1   force =     0.00000000    0.00000000    0.00000000
     atom  124 type  1   force =     0.00000000    0.00000000    0.00000000
     atom  125 type  1   force =     0.00000000    0.00000000    0.00000000
     atom  126 type  1   force =     0.00000000    0.00000000    0.00000000
     atom  127 type  1   force =     0.00000000    0.00000000    0.00000000
     atom  128 type  1   force =     0.00000000    0.00000000    0.00000000
     atom  129 type  1   force =     0.00000000    0.00000000    0.00000000
     atom  130 type  1   force =     0.00000000    0.00000000    0.00000000
     atom  131 type  1   force =     0.00000000    0.00000000    0.00000000
     atom  132 type  1   force =     0.00000000    0.00000000    0.00000000
     atom  133 type  1   force =     0.00000000    0.00000000    0.00000000
     atom  134 type  1   force =     0.00000000    0.00000000    0.00000000
     atom  135 type  1   force =     0.00000000    0.00000000    0.00000000
     atom  136 type  1   force =     0.00000000    0.00000000    0.00000000
     atom  137 type  1   force =     0.00000000    0.00000000    0.00000000
     atom  138 type  1   force =     0.00000000    0.00000000    0.00000000
     atom  139 type  1   force =     0.00000000    0.00000000    0.00000000
     atom  140 type  1   force =     0.00000000    0.00000000    0.00000000
     atom  141 type  1   force =     0.00000000    0.00000000    0.00000000
     atom  142 type  1   force =     0.00000000    0.00000000    0.00000000
     atom  143 type  1   force =     0.00000000    0.00000000    0.00000000
     atom  144 type  1   force =     0.00000000    0.00000000    0.00000000
     atom  145 type  1   force =     0.00000000    0.00000000    0.00000000
     atom  146 type  1   force =     0.00000000    0.00000000    0.00000000
     atom  147 type  1   force =     0.00000000    0.00000000    0.00000000
     atom  148 type  1   force =     0.00000000    0.00000000    0.00000000
     atom  149 type  1   force =     0.00000000    0.00000000    0.00000000
     atom  150 type  1   force =     0.00000000    0.00000000    0.00000000
     atom  151 type  1   force =     0.00000000    0.00000000    0.00000000
     atom  152 type  1   force =     0.00000000    0.00000000    0.00000000
     atom  153 type  1   force =     0.00000000    0.00000000    0.00000000
     atom  154 type  1   force =     0.00000000    0.00000000    0.00000000
     atom  155 type  1   force =     0.00000000    0.00000000    0.00000000
     atom  156 type  1   force =     0.00000000    0.00000000    0.00000000
     atom  157 type  1   force =     0.00000000    0.00000000    0.00000000
     atom  158 type  1   force =     0.00000000    0.00000000    0.00000000
     atom  159 type  1   force =     0.00000000    0.00000000    0.00000000
     atom  160 type  1   force =     0.00000000    0.00000000    0.00000000
     atom  161 type  1   force =     0.00000000    0.00000000    0.00000000
     atom  162 type  1   force =     0.00000000    0.00000000    0.00000000
     atom  163 type  1   force =     0.00000000    0.00000000    0.00000000
     atom  164 type  1   force =     0.00000000    0.00000000    0.00000000
     atom  165 type  1   force =     0.00000000    0.00000000    0.00000000
     atom  166 type  1   force =     0.00000000    0.00000000    0.00000000
     atom  167 type  1   force =     0.00000000    0.00000000    0.00000000
     atom  168 type  1   force =     0.00000000    0.00000000    0.00000000
     atom  169 type  1   force =     0.00000000    0.00000000    0.00000000
     atom  170 type  1   force =     0.00000000    0.00000000    0.00000000
     atom  171 type  1   force =     0.00000000    0.00000000    0.00000000
     atom  172 type  1   force =     0.00000000    0.00000000    0.00000000
     atom  173 type  1   force =     0.00000000    0.00000000    0.00000000
     atom  174 type  1   force =     0.00000000    0.00000000    0.00000000
     atom  175 type  1   force =     0.00000000    0.00000000    0.00000000
     atom  176 type  1   force =     0.00000000    0.00000000    0.00000000
     atom  177 type  1   force =     0.00000000    0.00000000    0.00000000
     atom  178 type  1   force =     0.00000000    0.00000000    0.00000000
     atom  179 type  1   force =     0.00000000    0.00000000    0.00000000
     atom  180 type  1   force =     0.00000000    0.00000000    0.00000000
     atom  181 type  1   force =     0.00000000    0.00000000    0.00000000
     atom  182 type  1   force =     0.00000000    0.00000000    0.00000000
     atom  183 type  1   force =     0.00000000    0.00000000    0.00000000
     atom  184 type  1   force =     0.00000000    0.00000000    0.00000000
     atom  185 type  1   force =     0.00000000    0.00000000    0.00000000
     atom  186 type  1   force =     0.00000000    0.00000000    0.00000000
     atom  187 type  1   force =     0.00000000    0.00000000    0.00000000
     atom  188 type  1   force =     0.00000000    0.00000000    0.00000000
     atom  189 type  1   force =     0.00000000    0.00000000    0.00000000
     atom  190 type  1   force =     0.00000000    0.00000000    0.00000000
     atom  191 type  1   force =     0.00000000    0.00000000    0.00000000
     atom  192 type  1   force =     0.00000000    0.00000000    0.00000000
     atom  193 type  1   force =     0.00000000    0.00000000    0.00000000
     atom  194 type  1   force =     0.00000000    0.00000000    0.00000000
     atom  195 type  1   force =     0.00000000    0.00000000    0.00000000
     atom  196 type  1   force =     0.00000000    0.00000000    0.00000000
     atom  197 type  1   force =     0.00000000    0.00000000    0.00000000
     atom  198 type  1   force =     0.00000000    0.00000000    0.00000000
     atom  199 type  1   force =     0.00000000    0.00000000    0.00000000
     atom  200 type  1   force =     0.00000000    0.00000000    0.00000000
     atom  201 type  1   force =     0.00000000    0.00000000    0.00000000
     atom  202 type  1   force =     0.00000000    0.00000000    0.00000000
     atom  203 type  1   force =     0.00000000    0.00000000    0.00000000
     atom  204 type  1   force =     0.00000000    0.00000000    0.00000000
     atom  205 type  1   force =     0.00000000    0.00000000    0.00000000
     atom  206 type  1   force =     0.00000000    0.00000000    0.00000000
     atom  207 type  1   force =     0.00000000    0.00000000    0.00000000
     atom  208 type  1   force =     0.00000000    0.00000000    0.00000000
     atom  209 type  1   force =     0.00000000    0.00000000    0.00000000
     atom  210 type  1   force =     0.00000000    0.00000000    0.00000000
     atom  211 type  1   force =     0.00000000    0.00000000    0.00000000
     atom  212 type  1   force =     0.00000000    0.00000000    0.00000000
     atom  213 type  1   force =     0.00000000    0.00000000    0.00000000
     atom  214 type  1   force =     0.00000000    0.00000000    0.00000000
     atom  215 type  2   force =     0.00000000    0.00000000    0.00000000
     The Hubbard contrib.    to forces
     atom    1 type  1   force =     0.00000000    0.00000000    0.00000000
     atom    2 type  1   force =     0.00000000    0.00000000    0.00000000
     atom    3 type  1   force =     0.00000000    0.00000000    0.00000000
     atom    4 type  1   force =     0.00000000    0.00000000    0.00000000
     atom    5 type  1   force =     0.00000000    0.00000000    0.00000000
     atom    6 type  1   force =     0.00000000    0.00000000    0.00000000
     atom    7 type  1   force =     0.00000000    0.00000000    0.00000000
     atom    8 type  1   force =     0.00000000    0.00000000    0.00000000
     atom    9 type  1   force =     0.00000000    0.00000000    0.00000000
     atom   10 type  1   force =     0.00000000    0.00000000    0.00000000
     atom   11 type  1   force =     0.00000000    0.00000000    0.00000000
     atom   12 type  1   force =     0.00000000    0.00000000    0.00000000
     atom   13 type  1   force =     0.00000000    0.00000000    0.00000000
     atom   14 type  1   force =     0.00000000    0.00000000    0.00000000
     atom   15 type  1   force =     0.00000000    0.00000000    0.00000000
     atom   16 type  1   force =     0.00000000    0.00000000    0.00000000
     atom   17 type  1   force =     0.00000000    0.00000000    0.00000000
     atom   18 type  1   force =     0.00000000    0.00000000    0.00000000
     atom   19 type  1   force =     0.00000000    0.00000000    0.00000000
     atom   20 type  1   force =     0.00000000    0.00000000    0.00000000
     atom   21 type  1   force =     0.00000000    0.00000000    0.00000000
     atom   22 type  1   force =     0.00000000    0.00000000    0.00000000
     atom   23 type  1   force =     0.00000000    0.00000000    0.00000000
     atom   24 type  1   force =     0.00000000    0.00000000    0.00000000
     atom   25 type  1   force =     0.00000000    0.00000000    0.00000000
     atom   26 type  1   force =     0.00000000    0.00000000    0.00000000
     atom   27 type  1   force =     0.00000000    0.00000000    0.00000000
     atom   28 type  1   force =     0.00000000    0.00000000    0.00000000
     atom   29 type  1   force =     0.00000000    0.00000000    0.00000000
     atom   30 type  1   force =     0.00000000    0.00000000    0.00000000
     atom   31 type  1   force =     0.00000000    0.00000000    0.00000000
     atom   32 type  1   force =     0.00000000    0.00000000    0.00000000
     atom   33 type  1   force =     0.00000000    0.00000000    0.00000000
     atom   34 type  1   force =     0.00000000    0.00000000    0.00000000
     atom   35 type  1   force =     0.00000000    0.00000000    0.00000000
     atom   36 type  1   force =     0.00000000    0.00000000    0.00000000
     atom   37 type  1   force =     0.00000000    0.00000000    0.00000000
     atom   38 type  1   force =     0.00000000    0.00000000    0.00000000
     atom   39 type  1   force =     0.00000000    0.00000000    0.00000000
     atom   40 type  1   force =     0.00000000    0.00000000    0.00000000
     atom   41 type  1   force =     0.00000000    0.00000000    0.00000000
     atom   42 type  1   force =     0.00000000    0.00000000    0.00000000
     atom   43 type  1   force =     0.00000000    0.00000000    0.00000000
     atom   44 type  1   force =     0.00000000    0.00000000    0.00000000
     atom   45 type  1   force =     0.00000000    0.00000000    0.00000000
     atom   46 type  1   force =     0.00000000    0.00000000    0.00000000
     atom   47 type  1   force =     0.00000000    0.00000000    0.00000000
     atom   48 type  1   force =     0.00000000    0.00000000    0.00000000
     atom   49 type  1   force =     0.00000000    0.00000000    0.00000000
     atom   50 type  1   force =     0.00000000    0.00000000    0.00000000
     atom   51 type  1   force =     0.00000000    0.00000000    0.00000000
     atom   52 type  1   force =     0.00000000    0.00000000    0.00000000
     atom   53 type  1   force =     0.00000000    0.00000000    0.00000000
     atom   54 type  1   force =     0.00000000    0.00000000    0.00000000
     atom   55 type  1   force =     0.00000000    0.00000000    0.00000000
     atom   56 type  1   force =     0.00000000    0.00000000    0.00000000
     atom   57 type  1   force =     0.00000000    0.00000000    0.00000000
     atom   58 type  1   force =     0.00000000    0.00000000    0.00000000
     atom   59 type  1   force =     0.00000000    0.00000000    0.00000000
     atom   60 type  1   force =     0.00000000    0.00000000    0.00000000
     atom   61 type  1   force =     0.00000000    0.00000000    0.00000000
     atom   62 type  1   force =     0.00000000    0.00000000    0.00000000
     atom   63 type  1   force =     0.00000000    0.00000000    0.00000000
     atom   64 type  1   force =     0.00000000    0.00000000    0.00000000
     atom   65 type  1   force =     0.00000000    0.00000000    0.00000000
     atom   66 type  1   force =     0.00000000    0.00000000    0.00000000
     atom   67 type  1   force =     0.00000000    0.00000000    0.00000000
     atom   68 type  1   force =     0.00000000    0.00000000    0.00000000
     atom   69 type  1   force =     0.00000000    0.00000000    0.00000000
     atom   70 type  1   force =     0.00000000    0.00000000    0.00000000
     atom   71 type  1   force =     0.00000000    0.00000000    0.00000000
     atom   72 type  1   force =     0.00000000    0.00000000    0.00000000
     atom   73 type  1   force =     0.00000000    0.00000000    0.00000000
     atom   74 type  1   force =     0.00000000    0.00000000    0.00000000
     atom   75 type  1   force =     0.00000000    0.00000000    0.00000000
     atom   76 type  1   force =     0.00000000    0.00000000    0.00000000
     atom   77 type  1   force =     0.00000000    0.00000000    0.00000000
     atom   78 type  1   force =     0.00000000    0.00000000    0.00000000
     atom   79 type  1   force =     0.00000000    0.00000000    0.00000000
     atom   80 type  1   force =     0.00000000    0.00000000    0.00000000
     atom   81 type  1   force =     0.00000000    0.00000000    0.00000000
     atom   82 type  1   force =     0.00000000    0.00000000    0.00000000
     atom   83 type  1   force =     0.00000000    0.00000000    0.00000000
     atom   84 type  1   force =     0.00000000    0.00000000    0.00000000
     atom   85 type  1   force =     0.00000000    0.00000000    0.00000000
     atom   86 type  1   force =     0.00000000    0.00000000    0.00000000
     atom   87 type  1   force =     0.00000000    0.00000000    0.00000000
     atom   88 type  1   force =     0.00000000    0.00000000    0.00000000
     atom   89 type  1   force =     0.00000000    0.00000000    0.00000000
     atom   90 type  1   force =     0.00000000    0.00000000    0.00000000
     atom   91 type  1   force =     0.00000000    0.00000000    0.00000000
     atom   92 type  1   force =     0.00000000    0.00000000    0.00000000
     atom   93 type  1   force =     0.00000000    0.00000000    0.00000000
     atom   94 type  1   force =     0.00000000    0.00000000    0.00000000
     atom   95 type  1   force =     0.00000000    0.00000000    0.00000000
     atom   96 type  1   force =     0.00000000    0.00000000    0.00000000
     atom   97 type  1   force =     0.00000000    0.00000000    0.00000000
     atom   98 type  1   force =     0.00000000    0.00000000    0.00000000
     atom   99 type  1   force =     0.00000000    0.00000000    0.00000000
     atom  100 type  1   force =     0.00000000    0.00000000    0.00000000
     atom  101 type  1   force =     0.00000000    0.00000000    0.00000000
     atom  102 type  1   force =     0.00000000    0.00000000    0.00000000
     atom  103 type  1   force =     0.00000000    0.00000000    0.00000000
     atom  104 type  1   force =     0.00000000    0.00000000    0.00000000
     atom  105 type  1   force =     0.00000000    0.00000000    0.00000000
     atom  106 type  1   force =     0.00000000    0.00000000    0.00000000
     atom  107 type  1   force =     0.00000000    0.00000000    0.00000000
     atom  108 type  1   force =     0.00000000    0.00000000    0.00000000
     atom  109 type  1   force =     0.00000000    0.00000000    0.00000000
     atom  110 type  1   force =     0.00000000    0.00000000    0.00000000
     atom  111 type  1   force =     0.00000000    0.00000000    0.00000000
     atom  112 type  1   force =     0.00000000    0.00000000    0.00000000
     atom  113 type  1   force =     0.00000000    0.00000000    0.00000000
     atom  114 type  1   force =     0.00000000    0.00000000    0.00000000
     atom  115 type  1   force =     0.00000000    0.00000000    0.00000000
     atom  116 type  1   force =     0.00000000    0.00000000    0.00000000
     atom  117 type  1   force =     0.00000000    0.00000000    0.00000000
     atom  118 type  1   force =     0.00000000    0.00000000    0.00000000
     atom  119 type  1   force =     0.00000000    0.00000000    0.00000000
     atom  120 type  1   force =     0.00000000    0.00000000    0.00000000
     atom  121 type  1   force =     0.00000000    0.00000000    0.00000000
     atom  122 type  1   force =     0.00000000    0.00000000    0.00000000
     atom  123 type  1   force =     0.00000000    0.00000000    0.00000000
     atom  124 type  1   force =     0.00000000    0.00000000    0.00000000
     atom  125 type  1   force =     0.00000000    0.00000000    0.00000000
     atom  126 type  1   force =     0.00000000    0.00000000    0.00000000
     atom  127 type  1   force =     0.00000000    0.00000000    0.00000000
     atom  128 type  1   force =     0.00000000    0.00000000    0.00000000
     atom  129 type  1   force =     0.00000000    0.00000000    0.00000000
     atom  130 type  1   force =     0.00000000    0.00000000    0.00000000
     atom  131 type  1   force =     0.00000000    0.00000000    0.00000000
     atom  132 type  1   force =     0.00000000    0.00000000    0.00000000
     atom  133 type  1   force =     0.00000000    0.00000000    0.00000000
     atom  134 type  1   force =     0.00000000    0.00000000    0.00000000
     atom  135 type  1   force =     0.00000000    0.00000000    0.00000000
     atom  136 type  1   force =     0.00000000    0.00000000    0.00000000
     atom  137 type  1   force =     0.00000000    0.00000000    0.00000000
     atom  138 type  1   force =     0.00000000    0.00000000    0.00000000
     atom  139 type  1   force =     0.00000000    0.00000000    0.00000000
     atom  140 type  1   force =     0.00000000    0.00000000    0.00000000
     atom  141 type  1   force =     0.00000000    0.00000000    0.00000000
     atom  142 type  1   force =     0.00000000    0.00000000    0.00000000
     atom  143 type  1   force =     0.00000000    0.00000000    0.00000000
     atom  144 type  1   force =     0.00000000    0.00000000    0.00000000
     atom  145 type  1   force =     0.00000000    0.00000000    0.00000000
     atom  146 type  1   force =     0.00000000    0.00000000    0.00000000
     atom  147 type  1   force =     0.00000000    0.00000000    0.00000000
     atom  148 type  1   force =     0.00000000    0.00000000    0.00000000
     atom  149 type  1   force =     0.00000000    0.00000000    0.00000000
     atom  150 type  1   force =     0.00000000    0.00000000    0.00000000
     atom  151 type  1   force =     0.00000000    0.00000000    0.00000000
     atom  152 type  1   force =     0.00000000    0.00000000    0.00000000
     atom  153 type  1   force =     0.00000000    0.00000000    0.00000000
     atom  154 type  1   force =     0.00000000    0.00000000    0.00000000
     atom  155 type  1   force =     0.00000000    0.00000000    0.00000000
     atom  156 type  1   force =     0.00000000    0.00000000    0.00000000
     atom  157 type  1   force =     0.00000000    0.00000000    0.00000000
     atom  158 type  1   force =     0.00000000    0.00000000    0.00000000
     atom  159 type  1   force =     0.00000000    0.00000000    0.00000000
     atom  160 type  1   force =     0.00000000    0.00000000    0.00000000
     atom  161 type  1   force =     0.00000000    0.00000000    0.00000000
     atom  162 type  1   force =     0.00000000    0.00000000    0.00000000
     atom  163 type  1   force =     0.00000000    0.00000000    0.00000000
     atom  164 type  1   force =     0.00000000    0.00000000    0.00000000
     atom  165 type  1   force =     0.00000000    0.00000000    0.00000000
     atom  166 type  1   force =     0.00000000    0.00000000    0.00000000
     atom  167 type  1   force =     0.00000000    0.00000000    0.00000000
     atom  168 type  1   force =     0.00000000    0.00000000    0.00000000
     atom  169 type  1   force =     0.00000000    0.00000000    0.00000000
     atom  170 type  1   force =     0.00000000    0.00000000    0.00000000
     atom  171 type  1   force =     0.00000000    0.00000000    0.00000000
     atom  172 type  1   force =     0.00000000    0.00000000    0.00000000
     atom  173 type  1   force =     0.00000000    0.00000000    0.00000000
     atom  174 type  1   force =     0.00000000    0.00000000    0.00000000
     atom  175 type  1   force =     0.00000000    0.00000000    0.00000000
     atom  176 type  1   force =     0.00000000    0.00000000    0.00000000
     atom  177 type  1   force =     0.00000000    0.00000000    0.00000000
     atom  178 type  1   force =     0.00000000    0.00000000    0.00000000
     atom  179 type  1   force =     0.00000000    0.00000000    0.00000000
     atom  180 type  1   force =     0.00000000    0.00000000    0.00000000
     atom  181 type  1   force =     0.00000000    0.00000000    0.00000000
     atom  182 type  1   force =     0.00000000    0.00000000    0.00000000
     atom  183 type  1   force =     0.00000000    0.00000000    0.00000000
     atom  184 type  1   force =     0.00000000    0.00000000    0.00000000
     atom  185 type  1   force =     0.00000000    0.00000000    0.00000000
     atom  186 type  1   force =     0.00000000    0.00000000    0.00000000
     atom  187 type  1   force =     0.00000000    0.00000000    0.00000000
     atom  188 type  1   force =     0.00000000    0.00000000    0.00000000
     atom  189 type  1   force =     0.00000000    0.00000000    0.00000000
     atom  190 type  1   force =     0.00000000    0.00000000    0.00000000
     atom  191 type  1   force =     0.00000000    0.00000000    0.00000000
     atom  192 type  1   force =     0.00000000    0.00000000    0.00000000
     atom  193 type  1   force =     0.00000000    0.00000000    0.00000000
     atom  194 type  1   force =     0.00000000    0.00000000    0.00000000
     atom  195 type  1   force =     0.00000000    0.00000000    0.00000000
     atom  196 type  1   force =     0.00000000    0.00000000    0.00000000
     atom  197 type  1   force =     0.00000000    0.00000000    0.00000000
     atom  198 type  1   force =     0.00000000    0.00000000    0.00000000
     atom  199 type  1   force =     0.00000000    0.00000000    0.00000000
     atom  200 type  1   force =     0.00000000    0.00000000    0.00000000
     atom  201 type  1   force =     0.00000000    0.00000000    0.00000000
     atom  202 type  1   force =     0.00000000    0.00000000    0.00000000
     atom  203 type  1   force =     0.00000000    0.00000000    0.00000000
     atom  204 type  1   force =     0.00000000    0.00000000    0.00000000
     atom  205 type  1   force =     0.00000000    0.00000000    0.00000000
     atom  206 type  1   force =     0.00000000    0.00000000    0.00000000
     atom  207 type  1   force =     0.00000000    0.00000000    0.00000000
     atom  208 type  1   force =     0.00000000    0.00000000    0.00000000
     atom  209 type  1   force =     0.00000000    0.00000000    0.00000000
     atom  210 type  1   force =     0.00000000    0.00000000    0.00000000
     atom  211 type  1   force =     0.00000000    0.00000000    0.00000000
     atom  212 type  1   force =     0.00000000    0.00000000    0.00000000
     atom  213 type  1   force =     0.00000000    0.00000000    0.00000000
     atom  214 type  1   force =     0.00000000    0.00000000    0.00000000
     atom  215 type  2   force =     0.00000000    0.00000000    0.00000000
     The SCF correction term to forces
     atom    1 type  1   force =     0.00000037    0.00000027    0.00000005
     atom    2 type  1   force =     0.00000070    0.00000015   -0.00000001
     atom    3 type  1   force =     0.00000043   -0.00000002   -0.00000006
     atom    4 type  1   force =     0.00000011   -0.00000012   -0.00000009
     atom    5 type  1   force =     0.00000039    0.00000018   -0.00000024
     atom    6 type  1   force =    -0.00000008   -0.00000024   -0.00000043
     atom    7 type  1   force =     0.00000039   -0.00000026    0.00000006
     atom    8 type  1   force =    -0.00000008   -0.00000059   -0.00000035
     atom    9 type  1   force =    -0.00000017   -0.00000010    0.00000018
     atom   10 type  1   force =    -0.00000029   -0.00000015   -0.00000015
     atom   11 type  1   force =    -0.00000045    0.00000016    0.00000012
     atom   12 type  1   force =    -0.00000042    0.00000072    0.00000006
     atom   13 type  1   force =    -0.00000011   -0.00000049   -0.00000025
     atom   14 type  1   force =     0.00000035   -0.00000009   -0.00000004
     atom   15 type  1   force =    -0.00000009   -0.00000004   -0.00000022
     atom   16 type  1   force =     0.00000013    0.00000029    0.00000001
     atom   17 type  1   force =    -0.00000101   -0.00000057   -0.00000031
     atom   18 type  1   force =    -0.00000019    0.00000031    0.00000018
     atom   19 type  1   force =    -0.00000019    0.00000034   -0.00000006
     atom   20 type  1   force =     0.00000016    0.00000004    0.00000000
     atom   21 type  1   force =     0.00000056    0.00000016    0.00000052
     atom   22 type  1   force =     0.00000025    0.00000000    0.00000048
     atom   23 type  1   force =    -0.00000007    0.00000049    0.00000020
     atom   24 type  1   force =    -0.00000003    0.00000035    0.00000035
     atom   25 type  1   force =    -0.00000018    0.00000007   -0.00000013
     atom   26 type  1   force =    -0.00000045   -0.00000020   -0.00000013
     atom   27 type  1   force =    -0.00000047    0.00000014    0.00000030
     atom   28 type  1   force =    -0.00000052    0.00000008    0.00000083
     atom   29 type  1   force =    -0.00000016   -0.00000034   -0.00000002
     atom   30 type  1   force =     0.00000004   -0.00000004    0.00000040
     atom   31 type  1   force =    -0.00000015   -0.00000017   -0.00000054
     atom   32 type  1   force =     0.00000035    0.00000011   -0.00000011
     atom   33 type  1   force =     0.00000037    0.00000039    0.00000032
     atom   34 type  1   force =    -0.00000005    0.00000056    0.00000046
     atom   35 type  1   force =     0.00000040    0.00000043    0.00000030
     atom   36 type  1   force =    -0.00000006    0.00000028    0.00000011
     atom   37 type  1   force =    -0.00000033    0.00000065    0.00000019
     atom   38 type  1   force =    -0.00000030    0.00000067    0.00000016
     atom   39 type  1   force =    -0.00000047    0.00000030    0.00000073
     atom   40 type  1   force =    -0.00000043    0.00000030    0.00000072
     atom   41 type  1   force =    -0.00000025    0.00000051   -0.00000017
     atom   42 type  1   force =    -0.00000021    0.00000046   -0.00000040
     atom   43 type  1   force =    -0.00000051    0.00000053   -0.00000057
     atom   44 type  1   force =    -0.00000060   -0.00000013   -0.00000089
     atom   45 type  1   force =     0.00000011    0.00000013   -0.00000014
     atom   46 type  1   force =     0.00000021   -0.00000013   -0.00000060
     atom   47 type  1   force =    -0.00000012    0.00000045   -0.00000021
     atom   48 type  1   force =     0.00000022    0.00000005   -0.00000056
     atom   49 type  1   force =    -0.00000087   -0.00000041   -0.00000061
     atom   50 type  1   force =    -0.00000008    0.00000001    0.00000031
     atom   51 type  1   force =    -0.00000012   -0.00000011    0.00000047
     atom   52 type  1   force =     0.00000019   -0.00000002    0.00000021
     atom   53 type  1   force =    -0.00000008    0.00000019    0.00000056
     atom   54 type  1   force =    -0.00000006    0.00000027    0.00000046
     atom   55 type  1   force =     0.00000065    0.00000044    0.00000003
     atom   56 type  1   force =     0.00000032    0.00000049   -0.00000011
     atom   57 type  1   force =    -0.00000013   -0.00000027    0.00000057
     atom   58 type  1   force =    -0.00000012   -0.00000051    0.00000051
     atom   59 type  1   force =    -0.00000044   -0.00000059    0.00000053
     atom   60 type  1   force =    -0.00000059   -0.00000090   -0.00000023
     atom   61 type  1   force =    -0.00000014   -0.00000014    0.00000036
     atom   62 type  1   force =     0.00000011   -0.00000062   -0.00000009
     atom   63 type  1   force =     0.00000012   -0.00000024    0.00000028
     atom   64 type  1   force =     0.00000014   -0.00000054   -0.00000004
     atom   65 type  1   force =    -0.00000038    0.00000015    0.00000009
     atom   66 type  1   force =    -0.00000071   -0.00000074   -0.00000076
     atom   67 type  1   force =    -0.00000093   -0.00000089   -0.00000099
     atom   68 type  1   force =     0.00000032    0.00000015   -0.00000001
     atom   69 type  1   force =    -0.00000017   -0.00000030   -0.00000095
     atom   70 type  1   force =     0.00000070    0.00000006   -0.00000038
     atom   71 type  1   force =    -0.00000023   -0.00000100   -0.00000037
     atom   72 type  1   force =     0.00000061   -0.00000035    0.00000011
     atom   73 type  1   force =    -0.00000037    0.00000006   -0.00000004
     atom   74 type  1   force =    -0.00000075   -0.00000020   -0.00000035
     atom   75 type  1   force =    -0.00000033   -0.00000025   -0.00000029
     atom   76 type  1   force =     0.00000007    0.00000013    0.00000023
     atom   77 type  1   force =    -0.00000040   -0.00000044    0.00000011
     atom   78 type  1   force =    -0.00000004   -0.00000014    0.00000057
     atom   79 type  1   force =    -0.00000041    0.00000015   -0.00000046
     atom   80 type  1   force =    -0.00000011    0.00000047   -0.00000019
     atom   81 type  1   force =     0.00000009   -0.00000035   -0.00000009
     atom   82 type  1   force =     0.00000039   -0.00000013    0.00000013
     atom   83 type  1   force =     0.00000038    0.00000010   -0.00000011
     atom   84 type  1   force =     0.00000014    0.00000006   -0.00000008
     atom   85 type  1   force =     0.00000054   -0.00000055    0.00000023
     atom   86 type  1   force =     0.00000043   -0.00000062    0.00000009
     atom   87 type  1   force =    -0.00000011    0.00000004    0.00000036
     atom   88 type  1   force =    -0.00000061   -0.00000058    0.00000008
     atom   89 type  1   force =     0.00000066   -0.00000041    0.00000014
     atom   90 type  1   force =     0.00000029   -0.00000031    0.00000014
     atom   91 type  1   force =     0.00000001   -0.00000007    0.00000044
     atom   92 type  1   force =    -0.00000016    0.00000005   -0.00000010
     atom   93 type  1   force =     0.00000005   -0.00000023   -0.00000035
     atom   94 type  1   force =    -0.00000009   -0.00000012   -0.00000065
     atom   95 type  1   force =     0.00000042   -0.00000029    0.00000010
     atom   96 type  1   force =     0.00000045    0.00000015    0.00000015
     atom   97 type  1   force =     0.00000014   -0.00000027   -0.00000046
     atom   98 type  1   force =     0.00000044    0.00000007   -0.00000027
     atom   99 type  1   force =     0.00000035   -0.00000001    0.00000006
     atom  100 type  1   force =     0.00000002    0.00000009    0.00000004
     atom  101 type  1   force =    -0.00000006    0.00000016   -0.00000003
     atom  102 type  1   force =    -0.00000057   -0.00000014   -0.00000055
     atom  103 type  1   force =     0.00000052    0.00000034   -0.00000076
     atom  104 type  1   force =     0.00000026    0.00000014   -0.00000085
     atom  105 type  1   force =     0.00000018   -0.00000000    0.00000019
     atom  106 type  1   force =    -0.00000031   -0.00000009    0.00000014
     atom  107 type  1   force =    -0.00000039    0.00000041    0.00000044
     atom  108 type  1   force =    -0.00000003    0.00000064    0.00000068
     atom  109 type  1   force =    -0.00000049   -0.00000019    0.00000008
     atom  110 type  1   force =    -0.00000041    0.00000031    0.00000110
     atom  111 type  1   force =    -0.00000054   -0.00000000   -0.00000003
     atom  112 type  1   force =    -0.00000045    0.00000111    0.00000047
     atom  113 type  1   force =    -0.00000000    0.00000061    0.00000021
     atom  114 type  1   force =     0.00000024    0.00000083    0.00000020
     atom  115 type  1   force =     0.00000061    0.00000027   -0.00000058
     atom  116 type  1   force =     0.00000078    0.00000014   -0.00000076
     atom  117 type  1   force =     0.00000030    0.00000062   -0.00000005
     atom  118 type  1   force =     0.00000023    0.00000062   -0.00000042
     atom  119 type  1   force =    -0.00000005    0.00000079    0.00000087
     atom  120 type  1   force =     0.00000005    0.00000062    0.00000013
     atom  121 type  1   force =     0.00000076    0.00000020   -0.00000054
     atom  122 type  1   force =     0.00000034    0.00000012   -0.00000045
     atom  123 type  1   force =     0.00000006    0.00000031   -0.00000006
     atom  124 type  1   force =    -0.00000014   -0.00000016    0.00000013
     atom  125 type  1   force =     0.00000030    0.00000023   -0.00000044
     atom  126 type  1   force =     0.00000034    0.00000028    0.00000017
     atom  127 type  1   force =    -0.00000002   -0.00000045   -0.00000029
     atom  128 type  1   force =    -0.00000017   -0.00000067   -0.00000021
     atom  129 type  1   force =    -0.00000015    0.00000032    0.00000067
     atom  130 type  1   force =     0.00000012    0.00000018    0.00000080
     atom  131 type  1   force =     0.00000043   -0.00000063    0.00000017
     atom  132 type  1   force =     0.00000067   -0.00000068    0.00000003
     atom  133 type  1   force =    -0.00000013    0.00000083    0.00000083
     atom  134 type  1   force =     0.00000007    0.00000004    0.00000066
     atom  135 type  1   force =     0.00000028   -0.00000004    0.00000060
     atom  136 type  1   force =     0.00000032   -0.00000031    0.00000055
     atom  137 type  1   force =     0.00000028   -0.00000013   -0.00000010
     atom  138 type  1   force =     0.00000063   -0.00000052   -0.00000034
     atom  139 type  1   force =     0.00000047   -0.00000024   -0.00000010
     atom  140 type  1   force =    -0.00000010   -0.00000019   -0.00000010
     atom  141 type  1   force =     0.00000048   -0.00000037   -0.00000051
     atom  142 type  1   force =     0.00000025   -0.00000059   -0.00000064
     atom  143 type  1   force =     0.00000051   -0.00000061   -0.00000027
     atom  144 type  1   force =     0.00000043   -0.00000059   -0.00000051
     atom  145 type  1   force =    -0.00000013   -0.00000047   -0.00000059
     atom  146 type  1   force =     0.00000002    0.00000002   -0.00000006
     atom  147 type  1   force =    -0.00000010    0.00000012    0.00000008
     atom  148 type  1   force =    -0.00000020   -0.00000032   -0.00000028
     atom  149 type  1   force =     0.00000004   -0.00000032    0.00000054
     atom  150 type  1   force =     0.00000016   -0.00000033    0.00000034
     atom  151 type  1   force =     0.00000007    0.00000048   -0.00000047
     atom  152 type  1   force =     0.00000023    0.00000031   -0.00000040
     atom  153 type  1   force =     0.00000015   -0.00000066    0.00000083
     atom  154 type  1   force =    -0.00000008   -0.00000088    0.00000065
     atom  155 type  1   force =    -0.00000004   -0.00000093    0.00000048
     atom  156 type  1   force =     0.00000029   -0.00000060    0.00000087
     atom  157 type  1   force =    -0.00000042   -0.00000047    0.00000040
     atom  158 type  1   force =    -0.00000078   -0.00000028    0.00000003
     atom  159 type  1   force =     0.00000019   -0.00000071    0.00000042
     atom  160 type  1   force =     0.00000049   -0.00000024    0.00000060
     atom  161 type  1   force =     0.00000030   -0.00000045   -0.00000020
     atom  162 type  1   force =    -0.00000011   -0.00000027   -0.00000057
     atom  163 type  1   force =     0.00000017    0.00000025   -0.00000060
     atom  164 type  1   force =    -0.00000001    0.00000063   -0.00000069
     atom  165 type  1   force =    -0.00000052   -0.00000051   -0.00000094
     atom  166 type  1   force =    -0.00000013    0.00000030   -0.00000040
     atom  167 type  1   force =    -0.00000033   -0.00000017    0.00000003
     atom  168 type  1   force =    -0.00000047    0.00000038   -0.00000022
     atom  169 type  1   force =     0.00000007    0.00000069   -0.00000072
     atom  170 type  1   force =    -0.00000003    0.00000056   -0.00000087
     atom  171 type  1   force =    -0.00000003    0.00000035   -0.00000102
     atom  172 type  1   force =     0.00000048    0.00000079   -0.00000050
     atom  173 type  1   force =     0.00000028    0.00000039   -0.00000064
     atom  174 type  1   force =     0.00000055    0.00000068   -0.00000019
     atom  175 type  1   force =    -0.00000036    0.00000035   -0.00000055
     atom  176 type  1   force =    -0.00000059   -0.00000008   -0.00000020
     atom  177 type  1   force =    -0.00000077   -0.00000051   -0.00000036
     atom  178 type  1   force =     0.00000063    0.00000008    0.00000017
     atom  179 type  1   force =     0.00000096   -0.00000033    0.00000103
     atom  180 type  1   force =     0.00000054    0.00000026    0.00000066
     atom  181 type  1   force =     0.00000119    0.00000094   -0.00000031
     atom  182 type  1   force =     0.00000072    0.00000059    0.00000017
     atom  183 type  1   force =     0.00000025   -0.00000001    0.00000100
     atom  184 type  1   force =     0.00000011    0.00000030    0.00000047
     atom  185 type  1   force =    -0.00000003    0.00000047   -0.00000009
     atom  186 type  1   force =    -0.00000011    0.00000024   -0.00000051
     atom  187 type  1   force =    -0.00000045    0.00000043   -0.00000032
     atom  188 type  1   force =    -0.00000054    0.00000040   -0.00000040
     atom  189 type  1   force =     0.00000026    0.00000060    0.00000074
     atom  190 type  1   force =    -0.00000029    0.00000052   -0.00000009
     atom  191 type  1   force =     0.00000008   -0.00000023   -0.00000066
     atom  192 type  1   force =    -0.00000019   -0.00000048   -0.00000032
     atom  193 type  1   force =     0.00000006   -0.00000054    0.00000028
     atom  194 type  1   force =    -0.00000003   -0.00000056    0.00000081
     atom  195 type  1   force =    -0.00000015   -0.00000002   -0.00000006
     atom  196 type  1   force =    -0.00000036   -0.00000031    0.00000056
     atom  197 type  1   force =    -0.00000057   -0.00000081   -0.00000067
     atom  198 type  1   force =    -0.00000016   -0.00000024    0.00000023
     atom  199 type  1   force =     0.00000024    0.00000116    0.00000011
     atom  200 type  1   force =     0.00000013    0.00000062    0.00000032
     atom  201 type  1   force =     0.00000006    0.00000001    0.00000037
     atom  202 type  1   force =    -0.00000002   -0.00000029    0.00000026
     atom  203 type  1   force =     0.00000036    0.00000075    0.00000063
     atom  204 type  1   force =    -0.00000017   -0.00000005    0.00000054
     atom  205 type  1   force =    -0.00000043   -0.00000023    0.00000057
     atom  206 type  1   force =    -0.00000060   -0.00000037    0.00000049
     atom  207 type  1   force =     0.00000007    0.00000040    0.00000055
     atom  208 type  1   force =    -0.00000003   -0.00000025   -0.00000020
     atom  209 type  1   force =     0.00000036   -0.00000074   -0.00000075
     atom  210 type  1   force =    -0.00000020   -0.00000080   -0.00000094
     atom  211 type  1   force =    -0.00000026    0.00000012   -0.00000060
     atom  212 type  1   force =    -0.00000093   -0.00000067   -0.00000106
     atom  213 type  1   force =    -0.00000020   -0.00000048    0.00000017
     atom  214 type  1   force =    -0.00000096   -0.00000089   -0.00000066
     atom  215 type  2   force =     0.00000019    0.00000110    0.00000125

     Total force =     0.000175     Total SCF correction =     0.000011


     Computing stress (Cartesian axis) and pressure

          total   stress  (Ry/bohr**3)                   (kbar)     P=   13.05
   0.00008870  -0.00012044  -0.00012044         13.05    -17.72    -17.72
  -0.00012044   0.00008870  -0.00012044        -17.72     13.05    -17.72
  -0.00012044  -0.00012044   0.00008870        -17.72    -17.72     13.05

     kinetic stress (kbar)  21446.43    -19.82    -19.82
                              -19.82  21446.43    -19.82
                              -19.82    -19.82  21446.43

     local   stress (kbar)  -3656.81    -69.64    -69.64
                              -69.64  -3656.81    -69.64
                              -69.64    -69.64  -3656.81

     nonloc. stress (kbar)   1374.86      1.86      1.86
                                1.86   1374.86      1.86
                                1.86      1.86   1374.86

     hartree stress (kbar)   1279.74     23.12     23.12
                               23.12   1279.74     23.12
                               23.12     23.12   1279.74

     exc-cor stress (kbar)  -4211.50      0.19      0.19
                                0.19  -4211.50      0.19
                                0.19      0.19  -4211.50

     corecor stress (kbar)      0.00      0.00      0.00
                                0.00      0.00      0.00
                                0.00      0.00      0.00

     ewald   stress (kbar) -16219.66     46.58     46.58
                               46.58 -16219.66     46.58
                               46.58     46.58 -16219.66

     hubbard stress (kbar)      0.00      0.00      0.00
                                0.00      0.00      0.00
                                0.00      0.00      0.00

     london  stress (kbar)      0.00      0.00      0.00
                                0.00      0.00      0.00
                                0.00      0.00      0.00

     XDM     stress (kbar)      0.00      0.00      0.00
                                0.00      0.00      0.00
                                0.00      0.00      0.00

     dft-nl  stress (kbar)      0.00      0.00      0.00
                                0.00      0.00      0.00
                                0.00      0.00      0.00

     TS-vdW  stress (kbar)      0.00      0.00      0.00
                                0.00      0.00      0.00
                                0.00      0.00      0.00



     Writing output data file pwscf.save
 
     init_run     :      3.23s CPU      3.66s WALL (       1 calls)
     electrons    :    302.06s CPU    306.24s WALL (       1 calls)
     forces       :      1.15s CPU      1.21s WALL (       1 calls)
     stress       :     13.25s CPU     13.31s WALL (       1 calls)

     Called by init_run:
     wfcinit      :      1.27s CPU      1.42s WALL (       1 calls)
     wfcinit:atom :      0.00s CPU      0.00s WALL (       1 calls)
     wfcinit:wfcr :      1.24s CPU      1.36s WALL (       1 calls)
     potinit      :      0.27s CPU      0.29s WALL (       1 calls)

     Called by electrons:
     c_bands      :    292.72s CPU    296.58s WALL (      21 calls)
     sum_band     :      6.83s CPU      6.95s WALL (      21 calls)
     v_of_rho     :      1.88s CPU      1.90s WALL (      22 calls)
     v_h          :      0.07s CPU      0.07s WALL (      22 calls)
     v_xc         :      1.81s CPU      1.83s WALL (      22 calls)
     mix_rho      :      0.33s CPU      0.35s WALL (      21 calls)

     Called by c_bands:
     init_us_2    :      0.68s CPU      0.77s WALL (      43 calls)
     regterg      :    290.14s CPU    293.93s WALL (      21 calls)

     Called by sum_band:

     Called by *egterg:
     h_psi        :     70.88s CPU     71.39s WALL (     253 calls)
     g_psi        :      0.21s CPU      0.21s WALL (     231 calls)
     rdiaghg      :    184.57s CPU    186.72s WALL (     252 calls)
     regterg:over :     13.70s CPU     13.75s WALL (     231 calls)
     regterg:upda :     13.90s CPU     14.03s WALL (     231 calls)
     regterg:last :      4.87s CPU      4.90s WALL (      23 calls)
     rdiaghg:chol :      5.15s CPU      5.24s WALL (     252 calls)
     rdiaghg:inve :      5.05s CPU      5.08s WALL (     252 calls)
     rdiaghg:para :     12.33s CPU     12.88s WALL (     504 calls)

     Called by h_psi:
     h_psi:pot    :     70.26s CPU     70.74s WALL (     253 calls)
     h_psi:calbec :     15.46s CPU     15.57s WALL (     253 calls)
     vloc_psi     :     38.70s CPU     39.00s WALL (     253 calls)
     add_vuspsi   :     16.10s CPU     16.17s WALL (     253 calls)

     General routines
     calbec       :     16.47s CPU     16.59s WALL (     258 calls)
     fft          :      1.58s CPU      1.83s WALL (     471 calls)
     fftw         :     42.78s CPU     43.11s WALL (   34972 calls)
 
     Parallel routines
     fft_scatter  :     28.91s CPU     29.31s WALL (   35443 calls)
 
     PWSCF        :  5m23.18s CPU     5m34.80s WALL

 
   This run was terminated on:  16:57:24  10Jul2022            

=------------------------------------------------------------------------------=
   JOB DONE.
=------------------------------------------------------------------------------=
