
     Program PWSCF v.6.1 (svn rev. 13369) starts on 11Aug2023 at 22:21: 3 

     This program is part of the open-source Quantum ESPRESSO suite
     for quantum simulation of materials; please cite
         "P. Giannozzi et al., J. Phys.:Condens. Matter 21 395502 (2009);
          URL http://www.quantum-espresso.org", 
     in publications or presentations arising from this work. More details at
     http://www.quantum-espresso.org/quote

     Parallel version (MPI & OpenMP), running on      80 processor cores
     Number of MPI processes:                80
     Threads/MPI process:                     1
     R & G space division:  proc/nbgrp/npool/nimage =      80
     Reading input from pw.in
Warning: card &IONS ignored
Warning: card     ION_DYNAMICS='BFGS' ignored
Warning: card  / ignored
Warning: card  &CELL ignored
Warning: card  / ignored

     Current dimensions of program PWSCF are:
     Max number of different atomic species (ntypx) = 10
     Max number of k-points (npk) =  40000
     Max angular momentum in pseudopotentials (lmaxx) =  3

     gamma-point specific algorithms are used

     Subspace diagonalization in iterative solution of the eigenvalue problem:
     one sub-group per band group will be used
     scalapack distributed-memory algorithm (size of sub-group:  6*  6 procs)

 
     Parallelization info
     --------------------
     sticks:   dense  smooth     PW     G-vecs:    dense   smooth      PW
     Min         509     509    126                77829    77829    9718
     Max         512     512    128                77844    77844    9740
     Sum       40945   40945  10229              6227117  6227117  778439
 


     bravais-lattice index     =            0
     lattice parameter (alat)  =      37.7945  a.u.
     unit-cell volume          =   53986.6767 (a.u.)^3
     number of atoms/cell      =            4
     number of atomic types    =            3
     number of electrons       =        12.00
     number of Kohn-Sham states=           10
     kinetic-energy cutoff     =      90.0000  Ry
     charge density cutoff     =     360.0000  Ry
     convergence threshold     =      1.0E-08
     mixing beta               =       0.7000
     number of iterations used =            8  plain     mixing
     Exchange-correlation      = PBE ( 1  4  3  4 0 0)

     celldm(1)=  37.794523  celldm(2)=   0.000000  celldm(3)=   0.000000
     celldm(4)=   0.000000  celldm(5)=   0.000000  celldm(6)=   0.000000

     crystal axes: (cart. coord. in units of alat)
               a(1) = (   1.000000   0.000000   0.000000 )  
               a(2) = (   0.000000   1.000000   0.000000 )  
               a(3) = (   0.000000   0.000000   1.000000 )  

     reciprocal axes: (cart. coord. in units 2 pi/alat)
               b(1) = (  1.000000  0.000000  0.000000 )  
               b(2) = (  0.000000  1.000000  0.000000 )  
               b(3) = (  0.000000  0.000000  1.000000 )  


     PseudoPot. # 1 for C  read from file:
     /home/jinyuchem/program/QE/pseudo-potential/C_ONCV_PBE-1.0.upf
     MD5 check sum: 40f8c33130f0afa4272e9dcc1c4fb0df
     Pseudo is Norm-conserving, Zval =  4.0
     Generated using ONCVPSP code by D. R. Hamann
     Using radial grid of  602 points,  4 beta functions with: 
                l(1) =   0
                l(2) =   0
                l(3) =   1
                l(4) =   1

     PseudoPot. # 2 for H  read from file:
     /home/jinyuchem/program/QE/pseudo-potential/H_ONCV_PBE-1.0.upf
     MD5 check sum: 10f92816c437af099bca1a183851adc8
     Pseudo is Norm-conserving, Zval =  1.0
     Generated using ONCVPSP code by D. R. Hamann
     Using radial grid of  602 points,  2 beta functions with: 
                l(1) =   0
                l(2) =   0

     PseudoPot. # 3 for O  read from file:
     /home/jinyuchem/program/QE/pseudo-potential/O_ONCV_PBE-1.0.upf
     MD5 check sum: 80a85145cbbb6f60b39549a50e3ff56c
     Pseudo is Norm-conserving, Zval =  6.0
     Generated using ONCVPSP code by D. R. Hamann
     Using radial grid of  602 points,  4 beta functions with: 
                l(1) =   0
                l(2) =   0
                l(3) =   1
                l(4) =   1

     atomic species   valence    mass     pseudopotential
        C              4.00    12.01070     C ( 1.00)
        H              1.00     1.00790     H ( 1.00)
        O              6.00    16.00000     O ( 1.00)

      2 Sym. Ops. (no inversion) found


                                    s                        frac. trans.

      isym =  1     identity                                     

 cryst.   s( 1) = (     1          0          0      )
                  (     0          1          0      )
                  (     0          0          1      )

 cart.    s( 1) = (  1.0000000  0.0000000  0.0000000 )
                  (  0.0000000  1.0000000  0.0000000 )
                  (  0.0000000  0.0000000  1.0000000 )


      isym =  2     inv. 180 deg rotation - cart. axis [0,0,1]   

 cryst.   s( 2) = (     1          0          0      )
                  (     0          1          0      )
                  (     0          0         -1      )

 cart.    s( 2) = (  1.0000000  0.0000000  0.0000000 )
                  (  0.0000000  1.0000000  0.0000000 )
                  (  0.0000000  0.0000000 -1.0000000 )


   Cartesian axes

     site n.     atom                  positions (alat units)
         1           C   tau(   1) = (   0.4732439   0.4999929   0.5000004  )
         2           H   tau(   2) = (   0.4462735   0.4513102   0.4999986  )
         3           H   tau(   3) = (   0.4462703   0.5486947   0.5000009  )
         4           O   tau(   4) = (   0.5333402   0.5000024   0.5000001  )

   Crystallographic axes

     site n.     atom                  positions (cryst. coord.)
         1           C   tau(   1) = (  0.4732439  0.4999929  0.5000004  )
         2           H   tau(   2) = (  0.4462735  0.4513102  0.4999986  )
         3           H   tau(   3) = (  0.4462703  0.5486947  0.5000009  )
         4           O   tau(   4) = (  0.5333402  0.5000024  0.5000001  )

     number of k points=     1
                       cart. coord. in units 2pi/alat
        k(    1) = (   0.0000000   0.0000000   0.0000000), wk =   2.0000000

                       cryst. coord.
        k(    1) = (   0.0000000   0.0000000   0.0000000), wk =   2.0000000

     Dense  grid:  3113559 G-vectors     FFT dimensions: ( 240, 240, 240)

     Estimated max dynamical RAM per process >     106.90MB

     Estimated total allocated dynamical RAM >    8551.65MB

     Initial potential from superposition of free atoms
     Check: negative starting charge=   -0.000561

     starting charge   11.98781, renormalised to   12.00000

     negative rho (up, down):  5.612E-04 0.000E+00
     Starting wfc are random

     total cpu time spent up to now is        2.3 secs

     per-process dynamical memory:    56.0 Mb

     Self-consistent Calculation

     iteration #  1     ecut=    90.00 Ry     beta=0.70
     Davidson diagonalization with overlap
     ethr =  1.00E-02,  avg # of iterations = 12.0

     negative rho (up, down):  5.684E-05 0.000E+00

     total cpu time spent up to now is        3.3 secs

     total energy              =     -45.50695334 Ry
     Harris-Foulkes estimate   =     -45.76628712 Ry
     estimated scf accuracy    <       0.40850198 Ry

     iteration #  2     ecut=    90.00 Ry     beta=0.70
     Davidson diagonalization with overlap
     ethr =  3.40E-03,  avg # of iterations =  3.0

     negative rho (up, down):  2.519E-05 0.000E+00

     total cpu time spent up to now is        3.8 secs

     total energy              =     -45.51378882 Ry
     Harris-Foulkes estimate   =     -45.71930156 Ry
     estimated scf accuracy    <       0.41264323 Ry

     iteration #  3     ecut=    90.00 Ry     beta=0.70
     Davidson diagonalization with overlap
     ethr =  3.40E-03,  avg # of iterations =  2.0

     negative rho (up, down):  6.440E-06 0.000E+00

     total cpu time spent up to now is        4.3 secs

     total energy              =     -45.61594307 Ry
     Harris-Foulkes estimate   =     -45.64147114 Ry
     estimated scf accuracy    <       0.06410273 Ry

     iteration #  4     ecut=    90.00 Ry     beta=0.70
     Davidson diagonalization with overlap
     ethr =  5.34E-04,  avg # of iterations =  6.0

     negative rho (up, down):  2.283E-07 0.000E+00

     total cpu time spent up to now is        4.8 secs

     total energy              =     -45.62660304 Ry
     Harris-Foulkes estimate   =     -45.62719951 Ry
     estimated scf accuracy    <       0.00131614 Ry

     iteration #  5     ecut=    90.00 Ry     beta=0.70
     Davidson diagonalization with overlap
     WARNING:     1 eigenvalues not converged
     c_bands:  1 eigenvalues not converged
     ethr =  1.10E-05,  avg # of iterations = 20.0

     negative rho (up, down):  1.566E-07 0.000E+00

     total cpu time spent up to now is        5.6 secs

     total energy              =     -45.62716449 Ry
     Harris-Foulkes estimate   =     -45.62726539 Ry
     estimated scf accuracy    <       0.00025613 Ry

     iteration #  6     ecut=    90.00 Ry     beta=0.70
     Davidson diagonalization with overlap
     ethr =  2.13E-06,  avg # of iterations = 14.0

     total cpu time spent up to now is        6.3 secs

     total energy              =     -45.62719596 Ry
     Harris-Foulkes estimate   =     -45.62719751 Ry
     estimated scf accuracy    <       0.00000636 Ry

     iteration #  7     ecut=    90.00 Ry     beta=0.70
     Davidson diagonalization with overlap
     WARNING:     1 eigenvalues not converged
     c_bands:  1 eigenvalues not converged
     ethr =  5.30E-08,  avg # of iterations = 20.0

     total cpu time spent up to now is        7.2 secs

     total energy              =     -45.62719932 Ry
     Harris-Foulkes estimate   =     -45.62719999 Ry
     estimated scf accuracy    <       0.00000138 Ry

     iteration #  8     ecut=    90.00 Ry     beta=0.70
     Davidson diagonalization with overlap
     WARNING:     1 eigenvalues not converged
     c_bands:  1 eigenvalues not converged
     ethr =  1.15E-08,  avg # of iterations = 20.0

     total cpu time spent up to now is        8.1 secs

     total energy              =     -45.62719958 Ry
     Harris-Foulkes estimate   =     -45.62719959 Ry
     estimated scf accuracy    <       0.00000002 Ry

     iteration #  9     ecut=    90.00 Ry     beta=0.70
     Davidson diagonalization with overlap
     WARNING:     1 eigenvalues not converged
     c_bands:  1 eigenvalues not converged
     ethr =  1.25E-10,  avg # of iterations = 20.0

     total cpu time spent up to now is        8.9 secs

     End of self-consistent calculation

          k = 0.0000 0.0000 0.0000 (389220 PWs)   bands (ev):

   -26.7101 -15.5523 -12.3363 -10.8670 -10.0831  -6.1792  -2.6044  -0.4266
     0.0923   0.2282

     occupation numbers 
     1.0000   1.0000   1.0000   1.0000   1.0000   1.0000   0.0000   0.0000
     0.0000   0.0000

     highest occupied, lowest unoccupied level (ev):    -6.1792   -2.6044

!    total energy              =     -45.62719958 Ry
     Harris-Foulkes estimate   =     -45.62719959 Ry
     estimated scf accuracy    <          2.4E-09 Ry

     The total energy is the sum of the following terms:

     one-electron contribution =    -120.68121811 Ry
     hartree contribution      =      61.97629838 Ry
     xc contribution           =     -11.78609973 Ry
     ewald contribution        =      24.86381987 Ry

     convergence has been achieved in   9 iterations

     Forces acting on atoms (cartesian axes, Ry/au):

     atom    1 type  1   force =     0.00685870    0.00042234    0.00000000
     atom    2 type  2   force =    -0.01644954    0.00733917    0.00000000
     atom    3 type  2   force =    -0.01632275   -0.00770461    0.00000000
     atom    4 type  3   force =     0.02591360   -0.00005691    0.00000000
     The non-local contrib.  to forces
     atom    1 type  1   force =     0.17386815    0.00047161    0.00000000
     atom    2 type  2   force =     0.03570015    0.06998851    0.00000000
     atom    3 type  2   force =     0.03564645   -0.06992480    0.00000000
     atom    4 type  3   force =    -2.59452048   -0.00062117    0.00000000
     The ionic contribution  to forces
     atom    1 type  1   force =    -7.54538375   -0.00052929    0.00008430
     atom    2 type  2   force =    -1.60929090   -2.13792945   -0.00007358
     atom    3 type  2   force =    -1.60850177    2.13695507    0.00002743
     atom    4 type  3   force =    10.76317642    0.00150368   -0.00003815
     The local contribution  to forces
     atom    1 type  1   force =     7.37825108    0.00048073   -0.00009390
     atom    2 type  2   force =     1.55701602    2.07529219    0.00007288
     atom    3 type  2   force =     1.55640674   -2.07474273   -0.00002516
     atom    4 type  3   force =    -8.14296768   -0.00095686    0.00001864
     The core correction contribution to forces
     atom    1 type  1   force =     0.00000000    0.00000000    0.00000000
     atom    2 type  2   force =     0.00000000    0.00000000    0.00000000
     atom    3 type  2   force =     0.00000000    0.00000000    0.00000000
     atom    4 type  3   force =     0.00000000    0.00000000    0.00000000
     The Hubbard contrib.    to forces
     atom    1 type  1   force =     0.00000000    0.00000000    0.00000000
     atom    2 type  2   force =     0.00000000    0.00000000    0.00000000
     atom    3 type  2   force =     0.00000000    0.00000000    0.00000000
     atom    4 type  3   force =     0.00000000    0.00000000    0.00000000
     The SCF correction term to forces
     atom    1 type  1   force =    -0.00000917    0.00000110    0.00000093
     atom    2 type  2   force =    -0.00000720   -0.00001027    0.00000014
     atom    3 type  2   force =    -0.00000655    0.00000967    0.00000014
     atom    4 type  3   force =     0.00009296    0.00001925    0.00000273

     Total force =     0.037000     Total SCF correction =     0.000097


     Computing stress (Cartesian axis) and pressure

          total   stress  (Ry/bohr**3)                   (kbar)     P=    0.06
   0.00000171   0.00000000   0.00000000          0.25      0.00      0.00
   0.00000000  -0.00000052   0.00000000          0.00     -0.08      0.00
   0.00000000   0.00000000  -0.00000001          0.00      0.00     -0.00

     kinetic stress (kbar)     56.08     -0.00      0.00
                               -0.00     64.16      0.00
                                0.00      0.00     58.22

     local   stress (kbar)   -185.28     -0.01      0.00
                               -0.01   -114.68     -0.00
                                0.00     -0.00    -78.34

     nonloc. stress (kbar)     -1.96      0.00      0.00
                                0.00     -3.10      0.00
                                0.00      0.00     -1.21

     hartree stress (kbar)     75.44      0.00     -0.00
                                0.00     52.00      0.00
                               -0.00      0.00     41.44

     exc-cor stress (kbar)     -9.98      0.00     -0.00
                                0.00    -10.11      0.00
                               -0.00      0.00    -10.25

     corecor stress (kbar)      0.00      0.00      0.00
                                0.00      0.00      0.00
                                0.00      0.00      0.00

     ewald   stress (kbar)     65.95      0.01     -0.00
                                0.01     11.66      0.00
                               -0.00      0.00     -9.86

     hubbard stress (kbar)      0.00      0.00      0.00
                                0.00      0.00      0.00
                                0.00      0.00      0.00

     london  stress (kbar)      0.00      0.00      0.00
                                0.00      0.00      0.00
                                0.00      0.00      0.00

     XDM     stress (kbar)      0.00      0.00      0.00
                                0.00      0.00      0.00
                                0.00      0.00      0.00

     dft-nl  stress (kbar)      0.00      0.00      0.00
                                0.00      0.00      0.00
                                0.00      0.00      0.00

     TS-vdW  stress (kbar)      0.00      0.00      0.00
                                0.00      0.00      0.00
                                0.00      0.00      0.00



     Writing output data file pwscf.save
 
     init_run     :      1.99s CPU      2.09s WALL (       1 calls)
     electrons    :      6.68s CPU      7.25s WALL (       1 calls)
     forces       :      0.16s CPU      0.17s WALL (       1 calls)
     stress       :      0.36s CPU      0.37s WALL (       1 calls)

     Called by init_run:
     wfcinit      :      0.13s CPU      0.14s WALL (       1 calls)
     wfcinit:atom :      0.00s CPU      0.00s WALL (       1 calls)
     wfcinit:wfcr :      0.13s CPU      0.14s WALL (       1 calls)
     potinit      :      0.32s CPU      0.34s WALL (       1 calls)

     Called by electrons:
     c_bands      :      3.97s CPU      4.18s WALL (       9 calls)
     sum_band     :      0.56s CPU      0.61s WALL (       9 calls)
     v_of_rho     :      1.55s CPU      1.69s WALL (      10 calls)
     v_h          :      0.17s CPU      0.19s WALL (      10 calls)
     v_xc         :      1.38s CPU      1.50s WALL (      10 calls)
     mix_rho      :      0.24s CPU      0.26s WALL (       9 calls)

     Called by c_bands:
     init_us_2    :      0.02s CPU      0.02s WALL (      19 calls)
     regterg      :      3.93s CPU      4.14s WALL (       9 calls)

     Called by sum_band:

     Called by *egterg:
     h_psi        :      2.95s CPU      3.15s WALL (     127 calls)
     g_psi        :      0.01s CPU      0.01s WALL (     117 calls)
     rdiaghg      :      0.52s CPU      0.54s WALL (     126 calls)
     regterg:over :      0.22s CPU      0.22s WALL (     117 calls)
     regterg:upda :      0.21s CPU      0.21s WALL (     117 calls)
     regterg:last :      0.05s CPU      0.05s WALL (      15 calls)
     rdiaghg:chol :      0.05s CPU      0.05s WALL (     126 calls)
     rdiaghg:inve :      0.01s CPU      0.01s WALL (     126 calls)
     rdiaghg:para :      0.07s CPU      0.07s WALL (     252 calls)

     Called by h_psi:
     h_psi:pot    :      2.93s CPU      3.13s WALL (     127 calls)
     h_psi:calbec :      0.09s CPU      0.10s WALL (     127 calls)
     vloc_psi     :      2.78s CPU      2.98s WALL (     127 calls)
     add_vuspsi   :      0.06s CPU      0.06s WALL (     127 calls)

     General routines
     calbec       :      0.10s CPU      0.10s WALL (     132 calls)
     fft          :      1.64s CPU      1.82s WALL (     117 calls)
     fftw         :      2.61s CPU      2.82s WALL (     585 calls)
 
     Parallel routines
     fft_scatter  :      2.73s CPU      2.99s WALL (     702 calls)
 
     PWSCF        :    10.41s CPU        11.57s WALL

 
   This run was terminated on:  22:21:14  11Aug2023            

=------------------------------------------------------------------------------=
   JOB DONE.
=------------------------------------------------------------------------------=
