
     Program PWSCF v.6.1 starts on  3May2023 at 22:19:31 

     This program is part of the open-source Quantum ESPRESSO suite
     for quantum simulation of materials; please cite
         "P. Giannozzi et al., J. Phys.:Condens. Matter 21 395502 (2009);
          URL http://www.quantum-espresso.org", 
     in publications or presentations arising from this work. More details at
     http://www.quantum-espresso.org/quote

     Parallel version (MPI & OpenMP), running on      40 processor cores
     Number of MPI processes:                40
     Threads/MPI process:                     1
     R & G space division:  proc/nbgrp/npool/nimage =      40
     Waiting for input...
     Reading input from standard input
Warning: card &IONS ignored
Warning: card ION_DYNAMICS='BFGS' ignored
Warning: card ION_POSITIONS='DEFAULT' ignored
Warning: card / ignored

     Current dimensions of program PWSCF are:
     Max number of different atomic species (ntypx) = 10
     Max number of k-points (npk) =  40000
     Max angular momentum in pseudopotentials (lmaxx) =  3

     IMPORTANT: XC functional enforced from input :
     Exchange-correlation      = PBE ( 1  4  3  4 0 0)
     Any further DFT definition will be discarded
     Please, verify this is what you really want


     gamma-point specific algorithms are used

     Subspace diagonalization in iterative solution of the eigenvalue problem:
     one sub-group per band group will be used
     scalapack distributed-memory algorithm (size of sub-group:  4*  4 procs)

 
     Parallelization info
     --------------------
     sticks:   dense  smooth     PW     G-vecs:    dense   smooth      PW
     Min          85      85     20                 3840     3840     472
     Max          88      88     22                 3848     3848     490
     Sum        3489    3489    869               153699   153699   19309
 


     bravais-lattice index     =            0
     lattice parameter (alat)  =      13.4851  a.u.
     unit-cell volume          =    2452.2296 (a.u.)^3
     number of atoms/cell      =           63
     number of atomic types    =            2
     number of electrons       =       252.00 (up: 127.00, down: 125.00)
     number of Kohn-Sham states=          132
     kinetic-energy cutoff     =      60.0000  Ry
     charge density cutoff     =     240.0000  Ry
     convergence threshold     =      1.0E-08
     mixing beta               =       0.7000
     number of iterations used =            8  plain     mixing
     Exchange-correlation      = PBE ( 1  4  3  4 0 0)

     celldm(1)=  13.485086  celldm(2)=   0.000000  celldm(3)=   0.000000
     celldm(4)=   0.000000  celldm(5)=   0.000000  celldm(6)=   0.000000

     crystal axes: (cart. coord. in units of alat)
               a(1) = (   1.000000   0.000000   0.000000 )  
               a(2) = (   0.000000   1.000000   0.000000 )  
               a(3) = (   0.000000   0.000000   1.000000 )  

     reciprocal axes: (cart. coord. in units 2 pi/alat)
               b(1) = (  1.000000  0.000000  0.000000 )  
               b(2) = (  0.000000  1.000000  0.000000 )  
               b(3) = (  0.000000  0.000000  1.000000 )  


     PseudoPot. # 1 for C  read from file:
     /home/jinyuchem/program/QE/pseudo-potential/C_ONCV_PBE-1.0.upf
     MD5 check sum: 40f8c33130f0afa4272e9dcc1c4fb0df
     Pseudo is Norm-conserving, Zval =  4.0
     Generated using ONCVPSP code by D. R. Hamann
     Using radial grid of  602 points,  4 beta functions with: 
                l(1) =   0
                l(2) =   0
                l(3) =   1
                l(4) =   1

     PseudoPot. # 2 for Si read from file:
     /home/jinyuchem/program/QE/pseudo-potential/Si_ONCV_PBE-1.1.upf
     MD5 check sum: 893f9c914d8b8e384479fa6fd8b59ac5
     Pseudo is Norm-conserving, Zval =  4.0
     Generated using ONCVPSP code by D. R. Hamann
     Using radial grid of  602 points,  4 beta functions with: 
                l(1) =   0
                l(2) =   0
                l(3) =   1
                l(4) =   1

     atomic species   valence    mass     pseudopotential
        C              4.00    12.01100     C ( 1.00)
        Si             4.00    28.08550     Si( 1.00)

     Starting magnetic structure 
     atomic species   magnetization
        C            0.000
        Si           0.000

      6 Sym. Ops. (no inversion) found


                                    s                        frac. trans.

      isym =  1     identity                                     

 cryst.   s( 1) = (     1          0          0      )
                  (     0          1          0      )
                  (     0          0          1      )

 cart.    s( 1) = (  1.0000000  0.0000000  0.0000000 )
                  (  0.0000000  1.0000000  0.0000000 )
                  (  0.0000000  0.0000000  1.0000000 )


      isym =  2     120 deg rotation - cart. axis [1,1,-1]       

 cryst.   s( 2) = (     0          0         -1      )
                  (     1          0          0      )
                  (     0         -1          0      )

 cart.    s( 2) = (  0.0000000  1.0000000  0.0000000 )
                  (  0.0000000  0.0000000 -1.0000000 )
                  ( -1.0000000  0.0000000  0.0000000 )


      isym =  3     120 deg rotation - cart. axis [-1,-1,1]      

 cryst.   s( 3) = (     0          1          0      )
                  (     0          0         -1      )
                  (    -1          0          0      )

 cart.    s( 3) = (  0.0000000  0.0000000 -1.0000000 )
                  (  1.0000000  0.0000000  0.0000000 )
                  (  0.0000000 -1.0000000  0.0000000 )


      isym =  4     inv. 180 deg rotation - cart. axis [1,-1,0]  

 cryst.   s( 4) = (     0          1          0      )
                  (     1          0          0      )
                  (     0          0          1      )

 cart.    s( 4) = (  0.0000000  1.0000000  0.0000000 )
                  (  1.0000000  0.0000000  0.0000000 )
                  (  0.0000000  0.0000000  1.0000000 )


      isym =  5     inv. 180 deg rotation - cart. axis [1,0,1]   

 cryst.   s( 5) = (     0          0         -1      )
                  (     0          1          0      )
                  (    -1          0          0      )

 cart.    s( 5) = (  0.0000000  0.0000000 -1.0000000 )
                  (  0.0000000  1.0000000  0.0000000 )
                  ( -1.0000000  0.0000000  0.0000000 )


      isym =  6     inv. 180 deg rotation - cart. axis [0,1,1]   

 cryst.   s( 6) = (     1          0          0      )
                  (     0          0         -1      )
                  (     0         -1          0      )

 cart.    s( 6) = (  1.0000000  0.0000000  0.0000000 )
                  (  0.0000000  0.0000000 -1.0000000 )
                  (  0.0000000 -1.0000000  0.0000000 )


   Cartesian axes

     site n.     atom                  positions (alat units)
         1           C   tau(   1) = (   0.1229380   0.3753404   0.3690559  )
         2           C   tau(   2) = (   0.1303955   0.3792608   0.8696045  )
         3           C   tau(   3) = (   0.1234142   0.8776539   0.3726725  )
         4           C   tau(   4) = (   0.1268860   0.8788149   0.8731140  )
         5           C   tau(   5) = (   0.6280805   0.3611143   0.3719194  )
         6           C   tau(   6) = (   0.6309441   0.3753404   0.8770620  )
         7           C   tau(   7) = (   0.6238828   0.8727991   0.3761172  )
         8           C   tau(   8) = (   0.6273275   0.8776539   0.8765858  )
         9           C   tau(   9) = (   0.0015700   0.0015700  -0.0015700  )
        10           C   tau(  10) = (   0.0008028   0.0008028   0.4981966  )
        11           C   tau(  11) = (   0.0008028   0.5018034  -0.0008028  )
        12           C   tau(  12) = (  -0.0001264   0.5008413   0.4991587  )
        13           C   tau(  13) = (   0.5018034   0.0008028  -0.0008028  )
        14           C   tau(  14) = (   0.5008413  -0.0001264   0.4991587  )
        15           C   tau(  15) = (   0.5008413   0.5008413   0.0001264  )
        16           C   tau(  16) = (   0.1268860   0.1268860   0.1211850  )
        17           C   tau(  17) = (   0.1303955   0.1303955   0.6207391  )
        18           C   tau(  18) = (   0.1234142   0.6273275   0.1223460  )
        19           C   tau(  19) = (   0.1229380   0.6309441   0.6246595  )
        20           C   tau(  20) = (   0.6273275   0.1234142   0.1223460  )
        21           C   tau(  21) = (   0.6309441   0.1229380   0.6246595  )
        22           C   tau(  22) = (   0.6238828   0.6238828   0.1272009  )
        23           C   tau(  23) = (   0.6280805   0.6280805   0.6388856  )
        24           C   tau(  24) = (  -0.0006925   0.2496650   0.2464164  )
        25           C   tau(  25) = (   0.0041132   0.2530789   0.7469211  )
        26           C   tau(  26) = (  -0.0019115   0.7500874   0.2499126  )
        27           C   tau(  27) = (  -0.0006925   0.7535835   0.7503350  )
        28           C   tau(  28) = (   0.5016189   0.2460592   0.2459534  )
        29           C   tau(  29) = (   0.5158563   0.2488678   0.7511322  )
        30           C   tau(  30) = (   0.4976893   0.7465678   0.2534322  )
        31           C   tau(  31) = (   0.5016189   0.7540466   0.7539408  )
        32           C   tau(  32) = (   0.3762143   0.3762143   0.1228614  )
        33           C   tau(  33) = (   0.3752479   0.8762539   0.1237461  )
        34           C   tau(  34) = (   0.3762143   0.8771386   0.6237857  )
        35           C   tau(  35) = (   0.8762539   0.3752479   0.1237461  )
        36           C   tau(  36) = (   0.8771386   0.3762143   0.6237857  )
        37           C   tau(  37) = (   0.8754494   0.8754494   0.1245506  )
        38           C   tau(  38) = (   0.8762539   0.8762539   0.6247520  )
        39           C   tau(  39) = (   0.2496650  -0.0006925   0.2464164  )
        40           C   tau(  40) = (   0.2530789   0.0041132   0.7469211  )
        41           C   tau(  41) = (   0.2460592   0.5016189   0.2459534  )
        42           C   tau(  42) = (   0.2488678   0.5158563   0.7511322  )
        43           C   tau(  43) = (   0.7500874  -0.0019115   0.2499126  )
        44           C   tau(  44) = (   0.7535835  -0.0006925   0.7503350  )
        45           C   tau(  45) = (   0.7465678   0.4976893   0.2534322  )
        46           C   tau(  46) = (   0.7540466   0.5016189   0.7539408  )
        47           C   tau(  47) = (   0.3753404   0.1229380   0.3690559  )
        48           C   tau(  48) = (   0.3792608   0.1303955   0.8696045  )
        49           C   tau(  49) = (   0.3611143   0.6280805   0.3719194  )
        50           C   tau(  50) = (   0.3753404   0.6309441   0.8770620  )
        51           C   tau(  51) = (   0.8776539   0.1234142   0.3726725  )
        52           C   tau(  52) = (   0.8788149   0.1268860   0.8731140  )
        53           C   tau(  53) = (   0.8727991   0.6238828   0.3761172  )
        54           C   tau(  54) = (   0.8776539   0.6273275   0.8765858  )
        55           C   tau(  55) = (   0.2530789   0.2530789  -0.0041132  )
        56           C   tau(  56) = (   0.2488678   0.2488678   0.4841436  )
        57           C   tau(  57) = (   0.2496650   0.7535835   0.0006925  )
        58           C   tau(  58) = (   0.2460592   0.7540466   0.4983811  )
        59           C   tau(  59) = (   0.7535835   0.2496650   0.0006925  )
        60           C   tau(  60) = (   0.7540466   0.2460592   0.4983811  )
        61           C   tau(  61) = (   0.7500874   0.7500874   0.0019115  )
        62           C   tau(  62) = (   0.7465678   0.7465678   0.5023107  )
        63           Si  tau(  63) = (   0.4384644   0.4384644   0.5615356  )

   Crystallographic axes

     site n.     atom                  positions (cryst. coord.)
         1           C   tau(   1) = (  0.1229380  0.3753404  0.3690559  )
         2           C   tau(   2) = (  0.1303955  0.3792608  0.8696045  )
         3           C   tau(   3) = (  0.1234142  0.8776539  0.3726725  )
         4           C   tau(   4) = (  0.1268860  0.8788149  0.8731140  )
         5           C   tau(   5) = (  0.6280805  0.3611143  0.3719194  )
         6           C   tau(   6) = (  0.6309441  0.3753404  0.8770620  )
         7           C   tau(   7) = (  0.6238828  0.8727991  0.3761172  )
         8           C   tau(   8) = (  0.6273275  0.8776539  0.8765858  )
         9           C   tau(   9) = (  0.0015700  0.0015700 -0.0015700  )
        10           C   tau(  10) = (  0.0008028  0.0008028  0.4981966  )
        11           C   tau(  11) = (  0.0008028  0.5018034 -0.0008028  )
        12           C   tau(  12) = ( -0.0001264  0.5008413  0.4991587  )
        13           C   tau(  13) = (  0.5018034  0.0008028 -0.0008028  )
        14           C   tau(  14) = (  0.5008413 -0.0001264  0.4991587  )
        15           C   tau(  15) = (  0.5008413  0.5008413  0.0001264  )
        16           C   tau(  16) = (  0.1268860  0.1268860  0.1211850  )
        17           C   tau(  17) = (  0.1303955  0.1303955  0.6207391  )
        18           C   tau(  18) = (  0.1234142  0.6273275  0.1223460  )
        19           C   tau(  19) = (  0.1229380  0.6309441  0.6246595  )
        20           C   tau(  20) = (  0.6273275  0.1234142  0.1223460  )
        21           C   tau(  21) = (  0.6309441  0.1229380  0.6246595  )
        22           C   tau(  22) = (  0.6238828  0.6238828  0.1272009  )
        23           C   tau(  23) = (  0.6280805  0.6280805  0.6388856  )
        24           C   tau(  24) = ( -0.0006925  0.2496650  0.2464164  )
        25           C   tau(  25) = (  0.0041132  0.2530789  0.7469211  )
        26           C   tau(  26) = ( -0.0019115  0.7500874  0.2499126  )
        27           C   tau(  27) = ( -0.0006925  0.7535835  0.7503350  )
        28           C   tau(  28) = (  0.5016189  0.2460592  0.2459534  )
        29           C   tau(  29) = (  0.5158563  0.2488678  0.7511322  )
        30           C   tau(  30) = (  0.4976893  0.7465678  0.2534322  )
        31           C   tau(  31) = (  0.5016189  0.7540466  0.7539408  )
        32           C   tau(  32) = (  0.3762143  0.3762143  0.1228614  )
        33           C   tau(  33) = (  0.3752479  0.8762539  0.1237461  )
        34           C   tau(  34) = (  0.3762143  0.8771386  0.6237857  )
        35           C   tau(  35) = (  0.8762539  0.3752479  0.1237461  )
        36           C   tau(  36) = (  0.8771386  0.3762143  0.6237857  )
        37           C   tau(  37) = (  0.8754494  0.8754494  0.1245506  )
        38           C   tau(  38) = (  0.8762539  0.8762539  0.6247520  )
        39           C   tau(  39) = (  0.2496650 -0.0006925  0.2464164  )
        40           C   tau(  40) = (  0.2530789  0.0041132  0.7469211  )
        41           C   tau(  41) = (  0.2460592  0.5016189  0.2459534  )
        42           C   tau(  42) = (  0.2488678  0.5158563  0.7511322  )
        43           C   tau(  43) = (  0.7500874 -0.0019115  0.2499126  )
        44           C   tau(  44) = (  0.7535835 -0.0006925  0.7503350  )
        45           C   tau(  45) = (  0.7465678  0.4976893  0.2534322  )
        46           C   tau(  46) = (  0.7540466  0.5016189  0.7539408  )
        47           C   tau(  47) = (  0.3753404  0.1229380  0.3690559  )
        48           C   tau(  48) = (  0.3792608  0.1303955  0.8696045  )
        49           C   tau(  49) = (  0.3611143  0.6280805  0.3719194  )
        50           C   tau(  50) = (  0.3753404  0.6309441  0.8770620  )
        51           C   tau(  51) = (  0.8776539  0.1234142  0.3726725  )
        52           C   tau(  52) = (  0.8788149  0.1268860  0.8731140  )
        53           C   tau(  53) = (  0.8727991  0.6238828  0.3761172  )
        54           C   tau(  54) = (  0.8776539  0.6273275  0.8765858  )
        55           C   tau(  55) = (  0.2530789  0.2530789 -0.0041132  )
        56           C   tau(  56) = (  0.2488678  0.2488678  0.4841436  )
        57           C   tau(  57) = (  0.2496650  0.7535835  0.0006925  )
        58           C   tau(  58) = (  0.2460592  0.7540466  0.4983811  )
        59           C   tau(  59) = (  0.7535835  0.2496650  0.0006925  )
        60           C   tau(  60) = (  0.7540466  0.2460592  0.4983811  )
        61           C   tau(  61) = (  0.7500874  0.7500874  0.0019115  )
        62           C   tau(  62) = (  0.7465678  0.7465678  0.5023107  )
        63           Si  tau(  63) = (  0.4384644  0.4384644  0.5615356  )

     number of k points=     1
                       cart. coord. in units 2pi/alat
        k(    1) = (   0.0000000   0.0000000   0.0000000), wk =   1.0000000

                       cryst. coord.
        k(    1) = (   0.0000000   0.0000000   0.0000000), wk =   1.0000000

     Dense  grid:    76850 G-vectors     FFT dimensions: (  72,  72,  72)

     Estimated max dynamical RAM per process >       8.50MB

     Estimated total allocated dynamical RAM >     339.90MB
     Generating pointlists ...
     new r_m :   0.0876 (alat units)  1.1813 (a.u.) for type    1
     new r_m :   0.1151 (alat units)  1.5524 (a.u.) for type    2

     Initial potential from superposition of free atoms

     starting charge  251.52186, renormalised to  252.00000
     Starting wfc are random

     total cpu time spent up to now is        0.4 secs

     per-process dynamical memory:    24.6 Mb

     Self-consistent Calculation

     iteration #  1     ecut=    60.00 Ry     beta=0.70
     Davidson diagonalization with overlap
     ethr =  1.00E-02,  avg # of iterations =  9.5

     total cpu time spent up to now is        3.0 secs

     total energy              =    -712.95894899 Ry
     Harris-Foulkes estimate   =    -714.65096370 Ry
     estimated scf accuracy    <       3.77611088 Ry

     total magnetization       =     2.00 Bohr mag/cell
     absolute magnetization    =     2.07 Bohr mag/cell

     iteration #  2     ecut=    60.00 Ry     beta=0.70
     Davidson diagonalization with overlap
     ethr =  1.50E-03,  avg # of iterations =  9.0

     total cpu time spent up to now is        4.5 secs

     total energy              =    -713.31769080 Ry
     Harris-Foulkes estimate   =    -713.45542732 Ry
     estimated scf accuracy    <       0.24326343 Ry

     total magnetization       =     2.00 Bohr mag/cell
     absolute magnetization    =     2.06 Bohr mag/cell

     iteration #  3     ecut=    60.00 Ry     beta=0.70
     Davidson diagonalization with overlap
     ethr =  9.65E-05,  avg # of iterations = 11.0

     total cpu time spent up to now is        6.9 secs

     total energy              =    -713.30793311 Ry
     Harris-Foulkes estimate   =    -713.53876960 Ry
     estimated scf accuracy    <       0.53585889 Ry

     total magnetization       =     2.00 Bohr mag/cell
     absolute magnetization    =     2.09 Bohr mag/cell

     iteration #  4     ecut=    60.00 Ry     beta=0.70
     Davidson diagonalization with overlap
     ethr =  9.65E-05,  avg # of iterations = 12.5

     total cpu time spent up to now is        9.2 secs

     total energy              =    -713.42276994 Ry
     Harris-Foulkes estimate   =    -713.43430375 Ry
     estimated scf accuracy    <       0.03072483 Ry

     total magnetization       =     2.00 Bohr mag/cell
     absolute magnetization    =     2.09 Bohr mag/cell

     iteration #  5     ecut=    60.00 Ry     beta=0.70
     Davidson diagonalization with overlap
     ethr =  1.22E-05,  avg # of iterations = 10.5

     total cpu time spent up to now is       10.9 secs

     total energy              =    -713.42877001 Ry
     Harris-Foulkes estimate   =    -713.42940538 Ry
     estimated scf accuracy    <       0.00173071 Ry

     total magnetization       =     2.00 Bohr mag/cell
     absolute magnetization    =     2.11 Bohr mag/cell

     iteration #  6     ecut=    60.00 Ry     beta=0.70
     Davidson diagonalization with overlap
     ethr =  6.87E-07,  avg # of iterations = 18.5

     total cpu time spent up to now is       14.2 secs

     total energy              =    -713.42923447 Ry
     Harris-Foulkes estimate   =    -713.42943115 Ry
     estimated scf accuracy    <       0.00047166 Ry

     total magnetization       =     2.00 Bohr mag/cell
     absolute magnetization    =     2.12 Bohr mag/cell

     iteration #  7     ecut=    60.00 Ry     beta=0.70
     Davidson diagonalization with overlap
     WARNING:     1 eigenvalues not converged
     c_bands:  1 eigenvalues not converged
     WARNING:     1 eigenvalues not converged
     c_bands:  1 eigenvalues not converged
     ethr =  1.87E-07,  avg # of iterations = 20.0

     total cpu time spent up to now is       17.5 secs

     total energy              =    -713.42936280 Ry
     Harris-Foulkes estimate   =    -713.42938651 Ry
     estimated scf accuracy    <       0.00007724 Ry

     total magnetization       =     2.00 Bohr mag/cell
     absolute magnetization    =     2.13 Bohr mag/cell

     iteration #  8     ecut=    60.00 Ry     beta=0.70
     Davidson diagonalization with overlap
     ethr =  3.07E-08,  avg # of iterations = 11.5

     total cpu time spent up to now is       19.5 secs

     total energy              =    -713.42938578 Ry
     Harris-Foulkes estimate   =    -713.42938458 Ry
     estimated scf accuracy    <       0.00000763 Ry

     total magnetization       =     2.00 Bohr mag/cell
     absolute magnetization    =     2.13 Bohr mag/cell

     iteration #  9     ecut=    60.00 Ry     beta=0.70
     Davidson diagonalization with overlap
     ethr =  3.03E-09,  avg # of iterations =  8.5

     total cpu time spent up to now is       21.3 secs

     total energy              =    -713.42938981 Ry
     Harris-Foulkes estimate   =    -713.42938849 Ry
     estimated scf accuracy    <       0.00000123 Ry

     total magnetization       =     2.00 Bohr mag/cell
     absolute magnetization    =     2.13 Bohr mag/cell

     iteration # 10     ecut=    60.00 Ry     beta=0.70
     Davidson diagonalization with overlap
     ethr =  4.87E-10,  avg # of iterations = 10.5

     total cpu time spent up to now is       23.6 secs

     total energy              =    -713.42939072 Ry
     Harris-Foulkes estimate   =    -713.42939083 Ry
     estimated scf accuracy    <       0.00000143 Ry

     total magnetization       =     2.00 Bohr mag/cell
     absolute magnetization    =     2.13 Bohr mag/cell

     iteration # 11     ecut=    60.00 Ry     beta=0.70
     Davidson diagonalization with overlap
     ethr =  4.87E-10,  avg # of iterations = 12.5

     total cpu time spent up to now is       25.8 secs

     total energy              =    -713.42939119 Ry
     Harris-Foulkes estimate   =    -713.42939112 Ry
     estimated scf accuracy    <       0.00000020 Ry

     total magnetization       =     2.00 Bohr mag/cell
     absolute magnetization    =     2.14 Bohr mag/cell

     iteration # 12     ecut=    60.00 Ry     beta=0.70
     Davidson diagonalization with overlap
     ethr =  7.87E-11,  avg # of iterations =  9.0

     total cpu time spent up to now is       27.7 secs

     total energy              =    -713.42939129 Ry
     Harris-Foulkes estimate   =    -713.42939129 Ry
     estimated scf accuracy    <       0.00000005 Ry

     total magnetization       =     2.00 Bohr mag/cell
     absolute magnetization    =     2.14 Bohr mag/cell

     iteration # 13     ecut=    60.00 Ry     beta=0.70
     Davidson diagonalization with overlap
     WARNING:     1 eigenvalues not converged
     c_bands:  1 eigenvalues not converged
     WARNING:     1 eigenvalues not converged
     c_bands:  1 eigenvalues not converged
     ethr =  1.85E-11,  avg # of iterations = 20.0

     total cpu time spent up to now is       31.4 secs

     total energy              =    -713.42939131 Ry
     Harris-Foulkes estimate   =    -713.42939132 Ry
     estimated scf accuracy    <       0.00000003 Ry

     total magnetization       =     2.00 Bohr mag/cell
     absolute magnetization    =     2.14 Bohr mag/cell

     iteration # 14     ecut=    60.00 Ry     beta=0.70
     Davidson diagonalization with overlap
     ethr =  1.28E-11,  avg # of iterations = 15.5
 
     Magnetic moment per site:
     atom:    1    charge:    1.9432    magn:    0.0100    constr:    0.0000
     atom:    2    charge:    1.9119    magn:    0.0040    constr:    0.0000
     atom:    3    charge:    1.9436    magn:    0.0166    constr:    0.0000
     atom:    4    charge:    1.9291    magn:    0.0050    constr:    0.0000
     atom:    5    charge:    1.9377    magn:    0.1009    constr:    0.0000
     atom:    6    charge:    1.9432    magn:    0.0100    constr:    0.0000
     atom:    7    charge:    1.9304    magn:    0.0056    constr:    0.0000
     atom:    8    charge:    1.9436    magn:    0.0166    constr:    0.0000
     atom:    9    charge:    1.9366    magn:    0.0068    constr:    0.0000
     atom:   10    charge:    1.9343    magn:    0.0184    constr:    0.0000
     atom:   11    charge:    1.9343    magn:    0.0184    constr:    0.0000
     atom:   12    charge:    1.9291    magn:    0.0040    constr:    0.0000
     atom:   13    charge:    1.9343    magn:    0.0184    constr:    0.0000
     atom:   14    charge:    1.9291    magn:    0.0040    constr:    0.0000
     atom:   15    charge:    1.9291    magn:    0.0040    constr:    0.0000
     atom:   16    charge:    1.9291    magn:    0.0050    constr:    0.0000
     atom:   17    charge:    1.9119    magn:    0.0040    constr:    0.0000
     atom:   18    charge:    1.9436    magn:    0.0166    constr:    0.0000
     atom:   19    charge:    1.9432    magn:    0.0100    constr:    0.0000
     atom:   20    charge:    1.9436    magn:    0.0166    constr:    0.0000
     atom:   21    charge:    1.9432    magn:    0.0100    constr:    0.0000
     atom:   22    charge:    1.9304    magn:    0.0056    constr:    0.0000
     atom:   23    charge:    1.9377    magn:    0.1009    constr:    0.0000
     atom:   24    charge:    1.9441    magn:    0.0166    constr:    0.0000
     atom:   25    charge:    1.9282    magn:    0.0056    constr:    0.0000
     atom:   26    charge:    1.9307    magn:    0.0050    constr:    0.0000
     atom:   27    charge:    1.9441    magn:    0.0166    constr:    0.0000
     atom:   28    charge:    1.9429    magn:    0.0100    constr:    0.0000
     atom:   29    charge:    1.9392    magn:    0.1009    constr:    0.0000
     atom:   30    charge:    1.9130    magn:    0.0040    constr:    0.0000
     atom:   31    charge:    1.9429    magn:    0.0100    constr:    0.0000
     atom:   32    charge:    1.9291    magn:    0.0040    constr:    0.0000
     atom:   33    charge:    1.9338    magn:    0.0184    constr:    0.0000
     atom:   34    charge:    1.9291    magn:    0.0040    constr:    0.0000
     atom:   35    charge:    1.9338    magn:    0.0184    constr:    0.0000
     atom:   36    charge:    1.9291    magn:    0.0040    constr:    0.0000
     atom:   37    charge:    1.9362    magn:    0.0068    constr:    0.0000
     atom:   38    charge:    1.9338    magn:    0.0184    constr:    0.0000
     atom:   39    charge:    1.9441    magn:    0.0166    constr:    0.0000
     atom:   40    charge:    1.9282    magn:    0.0056    constr:    0.0000
     atom:   41    charge:    1.9429    magn:    0.0100    constr:    0.0000
     atom:   42    charge:    1.9392    magn:    0.1009    constr:    0.0000
     atom:   43    charge:    1.9307    magn:    0.0050    constr:    0.0000
     atom:   44    charge:    1.9441    magn:    0.0166    constr:    0.0000
     atom:   45    charge:    1.9130    magn:    0.0040    constr:    0.0000
     atom:   46    charge:    1.9429    magn:    0.0100    constr:    0.0000
     atom:   47    charge:    1.9432    magn:    0.0100    constr:    0.0000
     atom:   48    charge:    1.9119    magn:    0.0040    constr:    0.0000
     atom:   49    charge:    1.9377    magn:    0.1009    constr:    0.0000
     atom:   50    charge:    1.9432    magn:    0.0100    constr:    0.0000
     atom:   51    charge:    1.9436    magn:    0.0166    constr:    0.0000
     atom:   52    charge:    1.9291    magn:    0.0050    constr:    0.0000
     atom:   53    charge:    1.9304    magn:    0.0056    constr:    0.0000
     atom:   54    charge:    1.9436    magn:    0.0166    constr:    0.0000
     atom:   55    charge:    1.9282    magn:    0.0056    constr:    0.0000
     atom:   56    charge:    1.9392    magn:    0.1009    constr:    0.0000
     atom:   57    charge:    1.9441    magn:    0.0166    constr:    0.0000
     atom:   58    charge:    1.9429    magn:    0.0100    constr:    0.0000
     atom:   59    charge:    1.9441    magn:    0.0166    constr:    0.0000
     atom:   60    charge:    1.9429    magn:    0.0100    constr:    0.0000
     atom:   61    charge:    1.9307    magn:    0.0050    constr:    0.0000
     atom:   62    charge:    1.9130    magn:    0.0040    constr:    0.0000
     atom:   63    charge:    1.1858    magn:    0.0186    constr:    0.0000

     total cpu time spent up to now is       33.9 secs

     End of self-consistent calculation

 ------ SPIN UP ------------


          k = 0.0000 0.0000 0.0000 (  9655 PWs)   bands (ev):

    -8.1398  -6.0079  -6.0078  -5.9388  -5.9388  -5.6920  -5.5043  -3.8884
    -3.8365  -3.8365  -3.8023  -3.8023  -3.7441  -3.7441  -3.6912  -3.5747
    -3.5747  -3.2911  -3.0357  -2.4132  -2.4132  -2.1959  -1.2784  -0.0546
    -0.0500   0.0006   0.0006   0.4680   0.4680   0.5451   0.5866   0.5866
     0.7288   1.1124   1.1893   1.2770   1.2770   1.2946   1.2946   1.4274
     1.4274   1.5129   1.5129   2.8354   3.1484   4.4885   4.4885   4.4898
     4.4898   4.4918   4.5751   4.5751   4.6211   4.6211   4.6285   4.8056
     4.8086   4.8086   4.8975   4.9194   4.9803   4.9803   4.9978   5.0800
     5.0800   5.1911   5.1911   5.2826   5.5822   5.6237   5.6237   5.6603
     5.6603   5.7167   6.0005   6.0005   6.1674   6.1674   6.2703   6.6929
     6.8587   6.9347   7.0259   7.0259   7.4288   7.4288   7.5107   8.7286
     8.7286   8.7784   8.7784   9.0440   9.0523   9.0799   9.0799   9.0875
     9.1474   9.1716   9.1716   9.4149   9.4149   9.6176   9.6176   9.6257
    10.0833  10.1374  10.1841  10.1841  10.2294  10.2294  10.2334  10.2343
    10.2488  10.2786  10.2786  10.4100  10.4100  10.4263  10.4891  10.4891
    11.9949  11.9949  12.0739  12.0739  12.9029  14.1475  14.1475  17.7095
    17.7416  17.7416  17.7911  17.8366

     occupation numbers 
     1.0000   1.0000   1.0000   1.0000   1.0000   1.0000   1.0000   1.0000
     1.0000   1.0000   1.0000   1.0000   1.0000   1.0000   1.0000   1.0000
     1.0000   1.0000   1.0000   1.0000   1.0000   1.0000   1.0000   1.0000
     1.0000   1.0000   1.0000   1.0000   1.0000   1.0000   1.0000   1.0000
     1.0000   1.0000   1.0000   1.0000   1.0000   1.0000   1.0000   1.0000
     1.0000   1.0000   1.0000   1.0000   1.0000   1.0000   1.0000   1.0000
     1.0000   1.0000   1.0000   1.0000   1.0000   1.0000   1.0000   1.0000
     1.0000   1.0000   1.0000   1.0000   1.0000   1.0000   1.0000   1.0000
     1.0000   1.0000   1.0000   1.0000   1.0000   1.0000   1.0000   1.0000
     1.0000   1.0000   1.0000   1.0000   1.0000   1.0000   1.0000   1.0000
     1.0000   1.0000   1.0000   1.0000   1.0000   1.0000   1.0000   1.0000
     1.0000   1.0000   1.0000   1.0000   1.0000   1.0000   1.0000   1.0000
     1.0000   1.0000   1.0000   1.0000   1.0000   1.0000   1.0000   1.0000
     1.0000   1.0000   1.0000   1.0000   1.0000   1.0000   1.0000   1.0000
     1.0000   1.0000   1.0000   1.0000   1.0000   1.0000   1.0000   1.0000
     1.0000   1.0000   1.0000   1.0000   1.0000   1.0000   1.0000   0.0000
     0.0000   0.0000   0.0000   0.0000

 ------ SPIN DOWN ----------


          k = 0.0000 0.0000 0.0000 (  9655 PWs)   bands (ev):

    -8.1034  -5.9608  -5.9608  -5.9078  -5.9078  -5.6640  -5.4623  -3.8471
    -3.7784  -3.7784  -3.7698  -3.7697  -3.7142  -3.7142  -3.6687  -3.5272
    -3.5272  -3.2424  -2.9873  -2.3640  -2.3640  -2.1114  -1.1800  -0.0389
    -0.0200   0.0399   0.0399   0.5206   0.5206   0.5847   0.6207   0.6207
     0.7632   1.1700   1.2194   1.3185   1.3185   1.3189   1.3189   1.5107
     1.5107   1.5876   1.5876   2.9487   3.2616   4.5219   4.5219   4.5264
     4.5264   4.5409   4.6199   4.6199   4.6678   4.6836   4.6836   4.8325
     4.8386   4.8386   4.9448   4.9605   5.0092   5.0092   5.0223   5.1213
     5.1213   5.2377   5.2377   5.3077   5.6035   5.6643   5.6643   5.6940
     5.6940   5.7640   6.0662   6.0662   6.2467   6.2467   6.3130   6.8762
     6.9892   7.0016   7.0682   7.0682   7.5256   7.5256   7.5476   8.7705
     8.7705   8.8209   8.8209   9.1004   9.1101   9.1101   9.1223   9.1317
     9.1898   9.2148   9.2148   9.4799   9.4799   9.6465   9.6640   9.6640
    10.1312  10.1787  10.2132  10.2132  10.2482  10.2681  10.2683  10.2683
    10.3249  10.3249  10.4626  10.4626  10.5029  10.5350  10.5350  10.5409
    12.2720  12.2720  12.3584  12.3584  12.9220  14.5666  14.5666  17.7335
    17.7639  17.7639  17.8340  17.8670

     occupation numbers 
     1.0000   1.0000   1.0000   1.0000   1.0000   1.0000   1.0000   1.0000
     1.0000   1.0000   1.0000   1.0000   1.0000   1.0000   1.0000   1.0000
     1.0000   1.0000   1.0000   1.0000   1.0000   1.0000   1.0000   1.0000
     1.0000   1.0000   1.0000   1.0000   1.0000   1.0000   1.0000   1.0000
     1.0000   1.0000   1.0000   1.0000   1.0000   1.0000   1.0000   1.0000
     1.0000   1.0000   1.0000   1.0000   1.0000   1.0000   1.0000   1.0000
     1.0000   1.0000   1.0000   1.0000   1.0000   1.0000   1.0000   1.0000
     1.0000   1.0000   1.0000   1.0000   1.0000   1.0000   1.0000   1.0000
     1.0000   1.0000   1.0000   1.0000   1.0000   1.0000   1.0000   1.0000
     1.0000   1.0000   1.0000   1.0000   1.0000   1.0000   1.0000   1.0000
     1.0000   1.0000   1.0000   1.0000   1.0000   1.0000   1.0000   1.0000
     1.0000   1.0000   1.0000   1.0000   1.0000   1.0000   1.0000   1.0000
     1.0000   1.0000   1.0000   1.0000   1.0000   1.0000   1.0000   1.0000
     1.0000   1.0000   1.0000   1.0000   1.0000   1.0000   1.0000   1.0000
     1.0000   1.0000   1.0000   1.0000   1.0000   1.0000   1.0000   1.0000
     1.0000   1.0000   1.0000   1.0000   1.0000   0.0000   0.0000   0.0000
     0.0000   0.0000   0.0000   0.0000

     highest occupied, lowest unoccupied level (ev):    14.1475   14.5666

!    total energy              =    -713.42939132 Ry
     Harris-Foulkes estimate   =    -713.42939132 Ry
     estimated scf accuracy    <          2.1E-09 Ry

     The total energy is the sum of the following terms:

     one-electron contribution =     238.86689907 Ry
     hartree contribution      =      67.27191103 Ry
     xc contribution           =    -223.46450652 Ry
     ewald contribution        =    -796.10369490 Ry

     total magnetization       =     2.00 Bohr mag/cell
     absolute magnetization    =     2.14 Bohr mag/cell

     convergence has been achieved in  14 iterations

     Forces acting on atoms (cartesian axes, Ry/au):

     atom    1 type  1   force =     0.00002766    0.00011058    0.00006307
     atom    2 type  1   force =     0.00010946    0.00007148   -0.00010946
     atom    3 type  1   force =     0.00001529   -0.00007093   -0.00004125
     atom    4 type  1   force =     0.00010787    0.00011709   -0.00010787
     atom    5 type  1   force =    -0.00017513    0.00004765    0.00017513
     atom    6 type  1   force =    -0.00006307    0.00011058   -0.00002766
     atom    7 type  1   force =    -0.00014655   -0.00009346    0.00014655
     atom    8 type  1   force =     0.00004125   -0.00007093   -0.00001529
     atom    9 type  1   force =    -0.00001313   -0.00001313    0.00001313
     atom   10 type  1   force =     0.00007806    0.00007806   -0.00006678
     atom   11 type  1   force =     0.00007806    0.00006678   -0.00007806
     atom   12 type  1   force =     0.00010982    0.00001393   -0.00001393
     atom   13 type  1   force =     0.00006678    0.00007806   -0.00007806
     atom   14 type  1   force =     0.00001393    0.00010982   -0.00001393
     atom   15 type  1   force =     0.00001393    0.00001393   -0.00010982
     atom   16 type  1   force =     0.00010787    0.00010787   -0.00011709
     atom   17 type  1   force =     0.00010946    0.00010946   -0.00007148
     atom   18 type  1   force =     0.00001529    0.00004125    0.00007093
     atom   19 type  1   force =     0.00002766   -0.00006307   -0.00011058
     atom   20 type  1   force =     0.00004125    0.00001529    0.00007093
     atom   21 type  1   force =    -0.00006307    0.00002766   -0.00011058
     atom   22 type  1   force =    -0.00014655   -0.00014655    0.00009346
     atom   23 type  1   force =    -0.00017513   -0.00017513   -0.00004765
     atom   24 type  1   force =     0.00003308   -0.00002429   -0.00001317
     atom   25 type  1   force =     0.00008387    0.00017265   -0.00017265
     atom   26 type  1   force =    -0.00011145   -0.00011191    0.00011191
     atom   27 type  1   force =     0.00003308    0.00001317    0.00002429
     atom   28 type  1   force =    -0.00012180    0.00006874    0.00006748
     atom   29 type  1   force =    -0.00002812    0.00015029   -0.00015029
     atom   30 type  1   force =    -0.00004619   -0.00009877    0.00009877
     atom   31 type  1   force =    -0.00012180   -0.00006748   -0.00006874
     atom   32 type  1   force =    -0.00000862   -0.00000862    0.00015600
     atom   33 type  1   force =    -0.00004305   -0.00005247    0.00005247
     atom   34 type  1   force =    -0.00000862   -0.00015600    0.00000862
     atom   35 type  1   force =    -0.00005247   -0.00004305    0.00005247
     atom   36 type  1   force =    -0.00015600   -0.00000862    0.00000862
     atom   37 type  1   force =    -0.00000611   -0.00000611    0.00000611
     atom   38 type  1   force =    -0.00005247   -0.00005247    0.00004305
     atom   39 type  1   force =    -0.00002429    0.00003308   -0.00001317
     atom   40 type  1   force =     0.00017265    0.00008387   -0.00017265
     atom   41 type  1   force =     0.00006874   -0.00012180    0.00006748
     atom   42 type  1   force =     0.00015029   -0.00002812   -0.00015029
     atom   43 type  1   force =    -0.00011191   -0.00011145    0.00011191
     atom   44 type  1   force =     0.00001317    0.00003308    0.00002429
     atom   45 type  1   force =    -0.00009877   -0.00004619    0.00009877
     atom   46 type  1   force =    -0.00006748   -0.00012180   -0.00006874
     atom   47 type  1   force =     0.00011058    0.00002766    0.00006307
     atom   48 type  1   force =     0.00007148    0.00010946   -0.00010946
     atom   49 type  1   force =     0.00004765   -0.00017513    0.00017513
     atom   50 type  1   force =     0.00011058   -0.00006307   -0.00002766
     atom   51 type  1   force =    -0.00007093    0.00001529   -0.00004125
     atom   52 type  1   force =     0.00011709    0.00010787   -0.00010787
     atom   53 type  1   force =    -0.00009346   -0.00014655    0.00014655
     atom   54 type  1   force =    -0.00007093    0.00004125   -0.00001529
     atom   55 type  1   force =     0.00017265    0.00017265   -0.00008387
     atom   56 type  1   force =     0.00015029    0.00015029    0.00002812
     atom   57 type  1   force =    -0.00002429    0.00001317   -0.00003308
     atom   58 type  1   force =     0.00006874   -0.00006748    0.00012180
     atom   59 type  1   force =     0.00001317   -0.00002429   -0.00003308
     atom   60 type  1   force =    -0.00006748    0.00006874    0.00012180
     atom   61 type  1   force =    -0.00011191   -0.00011191    0.00011145
     atom   62 type  1   force =    -0.00009877   -0.00009877    0.00004619
     atom   63 type  2   force =    -0.00000117   -0.00000117    0.00000117
     The non-local contrib.  to forces
     atom    1 type  1   force =    -0.02992692    0.03504270    0.01443424
     atom    2 type  1   force =    -0.02997001   -0.00226647    0.02997001
     atom    3 type  1   force =    -0.00931199    0.00593450   -0.02500075
     atom    4 type  1   force =    -0.00095723   -0.00147321    0.00095723
     atom    5 type  1   force =     0.17984316   -0.14698647   -0.17984316
     atom    6 type  1   force =    -0.01443424    0.03504270    0.02992692
     atom    7 type  1   force =     0.01360147    0.01646640   -0.01360147
     atom    8 type  1   force =     0.02500075    0.00593450    0.00931199
     atom    9 type  1   force =    -0.01119052   -0.01119052    0.01119052
     atom   10 type  1   force =    -0.00715002   -0.00715002    0.00568790
     atom   11 type  1   force =    -0.00715002   -0.00568790    0.00715002
     atom   12 type  1   force =     0.00991674    0.00449478   -0.00449478
     atom   13 type  1   force =    -0.00568790   -0.00715002    0.00715002
     atom   14 type  1   force =     0.00449478    0.00991674   -0.00449478
     atom   15 type  1   force =     0.00449478    0.00449478   -0.00991674
     atom   16 type  1   force =    -0.00095723   -0.00095723    0.00147321
     atom   17 type  1   force =    -0.02997001   -0.02997001    0.00226647
     atom   18 type  1   force =    -0.00931199    0.02500075   -0.00593450
     atom   19 type  1   force =    -0.02992692   -0.01443424   -0.03504270
     atom   20 type  1   force =     0.02500075   -0.00931199   -0.00593450
     atom   21 type  1   force =    -0.01443424   -0.02992692   -0.03504270
     atom   22 type  1   force =     0.01360147    0.01360147   -0.01646640
     atom   23 type  1   force =     0.17984316    0.17984316    0.14698647
     atom   24 type  1   force =    -0.00578354   -0.02495051   -0.00942609
     atom   25 type  1   force =    -0.01632118   -0.01354460    0.01354460
     atom   26 type  1   force =     0.00157612    0.00098456   -0.00098456
     atom   27 type  1   force =    -0.00578354    0.00942609    0.02495051
     atom   28 type  1   force =    -0.03489066    0.01437298   -0.02996327
     atom   29 type  1   force =     0.14731302   -0.17981254    0.17981254
     atom   30 type  1   force =     0.00243929    0.03013170   -0.03013170
     atom   31 type  1   force =    -0.03489066    0.02996327   -0.01437298
     atom   32 type  1   force =    -0.00428745   -0.00428745    0.00989266
     atom   33 type  1   force =     0.00585881    0.00728960   -0.00728960
     atom   34 type  1   force =    -0.00428745   -0.00989266    0.00428745
     atom   35 type  1   force =     0.00728960    0.00585881   -0.00728960
     atom   36 type  1   force =    -0.00989266   -0.00428745    0.00428745
     atom   37 type  1   force =     0.01131252    0.01131252   -0.01131252
     atom   38 type  1   force =     0.00728960    0.00728960   -0.00585881
     atom   39 type  1   force =    -0.02495051   -0.00578354   -0.00942609
     atom   40 type  1   force =    -0.01354460   -0.01632118    0.01354460
     atom   41 type  1   force =     0.01437298   -0.03489066   -0.02996327
     atom   42 type  1   force =    -0.17981254    0.14731302    0.17981254
     atom   43 type  1   force =     0.00098456    0.00157612   -0.00098456
     atom   44 type  1   force =     0.00942609   -0.00578354    0.02495051
     atom   45 type  1   force =     0.03013170    0.00243929   -0.03013170
     atom   46 type  1   force =     0.02996327   -0.03489066   -0.01437298
     atom   47 type  1   force =     0.03504270   -0.02992692    0.01443424
     atom   48 type  1   force =    -0.00226647   -0.02997001    0.02997001
     atom   49 type  1   force =    -0.14698647    0.17984316   -0.17984316
     atom   50 type  1   force =     0.03504270   -0.01443424    0.02992692
     atom   51 type  1   force =     0.00593450   -0.00931199   -0.02500075
     atom   52 type  1   force =    -0.00147321   -0.00095723    0.00095723
     atom   53 type  1   force =     0.01646640    0.01360147   -0.01360147
     atom   54 type  1   force =     0.00593450    0.02500075    0.00931199
     atom   55 type  1   force =    -0.01354460   -0.01354460    0.01632118
     atom   56 type  1   force =    -0.17981254   -0.17981254   -0.14731302
     atom   57 type  1   force =    -0.02495051    0.00942609    0.00578354
     atom   58 type  1   force =     0.01437298    0.02996327    0.03489066
     atom   59 type  1   force =     0.00942609   -0.02495051    0.00578354
     atom   60 type  1   force =     0.02996327    0.01437298    0.03489066
     atom   61 type  1   force =     0.00098456    0.00098456   -0.00157612
     atom   62 type  1   force =     0.03013170    0.03013170   -0.00243929
     atom   63 type  2   force =     0.00020473    0.00020473   -0.00020473
     The ionic contribution  to forces
     atom    1 type  1   force =     0.54248218    0.32815936    0.78768619
     atom    2 type  1   force =     0.78436523   -0.08215556   -0.78436603
     atom    3 type  1   force =     0.16396017   -0.08731665    0.10581762
     atom    4 type  1   force =     0.29553385    0.10310026   -0.29553462
     atom    5 type  1   force =    -1.64755399    1.91596843    1.64755576
     atom    6 type  1   force =    -0.78768472    0.32815937   -0.54248278
     atom    7 type  1   force =    -0.21827617   -0.55440371    0.21827752
     atom    8 type  1   force =    -0.10581625   -0.08731667   -0.16396095
     atom    9 type  1   force =     0.03391251    0.03391251   -0.03391399
     atom   10 type  1   force =     0.16216569    0.16216569    0.38071349
     atom   11 type  1   force =     0.16216557   -0.38071380   -0.16216706
     atom   12 type  1   force =     0.45334345   -0.20736092    0.20736054
     atom   13 type  1   force =    -0.38071380    0.16216557   -0.16216706
     atom   14 type  1   force =    -0.20736092    0.45334345    0.20736054
     atom   15 type  1   force =    -0.20736085   -0.20736085   -0.45334464
     atom   16 type  1   force =     0.29553389    0.29553389   -0.10310099
     atom   17 type  1   force =     0.78436533    0.78436533    0.08215693
     atom   18 type  1   force =     0.16396017   -0.10581624    0.08731592
     atom   19 type  1   force =     0.54248206   -0.78768490   -0.32815805
     atom   20 type  1   force =    -0.10581624    0.16396017    0.08731592
     atom   21 type  1   force =    -0.78768490    0.54248206   -0.32815805
     atom   22 type  1   force =    -0.21827616   -0.21827616    0.55440307
     atom   23 type  1   force =    -1.64755476   -1.64755476   -1.91596772
     atom   24 type  1   force =     0.08375855    0.10712530    0.16375596
     atom   25 type  1   force =     0.55440752    0.21932883   -0.21932854
     atom   26 type  1   force =    -0.10214813   -0.29627993    0.29628029
     atom   27 type  1   force =     0.08375851   -0.16375561   -0.10712501
     atom   28 type  1   force =    -0.32804308    0.78663989    0.54216944
     atom   29 type  1   force =    -1.91732058    1.64744574   -1.64744578
     atom   30 type  1   force =     0.07778484   -0.78243148    0.78243188
     atom   31 type  1   force =    -0.32804295   -0.54216903   -0.78663962
     atom   32 type  1   force =     0.20684567    0.20684567    0.44957754
     atom   33 type  1   force =     0.38206662   -0.16216098    0.16216025
     atom   34 type  1   force =     0.20684565   -0.44957817   -0.20684434
     atom   35 type  1   force =    -0.16216098    0.38206662    0.16216025
     atom   36 type  1   force =    -0.44957817    0.20684565   -0.20684434
     atom   37 type  1   force =    -0.03198393   -0.03198393    0.03198318
     atom   38 type  1   force =    -0.16216102   -0.16216102   -0.38206528
     atom   39 type  1   force =     0.10712530    0.08375855    0.16375596
     atom   40 type  1   force =     0.21932883    0.55440752   -0.21932854
     atom   41 type  1   force =     0.78663989   -0.32804308    0.54216944
     atom   42 type  1   force =     1.64744574   -1.91732058   -1.64744578
     atom   43 type  1   force =    -0.29627993   -0.10214813    0.29628029
     atom   44 type  1   force =    -0.16375561    0.08375851   -0.10712501
     atom   45 type  1   force =    -0.78243148    0.07778484    0.78243188
     atom   46 type  1   force =    -0.54216903   -0.32804295   -0.78663962
     atom   47 type  1   force =     0.32815936    0.54248218    0.78768619
     atom   48 type  1   force =    -0.08215556    0.78436523   -0.78436603
     atom   49 type  1   force =     1.91596843   -1.64755399    1.64755576
     atom   50 type  1   force =     0.32815937   -0.78768472   -0.54248278
     atom   51 type  1   force =    -0.08731665    0.16396017    0.10581762
     atom   52 type  1   force =     0.10310026    0.29553385   -0.29553462
     atom   53 type  1   force =    -0.55440371   -0.21827617    0.21827752
     atom   54 type  1   force =    -0.08731667   -0.10581625   -0.16396095
     atom   55 type  1   force =     0.21932877    0.21932877   -0.55440884
     atom   56 type  1   force =     1.64744672    1.64744672    1.91732069
     atom   57 type  1   force =     0.10712529   -0.16375560   -0.08375996
     atom   58 type  1   force =     0.78663994   -0.54216908    0.32804254
     atom   59 type  1   force =    -0.16375560    0.10712529   -0.08375996
     atom   60 type  1   force =    -0.54216908    0.78663994    0.32804254
     atom   61 type  1   force =    -0.29627993   -0.29627993    0.10214669
     atom   62 type  1   force =    -0.78243142   -0.78243142   -0.07778529
     atom   63 type  2   force =    -0.00020309   -0.00020309    0.00020281
     The local contribution  to forces
     atom    1 type  1   force =    -0.51251011   -0.36305703   -0.80207757
     atom    2 type  1   force =    -0.75425396    0.08452574    0.75425056
     atom    3 type  1   force =    -0.15461076    0.08133392   -0.08087983
     atom    4 type  1   force =    -0.29444179   -0.10148841    0.29443538
     atom    5 type  1   force =     1.46757537   -1.76888291   -1.46756399
     atom    6 type  1   force =     0.80207911   -0.36305313    0.51249824
     atom    7 type  1   force =     0.20456011    0.53784591   -0.20455148
     atom    8 type  1   force =     0.08088390    0.08132631    0.15459838
     atom    9 type  1   force =    -0.02271745   -0.02271496    0.02270323
     atom   10 type  1   force =    -0.15491768   -0.15491403   -0.38649252
     atom   11 type  1   force =    -0.15491548    0.38650282    0.15490344
     atom   12 type  1   force =    -0.46314801    0.20291346   -0.20289828
     atom   13 type  1   force =     0.38650452   -0.15491741    0.15490375
     atom   14 type  1   force =     0.20291823   -0.46313959   -0.20289793
     atom   15 type  1   force =     0.20291563    0.20291498    0.46312507
     atom   16 type  1   force =    -0.29444155   -0.29443904    0.10147693
     atom   17 type  1   force =    -0.75425547   -0.75425338   -0.08451438
     atom   18 type  1   force =    -0.15460773    0.08088244   -0.08134507
     atom   19 type  1   force =    -0.51251127    0.80207966    0.36306850
     atom   20 type  1   force =     0.08088602   -0.15460729   -0.08134134
     atom   21 type  1   force =     0.80208128   -0.51250536    0.36306633
     atom   22 type  1   force =     0.20455838    0.20455940   -0.53785995
     atom   23 type  1   force =     1.46757505    1.46757023    1.76889590
     atom   24 type  1   force =    -0.07792574   -0.08216577   -0.15436592
     atom   25 type  1   force =    -0.53797312   -0.20557409    0.20557861
     atom   26 type  1   force =     0.10046594    0.29520416   -0.29520885
     atom   27 type  1   force =    -0.07792954    0.15436023    0.08216643
     atom   28 type  1   force =     0.36285209   -0.80090491   -0.51217097
     atom   29 type  1   force =     1.77000657   -1.46745373    1.46745849
     atom   30 type  1   force =    -0.08021803    0.75221642   -0.75222400
     atom   31 type  1   force =     0.36285760    0.51216353    0.80090857
     atom   32 type  1   force =    -0.20252677   -0.20252639   -0.45935291
     atom   33 type  1   force =    -0.38792220    0.15483237   -0.15484787
     atom   34 type  1   force =    -0.20252166    0.45933925    0.20253961
     atom   35 type  1   force =     0.15483101   -0.38792591   -0.15484368
     atom   36 type  1   force =     0.45933548   -0.20252269    0.20253370
     atom   37 type  1   force =     0.02067638    0.02067912   -0.02068989
     atom   38 type  1   force =     0.15482772    0.15482928    0.38793713
     atom   39 type  1   force =    -0.08216736   -0.07792204   -0.15436742
     atom   40 type  1   force =    -0.20557317   -0.53797177    0.20558045
     atom   41 type  1   force =    -0.80090380    0.36284651   -0.51217455
     atom   42 type  1   force =    -1.46745422    1.77000461    1.46746186
     atom   43 type  1   force =     0.29520303    0.10047068   -0.29520857
     atom   44 type  1   force =     0.15436062   -0.07792641    0.08216649
     atom   45 type  1   force =     0.75221573   -0.08022348   -0.75221866
     atom   46 type  1   force =     0.51216099    0.36285633    0.80090378
     atom   47 type  1   force =    -0.36305263   -0.51250606   -0.80207642
     atom   48 type  1   force =     0.08452750   -0.75425416    0.75424914
     atom   49 type  1   force =    -1.76888136    1.46757154   -1.46756963
     atom   50 type  1   force =    -0.36305075    0.80207886    0.51250096
     atom   51 type  1   force =     0.08133058   -0.15460590   -0.08087995
     atom   52 type  1   force =    -0.10148921   -0.29444133    0.29443477
     atom   53 type  1   force =     0.53784068    0.20455568   -0.20454854
     atom   54 type  1   force =     0.08132447    0.08088515    0.15459590
     atom   55 type  1   force =    -0.20557444   -0.20557329    0.53796154
     atom   56 type  1   force =    -1.46745972   -1.46746052   -1.76999375
     atom   57 type  1   force =    -0.08216307    0.15436104    0.07791077
     atom   58 type  1   force =    -0.80090564    0.51216614   -0.36283193
     atom   59 type  1   force =     0.15436058   -0.08216498    0.07791205
     atom   60 type  1   force =     0.51216386   -0.80090177   -0.36283585
     atom   61 type  1   force =     0.29520040    0.29520325   -0.10048449
     atom   62 type  1   force =     0.75221579    0.75221354    0.08024171
     atom   63 type  2   force =     0.00004228    0.00003538   -0.00001813
     The core correction contribution to forces
     atom    1 type  1   force =     0.00000000    0.00000000    0.00000000
     atom    2 type  1   force =     0.00000000    0.00000000    0.00000000
     atom    3 type  1   force =     0.00000000    0.00000000    0.00000000
     atom    4 type  1   force =     0.00000000    0.00000000    0.00000000
     atom    5 type  1   force =     0.00000000    0.00000000    0.00000000
     atom    6 type  1   force =     0.00000000    0.00000000    0.00000000
     atom    7 type  1   force =     0.00000000    0.00000000    0.00000000
     atom    8 type  1   force =     0.00000000    0.00000000    0.00000000
     atom    9 type  1   force =     0.00000000    0.00000000    0.00000000
     atom   10 type  1   force =     0.00000000    0.00000000    0.00000000
     atom   11 type  1   force =     0.00000000    0.00000000    0.00000000
     atom   12 type  1   force =     0.00000000    0.00000000    0.00000000
     atom   13 type  1   force =     0.00000000    0.00000000    0.00000000
     atom   14 type  1   force =     0.00000000    0.00000000    0.00000000
     atom   15 type  1   force =     0.00000000    0.00000000    0.00000000
     atom   16 type  1   force =     0.00000000    0.00000000    0.00000000
     atom   17 type  1   force =     0.00000000    0.00000000    0.00000000
     atom   18 type  1   force =     0.00000000    0.00000000    0.00000000
     atom   19 type  1   force =     0.00000000    0.00000000    0.00000000
     atom   20 type  1   force =     0.00000000    0.00000000    0.00000000
     atom   21 type  1   force =     0.00000000    0.00000000    0.00000000
     atom   22 type  1   force =     0.00000000    0.00000000    0.00000000
     atom   23 type  1   force =     0.00000000    0.00000000    0.00000000
     atom   24 type  1   force =     0.00000000    0.00000000    0.00000000
     atom   25 type  1   force =     0.00000000    0.00000000    0.00000000
     atom   26 type  1   force =     0.00000000    0.00000000    0.00000000
     atom   27 type  1   force =     0.00000000    0.00000000    0.00000000
     atom   28 type  1   force =     0.00000000    0.00000000    0.00000000
     atom   29 type  1   force =     0.00000000    0.00000000    0.00000000
     atom   30 type  1   force =     0.00000000    0.00000000    0.00000000
     atom   31 type  1   force =     0.00000000    0.00000000    0.00000000
     atom   32 type  1   force =     0.00000000    0.00000000    0.00000000
     atom   33 type  1   force =     0.00000000    0.00000000    0.00000000
     atom   34 type  1   force =     0.00000000    0.00000000    0.00000000
     atom   35 type  1   force =     0.00000000    0.00000000    0.00000000
     atom   36 type  1   force =     0.00000000    0.00000000    0.00000000
     atom   37 type  1   force =     0.00000000    0.00000000    0.00000000
     atom   38 type  1   force =     0.00000000    0.00000000    0.00000000
     atom   39 type  1   force =     0.00000000    0.00000000    0.00000000
     atom   40 type  1   force =     0.00000000    0.00000000    0.00000000
     atom   41 type  1   force =     0.00000000    0.00000000    0.00000000
     atom   42 type  1   force =     0.00000000    0.00000000    0.00000000
     atom   43 type  1   force =     0.00000000    0.00000000    0.00000000
     atom   44 type  1   force =     0.00000000    0.00000000    0.00000000
     atom   45 type  1   force =     0.00000000    0.00000000    0.00000000
     atom   46 type  1   force =     0.00000000    0.00000000    0.00000000
     atom   47 type  1   force =     0.00000000    0.00000000    0.00000000
     atom   48 type  1   force =     0.00000000    0.00000000    0.00000000
     atom   49 type  1   force =     0.00000000    0.00000000    0.00000000
     atom   50 type  1   force =     0.00000000    0.00000000    0.00000000
     atom   51 type  1   force =     0.00000000    0.00000000    0.00000000
     atom   52 type  1   force =     0.00000000    0.00000000    0.00000000
     atom   53 type  1   force =     0.00000000    0.00000000    0.00000000
     atom   54 type  1   force =     0.00000000    0.00000000    0.00000000
     atom   55 type  1   force =     0.00000000    0.00000000    0.00000000
     atom   56 type  1   force =     0.00000000    0.00000000    0.00000000
     atom   57 type  1   force =     0.00000000    0.00000000    0.00000000
     atom   58 type  1   force =     0.00000000    0.00000000    0.00000000
     atom   59 type  1   force =     0.00000000    0.00000000    0.00000000
     atom   60 type  1   force =     0.00000000    0.00000000    0.00000000
     atom   61 type  1   force =     0.00000000    0.00000000    0.00000000
     atom   62 type  1   force =     0.00000000    0.00000000    0.00000000
     atom   63 type  2   force =     0.00000000    0.00000000    0.00000000
     The Hubbard contrib.    to forces
     atom    1 type  1   force =     0.00000000    0.00000000    0.00000000
     atom    2 type  1   force =     0.00000000    0.00000000    0.00000000
     atom    3 type  1   force =     0.00000000    0.00000000    0.00000000
     atom    4 type  1   force =     0.00000000    0.00000000    0.00000000
     atom    5 type  1   force =     0.00000000    0.00000000    0.00000000
     atom    6 type  1   force =     0.00000000    0.00000000    0.00000000
     atom    7 type  1   force =     0.00000000    0.00000000    0.00000000
     atom    8 type  1   force =     0.00000000    0.00000000    0.00000000
     atom    9 type  1   force =     0.00000000    0.00000000    0.00000000
     atom   10 type  1   force =     0.00000000    0.00000000    0.00000000
     atom   11 type  1   force =     0.00000000    0.00000000    0.00000000
     atom   12 type  1   force =     0.00000000    0.00000000    0.00000000
     atom   13 type  1   force =     0.00000000    0.00000000    0.00000000
     atom   14 type  1   force =     0.00000000    0.00000000    0.00000000
     atom   15 type  1   force =     0.00000000    0.00000000    0.00000000
     atom   16 type  1   force =     0.00000000    0.00000000    0.00000000
     atom   17 type  1   force =     0.00000000    0.00000000    0.00000000
     atom   18 type  1   force =     0.00000000    0.00000000    0.00000000
     atom   19 type  1   force =     0.00000000    0.00000000    0.00000000
     atom   20 type  1   force =     0.00000000    0.00000000    0.00000000
     atom   21 type  1   force =     0.00000000    0.00000000    0.00000000
     atom   22 type  1   force =     0.00000000    0.00000000    0.00000000
     atom   23 type  1   force =     0.00000000    0.00000000    0.00000000
     atom   24 type  1   force =     0.00000000    0.00000000    0.00000000
     atom   25 type  1   force =     0.00000000    0.00000000    0.00000000
     atom   26 type  1   force =     0.00000000    0.00000000    0.00000000
     atom   27 type  1   force =     0.00000000    0.00000000    0.00000000
     atom   28 type  1   force =     0.00000000    0.00000000    0.00000000
     atom   29 type  1   force =     0.00000000    0.00000000    0.00000000
     atom   30 type  1   force =     0.00000000    0.00000000    0.00000000
     atom   31 type  1   force =     0.00000000    0.00000000    0.00000000
     atom   32 type  1   force =     0.00000000    0.00000000    0.00000000
     atom   33 type  1   force =     0.00000000    0.00000000    0.00000000
     atom   34 type  1   force =     0.00000000    0.00000000    0.00000000
     atom   35 type  1   force =     0.00000000    0.00000000    0.00000000
     atom   36 type  1   force =     0.00000000    0.00000000    0.00000000
     atom   37 type  1   force =     0.00000000    0.00000000    0.00000000
     atom   38 type  1   force =     0.00000000    0.00000000    0.00000000
     atom   39 type  1   force =     0.00000000    0.00000000    0.00000000
     atom   40 type  1   force =     0.00000000    0.00000000    0.00000000
     atom   41 type  1   force =     0.00000000    0.00000000    0.00000000
     atom   42 type  1   force =     0.00000000    0.00000000    0.00000000
     atom   43 type  1   force =     0.00000000    0.00000000    0.00000000
     atom   44 type  1   force =     0.00000000    0.00000000    0.00000000
     atom   45 type  1   force =     0.00000000    0.00000000    0.00000000
     atom   46 type  1   force =     0.00000000    0.00000000    0.00000000
     atom   47 type  1   force =     0.00000000    0.00000000    0.00000000
     atom   48 type  1   force =     0.00000000    0.00000000    0.00000000
     atom   49 type  1   force =     0.00000000    0.00000000    0.00000000
     atom   50 type  1   force =     0.00000000    0.00000000    0.00000000
     atom   51 type  1   force =     0.00000000    0.00000000    0.00000000
     atom   52 type  1   force =     0.00000000    0.00000000    0.00000000
     atom   53 type  1   force =     0.00000000    0.00000000    0.00000000
     atom   54 type  1   force =     0.00000000    0.00000000    0.00000000
     atom   55 type  1   force =     0.00000000    0.00000000    0.00000000
     atom   56 type  1   force =     0.00000000    0.00000000    0.00000000
     atom   57 type  1   force =     0.00000000    0.00000000    0.00000000
     atom   58 type  1   force =     0.00000000    0.00000000    0.00000000
     atom   59 type  1   force =     0.00000000    0.00000000    0.00000000
     atom   60 type  1   force =     0.00000000    0.00000000    0.00000000
     atom   61 type  1   force =     0.00000000    0.00000000    0.00000000
     atom   62 type  1   force =     0.00000000    0.00000000    0.00000000
     atom   63 type  2   force =     0.00000000    0.00000000    0.00000000
     The SCF correction term to forces
     atom    1 type  1   force =     0.00001146   -0.00000691   -0.00000854
     atom    2 type  1   force =    -0.00000443   -0.00000487    0.00000950
     atom    3 type  1   force =     0.00000597    0.00000532   -0.00000744
     atom    4 type  1   force =     0.00000132    0.00000684    0.00000742
     atom    5 type  1   force =    -0.00001239   -0.00002412   -0.00000224
     atom    6 type  1   force =     0.00000465   -0.00001246    0.00000335
     atom    7 type  1   force =    -0.00000543    0.00002690   -0.00000628
     atom    8 type  1   force =    -0.00000090    0.00001328    0.00000804
     atom    9 type  1   force =     0.00001030    0.00000782    0.00000614
     atom   10 type  1   force =     0.00001002    0.00000502   -0.00000647
     atom   11 type  1   force =     0.00000677   -0.00000742    0.00001015
     atom   12 type  1   force =     0.00002544   -0.00000605   -0.00001052
     atom   13 type  1   force =    -0.00001060    0.00000838    0.00001007
     atom   14 type  1   force =    -0.00001096    0.00001742   -0.00001015
     atom   15 type  1   force =    -0.00000823   -0.00000808   -0.00000070
     atom   16 type  1   force =     0.00000108   -0.00000209    0.00000738
     atom   17 type  1   force =    -0.00000123   -0.00000341   -0.00000919
     atom   18 type  1   force =     0.00000238    0.00000138    0.00000783
     atom   19 type  1   force =     0.00001205    0.00000394   -0.00000791
     atom   20 type  1   force =    -0.00000131    0.00000287    0.00000455
     atom   21 type  1   force =     0.00000150    0.00000577   -0.00000519
     atom   22 type  1   force =    -0.00000277   -0.00000290   -0.00000943
     atom   23 type  1   force =    -0.00001252   -0.00000781    0.00000716
     atom   24 type  1   force =     0.00001190   -0.00000520   -0.00000524
     atom   25 type  1   force =    -0.00000054   -0.00001004    0.00000509
     atom   26 type  1   force =     0.00002354    0.00000688   -0.00000313
     atom   27 type  1   force =     0.00001633    0.00000994    0.00000385
     atom   28 type  1   force =    -0.00001335   -0.00001300    0.00000441
     atom   29 type  1   force =    -0.00000122   -0.00000127   -0.00000449
     atom   30 type  1   force =    -0.00002621    0.00001201   -0.00000426
     atom   31 type  1   force =    -0.00001925    0.00000398    0.00000687
     atom   32 type  1   force =    -0.00001405   -0.00001385    0.00001299
     atom   33 type  1   force =    -0.00001965    0.00001482    0.00000287
     atom   34 type  1   force =    -0.00001838    0.00000399   -0.00000399
     atom   35 type  1   force =     0.00001562   -0.00001541   -0.00000261
     atom   36 type  1   force =     0.00000839   -0.00001661    0.00000226
     atom   37 type  1   force =     0.00001820    0.00001454   -0.00000021
     atom   38 type  1   force =     0.00001892    0.00001741    0.00000060
     atom   39 type  1   force =    -0.00000493    0.00000773   -0.00000269
     atom   40 type  1   force =    -0.00000992   -0.00000277    0.00000336
     atom   41 type  1   force =    -0.00001214   -0.00000645    0.00000873
     atom   42 type  1   force =    -0.00000045    0.00000155   -0.00000792
     atom   43 type  1   force =     0.00000723    0.00001820   -0.00000335
     atom   44 type  1   force =     0.00000977    0.00001414    0.00000358
     atom   45 type  1   force =     0.00001297   -0.00002008   -0.00001092
     atom   46 type  1   force =     0.00000517   -0.00001654    0.00001238
     atom   47 type  1   force =    -0.00001113    0.00000644   -0.00000942
     atom   48 type  1   force =    -0.00000685   -0.00000434    0.00001046
     atom   49 type  1   force =    -0.00002760   -0.00000719    0.00000255
     atom   50 type  1   force =    -0.00001414    0.00000407    0.00000057
     atom   51 type  1   force =     0.00000970    0.00000060   -0.00000748
     atom   52 type  1   force =     0.00000767    0.00000134    0.00000817
     atom   53 type  1   force =     0.00003123   -0.00000011   -0.00000933
     atom   54 type  1   force =     0.00001464   -0.00000182    0.00001038
     atom   55 type  1   force =    -0.00000906   -0.00001086    0.00001583
     atom   56 type  1   force =     0.00000233    0.00000235   -0.00001634
     atom   57 type  1   force =    -0.00000913    0.00000974    0.00000685
     atom   58 type  1   force =    -0.00001016   -0.00000054   -0.00000800
     atom   59 type  1   force =     0.00000999   -0.00000676    0.00000469
     atom   60 type  1   force =     0.00000144   -0.00001496   -0.00000392
     atom   61 type  1   force =     0.00001094    0.00000804   -0.00000057
     atom   62 type  1   force =     0.00001288    0.00001590   -0.00000127
     atom   63 type  2   force =    -0.00001713   -0.00001069   -0.00000648

     Total force =     0.001242     Total SCF correction =     0.000143
     SCF correction compared to forces is large: reduce conv_thr to get better values

     Writing output data file pwscf.save
 
     init_run     :      0.32s CPU      0.34s WALL (       1 calls)
     electrons    :     33.00s CPU     33.56s WALL (       1 calls)
     forces       :      0.07s CPU      0.07s WALL (       1 calls)

     Called by init_run:
     wfcinit      :      0.19s CPU      0.20s WALL (       1 calls)
     wfcinit:atom :      0.00s CPU      0.00s WALL (       2 calls)
     wfcinit:wfcr :      0.18s CPU      0.19s WALL (       2 calls)
     potinit      :      0.03s CPU      0.03s WALL (       1 calls)

     Called by electrons:
     c_bands      :     31.67s CPU     32.12s WALL (      14 calls)
     sum_band     :      0.96s CPU      0.97s WALL (      14 calls)
     v_of_rho     :      0.31s CPU      0.31s WALL (      15 calls)
     v_h          :      0.01s CPU      0.01s WALL (      15 calls)
     v_xc         :      0.29s CPU      0.30s WALL (      15 calls)
     mix_rho      :      0.04s CPU      0.04s WALL (      14 calls)

     Called by c_bands:
     init_us_2    :      0.05s CPU      0.05s WALL (      60 calls)
     regterg      :     31.52s CPU     31.96s WALL (      28 calls)

     Called by sum_band:

     Called by *egterg:
     h_psi        :      7.51s CPU      7.61s WALL (     387 calls)
     g_psi        :      0.02s CPU      0.02s WALL (     357 calls)
     rdiaghg      :     22.03s CPU     22.36s WALL (     385 calls)
     regterg:over :      0.85s CPU      0.87s WALL (     357 calls)
     regterg:upda :      0.80s CPU      0.81s WALL (     357 calls)
     regterg:last :      0.16s CPU      0.16s WALL (      32 calls)
     rdiaghg:chol :      0.72s CPU      0.73s WALL (     385 calls)
     rdiaghg:inve :      0.52s CPU      0.53s WALL (     385 calls)
     rdiaghg:para :      0.99s CPU      1.05s WALL (     770 calls)

     Called by h_psi:
     h_psi:pot    :      7.49s CPU      7.59s WALL (     387 calls)
     h_psi:calbec :      0.58s CPU      0.59s WALL (     387 calls)
     vloc_psi     :      6.48s CPU      6.57s WALL (     387 calls)
     add_vuspsi   :      0.42s CPU      0.43s WALL (     387 calls)

     General routines
     calbec       :      0.61s CPU      0.62s WALL (     395 calls)
     fft          :      0.22s CPU      0.22s WALL (     314 calls)
     fftw         :      7.18s CPU      7.27s WALL (   15332 calls)
 
     Parallel routines
     fft_scatter  :      5.85s CPU      5.94s WALL (   15646 calls)
 
     PWSCF        :    33.82s CPU        34.49s WALL

 
   This run was terminated on:  22:20: 5   3May2023            

=------------------------------------------------------------------------------=
   JOB DONE.
=------------------------------------------------------------------------------=
