
     Program PWSCF v.6.1 starts on 22Jun2022 at  6:42:35 

     This program is part of the open-source Quantum ESPRESSO suite
     for quantum simulation of materials; please cite
         "P. Giannozzi et al., J. Phys.:Condens. Matter 21 395502 (2009);
          URL http://www.quantum-espresso.org", 
     in publications or presentations arising from this work. More details at
     http://www.quantum-espresso.org/quote

     Parallel version (MPI & OpenMP), running on     112 processor cores
     Number of MPI processes:               112
     Threads/MPI process:                     1
     K-points division:     npool     =       2
     R & G space division:  proc/nbgrp/npool/nimage =      56
     Waiting for input...
     Reading input from standard input

     Current dimensions of program PWSCF are:
     Max number of different atomic species (ntypx) = 10
     Max number of k-points (npk) =  40000
     Max angular momentum in pseudopotentials (lmaxx) =  3

     gamma-point specific algorithms are used

     Subspace diagonalization in iterative solution of the eigenvalue problem:
     one sub-group per band group will be used
     scalapack distributed-memory algorithm (size of sub-group:  5*  5 procs)

 
     Parallelization info
     --------------------
     sticks:   dense  smooth     PW     G-vecs:    dense   smooth      PW
     Min         196     196     47                15628    15628    1940
     Max         198     198     50                15646    15646    1958
     Sum       11057   11057   2757               875727   875727  109127
 


     bravais-lattice index     =            0
     lattice parameter (alat)  =      20.2276  a.u.
     unit-cell volume          =    8276.2749 (a.u.)^3
     number of atoms/cell      =          215
     number of atomic types    =            2
     number of electrons       =       862.00 (up: 432.00, down: 430.00)
     number of Kohn-Sham states=          800
     kinetic-energy cutoff     =      85.0000  Ry
     charge density cutoff     =     340.0000  Ry
     convergence threshold     =      1.0E-10
     mixing beta               =       0.7000
     number of iterations used =            8  plain     mixing
     Exchange-correlation      = PBE ( 1  4  3  4 0 0)

     celldm(1)=  20.227629  celldm(2)=   0.000000  celldm(3)=   0.000000
     celldm(4)=   0.000000  celldm(5)=   0.000000  celldm(6)=   0.000000

     crystal axes: (cart. coord. in units of alat)
               a(1) = (   1.000000   0.000000   0.000000 )  
               a(2) = (   0.000000   1.000000   0.000000 )  
               a(3) = (   0.000000   0.000000   1.000000 )  

     reciprocal axes: (cart. coord. in units 2 pi/alat)
               b(1) = (  1.000000  0.000000  0.000000 )  
               b(2) = (  0.000000  1.000000  0.000000 )  
               b(3) = (  0.000000  0.000000  1.000000 )  


     PseudoPot. # 1 for C  read from file:
     /home/jinyuchem/program/QE/pseudo-potential/C_ONCV_PBE-1.0.upf
     MD5 check sum: 40f8c33130f0afa4272e9dcc1c4fb0df
     Pseudo is Norm-conserving, Zval =  4.0
     Generated using ONCVPSP code by D. R. Hamann
     Using radial grid of  602 points,  4 beta functions with: 
                l(1) =   0
                l(2) =   0
                l(3) =   1
                l(4) =   1

     PseudoPot. # 2 for N  read from file:
     /home/jinyuchem/program/QE/pseudo-potential/N_ONCV_PBE-1.0.upf
     MD5 check sum: e7391ac1e3da9302b4611eea0a09cd4a
     Pseudo is Norm-conserving, Zval =  5.0
     Generated using ONCVPSP code by D. R. Hamann
     Using radial grid of  602 points,  4 beta functions with: 
                l(1) =   0
                l(2) =   0
                l(3) =   1
                l(4) =   1

     atomic species   valence    mass     pseudopotential
        C              4.00    12.01100     C ( 1.00)
        N              5.00    14.00700     N ( 1.00)

     Starting magnetic structure 
     atomic species   magnetization
        C            0.000
        N            0.000

     No symmetry found


                                    s                        frac. trans.

      isym =  1     identity                                     

 cryst.   s( 1) = (     1          0          0      )
                  (     0          1          0      )
                  (     0          0          1      )

 cart.    s( 1) = (  1.0000000  0.0000000  0.0000000 )
                  (  0.0000000  1.0000000  0.0000000 )
                  (  0.0000000  0.0000000  1.0000000 )


   Cartesian axes

     site n.     atom                  positions (alat units)
         1           C   tau(   1) = (  -0.0000212   0.0001172  -0.0000277  )
         2           C   tau(   2) = (   0.0832647   0.0834038   0.0833572  )
         3           C   tau(   3) = (  -0.0001832   0.1667729   0.1667598  )
         4           C   tau(   4) = (   0.0829110   0.2501299   0.2501563  )
         5           C   tau(   5) = (   0.1666592  -0.0000277   0.1667194  )
         6           C   tau(   6) = (   0.2499256   0.0831745   0.2500420  )
         7           C   tau(   7) = (   0.1665733   0.1667265  -0.0000916  )
         8           C   tau(   8) = (   0.2498567   0.2499386   0.0831913  )
         9           C   tau(   9) = (  -0.0000606   0.0000972   0.3334901  )
        10           C   tau(  10) = (   0.0830276   0.0836436   0.4167628  )
        11           C   tau(  11) = (  -0.0006165   0.1673291   0.5002143  )
        12           C   tau(  12) = (   0.0831081   0.2503068   0.5834556  )
        13           C   tau(  13) = (   0.1669579   0.0003113   0.5001428  )
        14           C   tau(  14) = (   0.2500359   0.0833851   0.5833186  )
        15           C   tau(  15) = (   0.1663443   0.1666588   0.3333744  )
        16           C   tau(  16) = (   0.2496526   0.2497820   0.4165849  )
        17           C   tau(  17) = (  -0.0000727   0.0000546   0.6666622  )
        18           C   tau(  18) = (   0.0831929   0.0834851   0.7499865  )
        19           C   tau(  19) = (  -0.0001563   0.1669846   0.8331774  )
        20           C   tau(  20) = (   0.0832097   0.2501747   0.9165437  )
        21           C   tau(  21) = (   0.1666380   0.0001173   0.8333136  )
        22           C   tau(  22) = (   0.2500227   0.0834044   0.9165992  )
        23           C   tau(  23) = (   0.1666095   0.1667506   0.6665682  )
        24           C   tau(  24) = (   0.2500076   0.2501160   0.7498973  )
        25           C   tau(  25) = (  -0.0001519   0.3334691  -0.0000134  )
        26           C   tau(  26) = (   0.0830783   0.4166263   0.0834328  )
        27           C   tau(  27) = (  -0.0003003   0.5000788   0.1669521  )
        28           C   tau(  28) = (   0.0840126   0.5833826   0.2494191  )
        29           C   tau(  29) = (   0.1663305   0.3332814   0.1666499  )
        30           C   tau(  30) = (   0.2496723   0.4164211   0.2498322  )
        31           C   tau(  31) = (   0.1668762   0.5001063   0.0002103  )
        32           C   tau(  32) = (   0.2499964   0.5832650   0.0833304  )
        33           C   tau(  33) = (  -0.0005704   0.3337444   0.3337138  )
        34           C   tau(  34) = (   0.0829294   0.4170192   0.4170219  )
        35           C   tau(  35) = (  -0.0002787   0.5005881   0.5001513  )
        36           C   tau(  36) = (   0.0832576   0.5835243   0.5834618  )
        37           C   tau(  37) = (   0.1664290   0.3333598   0.4999872  )
        38           C   tau(  38) = (   0.2498904   0.4166664   0.5832812  )
        39           C   tau(  39) = (   0.1666245   0.4999076   0.3332694  )
        40           C   tau(  40) = (   0.2500196   0.5832051   0.4166952  )
        41           C   tau(  41) = (  -0.0000884   0.3338932   0.6664120  )
        42           C   tau(  42) = (   0.0832515   0.4170552   0.7500484  )
        43           C   tau(  43) = (   0.0009160   0.5006938   0.8342482  )
        44           C   tau(  44) = (   0.0838931   0.5833702   0.9172264  )
        45           C   tau(  45) = (   0.1666538   0.3334688   0.8331830  )
        46           C   tau(  46) = (   0.2500991   0.4166265   0.9164130  )
        47           C   tau(  47) = (   0.1666984   0.5001203   0.6666319  )
        48           C   tau(  48) = (   0.2501410   0.5833510   0.7499511  )
        49           C   tau(  49) = (   0.0001715   0.6667673   0.0002452  )
        50           C   tau(  50) = (   0.0834906   0.7500759   0.0834118  )
        51           C   tau(  51) = (   0.0001477   0.8334192   0.1666988  )
        52           C   tau(  52) = (   0.0834029   0.9166876   0.2501533  )
        53           C   tau(  53) = (   0.1670811   0.6665570   0.1664455  )
        54           C   tau(  54) = (   0.2502635   0.7499211   0.2500942  )
        55           C   tau(  55) = (   0.1667047   0.8333879   0.0000400  )
        56           C   tau(  56) = (   0.2500850   0.9166323   0.0834200  )
        57           C   tau(  57) = (   0.0014628   0.6663151   0.3321117  )
        58           C   tau(  58) = (   0.0838678   0.7500454   0.4165948  )
        59           C   tau(  59) = (   0.0013355   0.8341564   0.5003752  )
        60           C   tau(  60) = (   0.0839924   0.9172035   0.5833154  )
        61           C   tau(  61) = (   0.1668813   0.6666536   0.5000928  )
        62           C   tau(  62) = (   0.2502898   0.7498947   0.5834332  )
        63           C   tau(  63) = (   0.1670229   0.8333051   0.3333996  )
        64           C   tau(  64) = (   0.2503547   0.9164683   0.4167448  )
        65           C   tau(  65) = (   0.0002817   0.6667376   0.6668961  )
        66           C   tau(  66) = (   0.0834921   0.7499644   0.7499656  )
        67           C   tau(  67) = (   0.0000225   0.8332765   0.8333557  )
        68           C   tau(  68) = (   0.0833138   0.9167375   0.9166474  )
        69           C   tau(  69) = (   0.1669124   0.6667675   0.8335056  )
        70           C   tau(  70) = (   0.2500784   0.7500764   0.9168250  )
        71           C   tau(  71) = (   0.1669889   0.8335141   0.6667762  )
        72           C   tau(  72) = (   0.2501446   0.9168094   0.7500964  )
        73           C   tau(  73) = (   0.3333845  -0.0000274  -0.0000064  )
        74           C   tau(  74) = (   0.4167074   0.0831748   0.0832594  )
        75           C   tau(  75) = (   0.3331947   0.1664469   0.1665292  )
        76           C   tau(  76) = (   0.4164279   0.2495724   0.2497617  )
        77           C   tau(  77) = (   0.5000975  -0.0003561   0.1668369  )
        78           C   tau(  78) = (   0.5833353   0.0827877   0.2500861  )
        79           C   tau(  79) = (   0.5000399   0.1666598  -0.0003219  )
        80           C   tau(  80) = (   0.5832505   0.2497834   0.0829850  )
        81           C   tau(  81) = (   0.3335038  -0.0003569   0.3334318  )
        82           C   tau(  82) = (   0.4167536   0.0827871   0.4166690  )
        83           C   tau(  83) = (   0.3331276   0.1662654   0.4999074  )
        84           C   tau(  84) = (   0.4161989   0.2494980   0.5829690  )
        85           C   tau(  85) = (   0.5003692  -0.0005709   0.5001912  )
        86           C   tau(  86) = (   0.5835773   0.0831558   0.5833296  )
        87           C   tau(  87) = (   0.4997998   0.1660271   0.3331330  )
        88           C   tau(  88) = (   0.5828630   0.2493038   0.4161960  )
        89           C   tau(  89) = (   0.3334270   0.0001368   0.6666649  )
        90           C   tau(  90) = (   0.4168949   0.0835039   0.7499151  )
        91           C   tau(  91) = (   0.3334266   0.1667738   0.8331521  )
        92           C   tau(  92) = (   0.4168220   0.2501311   0.9162453  )
        93           C   tau(  93) = (   0.5001570   0.0000983   0.8332736  )
        94           C   tau(  94) = (   0.5834292   0.0836445   0.9163609  )
        95           C   tau(  95) = (   0.5002114   0.1668943   0.6663403  )
        96           C   tau(  96) = (   0.5837184   0.2513382   0.7488764  )
        97           C   tau(  97) = (   0.3333155   0.3332819  -0.0003349  )
        98           C   tau(  98) = (   0.4164983   0.4164217   0.0830056  )
        99           C   tau(  99) = (   0.3329305   0.4997642   0.1662640  )
       100           C   tau( 100) = (   0.4159758   0.5828840   0.2493092  )
       101           C   tau( 101) = (   0.4996649   0.3328740   0.1661092  )
       102           C   tau( 102) = (   0.5827175   0.4160803   0.2491089  )
       103           C   tau( 103) = (   0.4999362   0.4999081  -0.0000430  )
       104           C   tau( 104) = (   0.5833615   0.5832057   0.0833517  )
       105           C   tau( 105) = (   0.3327757   0.3328731   0.3329989  )
       106           C   tau( 106) = (   0.4157762   0.4160800   0.4160509  )
       107           C   tau( 107) = (   0.3331862   0.4997585   0.4998693  )
       108           C   tau( 108) = (   0.4169603   0.5830961   0.5833137  )
       109           C   tau( 109) = (   0.4987140   0.3322411   0.4994683  )
       110           C   tau( 110) = (   0.5834203   0.4174422   0.5793129  )
       111           C   tau( 111) = (   0.4983883   0.4994149   0.3317212  )
       112           C   tau( 112) = (   0.5828969   0.5792994   0.4162304  )
       113           C   tau( 113) = (   0.3334091   0.3333161   0.6663944  )
       114           C   tau( 114) = (   0.4174961   0.4168400   0.7490873  )
       115           C   tau( 115) = (   0.3336187   0.5000790   0.8330342  )
       116           C   tau( 116) = (   0.4160857   0.5833831   0.9173461  )
       117           C   tau( 117) = (   0.5003797   0.3337454   0.8327633  )
       118           C   tau( 118) = (   0.5836886   0.4170208   0.9162611  )
       119           C   tau( 119) = (   0.5012455   0.5008071   0.6654124  )
       120           C   tau( 120) = (   0.5835524   0.5843750   0.7505478  )
       121           C   tau( 121) = (   0.3331119   0.6665569   0.0004153  )
       122           C   tau( 122) = (   0.4167608   0.7499214   0.0835969  )
       123           C   tau( 123) = (   0.3335360   0.8331787   0.1668695  )
       124           C   tau( 124) = (   0.4169678   0.9161974   0.2503013  )
       125           C   tau( 125) = (   0.5000340   0.6663064   0.1668440  )
       126           C   tau( 126) = (   0.5836710   0.7489080   0.2509898  )
       127           C   tau( 127) = (   0.5000662   0.8333057   0.0003558  )
       128           C   tau( 128) = (   0.5834111   0.9164693   0.0836876  )
       129           C   tau( 129) = (   0.3335109   0.6663063   0.3333673  )
       130           C   tau( 130) = (   0.4176567   0.7489079   0.4170045  )
       131           C   tau( 131) = (   0.3339050   0.8328524   0.5002293  )
       132           C   tau( 132) = (   0.4167970   0.9165186   0.5835833  )
       133           C   tau( 133) = (   0.5013776   0.6647826   0.5007313  )
       134           C   tau( 134) = (   0.5852772   0.7474226   0.5846601  )
       135           C   tau( 135) = (   0.5005403   0.8325301   0.3338737  )
       136           C   tau( 136) = (   0.5840510   0.9154504   0.4173845  )
       137           C   tau( 137) = (   0.3335154   0.6666020   0.6667311  )
       138           C   tau( 138) = (   0.4166101   0.7498818   0.7503662  )
       139           C   tau( 139) = (   0.3333646   0.8334192   0.8334821  )
       140           C   tau( 140) = (   0.4168192   0.9166884   0.9167369  )
       141           C   tau( 141) = (   0.4987777   0.6663153   0.8347963  )
       142           C   tau( 142) = (   0.5832617   0.7500458   0.9171999  )
       143           C   tau( 143) = (   0.4997516   0.8332848   0.6668172  )
       144           C   tau( 144) = (   0.5835708   0.9165355   0.7502145  )
       145           C   tau( 145) = (   0.6668090   0.0003119   0.0002907  )
       146           C   tau( 146) = (   0.7499841   0.0833857   0.0833678  )
       147           C   tau( 147) = (   0.6665727   0.1662658   0.1664599  )
       148           C   tau( 148) = (   0.7496343   0.2494978   0.2495319  )
       149           C   tau( 149) = (   0.8333300   0.0001362   0.1667598  )
       150           C   tau( 150) = (   0.9165803   0.0835032   0.2502281  )
       151           C   tau( 151) = (   0.8332333   0.1667519  -0.0000584  )
       152           C   tau( 152) = (   0.9165625   0.2501165   0.0833405  )
       153           C   tau( 153) = (   0.6668576  -0.0005703   0.3337017  )
       154           C   tau( 154) = (   0.7499962   0.0831556   0.4169104  )
       155           C   tau( 155) = (   0.6666148   0.1667058   0.4999475  )
       156           C   tau( 156) = (   0.7498423   0.2510208   0.5831758  )
       157           C   tau( 157) = (   0.8333486  -0.0002650   0.5002132  )
       158           C   tau( 158) = (   0.9164222   0.0835689   0.5833998  )
       159           C   tau( 159) = (   0.8330064   0.1668939   0.3335444  )
       160           C   tau( 160) = (   0.9155432   0.2513381   0.4170526  )
       161           C   tau( 161) = (   0.6668800  -0.0002644   0.6666813  )
       162           C   tau( 162) = (   0.7500663   0.0835697   0.7497548  )
       163           C   tau( 163) = (   0.6668804   0.1673301   0.8327167  )
       164           C   tau( 164) = (   0.7501214   0.2503086   0.9164400  )
       165           C   tau( 165) = (   0.8333279   0.0000552   0.8332602  )
       166           C   tau( 166) = (   0.9166520   0.0834855   0.9165258  )
       167           C   tau( 167) = (   0.8331843   0.1672475   0.6665170  )
       168           C   tau( 168) = (   0.9164615   0.2507569   0.7497944  )
       169           C   tau( 169) = (   0.6666532   0.3333613  -0.0002388  )
       170           C   tau( 170) = (   0.7499474   0.4166677   0.0832228  )
       171           C   tau( 171) = (   0.6665356   0.4997593   0.1665186  )
       172           C   tau( 172) = (   0.7499808   0.5830965   0.2502926  )
       173           C   tau( 173) = (   0.8330601   0.3333163   0.1667420  )
       174           C   tau( 174) = (   0.9157535   0.4168391   0.2508295  )
       175           C   tau( 175) = (   0.8332979   0.5001205   0.0000299  )
       176           C   tau( 176) = (   0.9166169   0.5833512   0.0834733  )
       177           C   tau( 177) = (   0.6661350   0.3322413   0.3320474  )
       178           C   tau( 178) = (   0.7459796   0.4174423   0.4167538  )
       179           C   tau( 179) = (   0.8315617   0.3357697   0.5008688  )
       180           C   tau( 180) = (   0.9145310   0.4202692   0.5843183  )
       181           C   tau( 181) = (   0.8320792   0.5008068   0.3345788  )
       182           C   tau( 182) = (   0.9172161   0.5843732   0.4168863  )
       183           C   tau( 183) = (   0.6675354   0.3357697   0.6648946  )
       184           C   tau( 184) = (   0.7509855   0.4202704   0.7478619  )
       185           C   tau( 185) = (   0.6668183   0.5005894   0.8330517  )
       186           C   tau( 186) = (   0.7501289   0.5835248   0.9165883  )
       187           C   tau( 187) = (   0.8330787   0.3338946   0.8332431  )
       188           C   tau( 188) = (   0.9167152   0.4170558   0.9165833  )
       189           C   tau( 189) = (   0.8372888   0.5009599   0.6706200  )
       190           C   tau( 190) = (   0.9164820   0.5831355   0.7498132  )
       191           C   tau( 191) = (   0.6667593   0.6666540   0.0002127  )
       192           C   tau( 192) = (   0.7500996   0.7498953   0.0836214  )
       193           C   tau( 193) = (   0.6668951   0.8328529   0.1672381  )
       194           C   tau( 194) = (   0.7502484   0.9165179   0.2501303  )
       195           C   tau( 195) = (   0.8333969   0.6666023   0.1668477  )
       196           C   tau( 196) = (   0.9170322   0.7498815   0.2499437  )
       197           C   tau( 197) = (   0.8334421   0.8335144   0.0003210  )
       198           C   tau( 198) = (   0.9167618   0.9168089   0.0834774  )
       199           C   tau( 199) = (   0.6673985   0.6647818   0.3347107  )
       200           C   tau( 200) = (   0.7513267   0.7474215   0.4186128  )
       201           C   tau( 201) = (   0.6677192   0.8314358   0.5010520  )
       202           C   tau( 202) = (   0.7502961   0.9156671   0.5836289  )
       203           C   tau( 203) = (   0.8430374   0.6719221   0.4936986  )
       204           C   tau( 204) = (   0.9171221   0.7489943   0.5826938  )
       205           C   tau( 205) = (   0.8334837   0.8332833   0.3330862  )
       206           C   tau( 206) = (   0.9168818   0.9165351   0.4169044  )
       207           C   tau( 207) = (   0.6603644   0.6719230   0.6763671  )
       208           C   tau( 208) = (   0.7493600   0.7489950   0.7504535  )
       209           C   tau( 209) = (   0.6670424   0.8341570   0.8346677  )
       210           C   tau( 210) = (   0.7499816   0.9172043   0.9173244  )
       211           C   tau( 211) = (   0.8335633   0.6667378   0.8336122  )
       212           C   tau( 212) = (   0.9166324   0.7499640   0.9168240  )
       213           C   tau( 213) = (   0.8331080   0.8320497   0.6664401  )
       214           C   tau( 214) = (   0.9164297   0.9161161   0.7497632  )
       215           N   tau( 215) = (   0.6582123   0.4931502   0.4915451  )

   Crystallographic axes

     site n.     atom                  positions (cryst. coord.)
         1           C   tau(   1) = ( -0.0000212  0.0001172 -0.0000277  )
         2           C   tau(   2) = (  0.0832647  0.0834038  0.0833572  )
         3           C   tau(   3) = ( -0.0001832  0.1667729  0.1667598  )
         4           C   tau(   4) = (  0.0829110  0.2501299  0.2501563  )
         5           C   tau(   5) = (  0.1666592 -0.0000277  0.1667194  )
         6           C   tau(   6) = (  0.2499256  0.0831745  0.2500420  )
         7           C   tau(   7) = (  0.1665733  0.1667265 -0.0000916  )
         8           C   tau(   8) = (  0.2498567  0.2499386  0.0831913  )
         9           C   tau(   9) = ( -0.0000606  0.0000972  0.3334901  )
        10           C   tau(  10) = (  0.0830276  0.0836436  0.4167628  )
        11           C   tau(  11) = ( -0.0006165  0.1673291  0.5002143  )
        12           C   tau(  12) = (  0.0831081  0.2503068  0.5834556  )
        13           C   tau(  13) = (  0.1669579  0.0003113  0.5001428  )
        14           C   tau(  14) = (  0.2500359  0.0833851  0.5833186  )
        15           C   tau(  15) = (  0.1663443  0.1666588  0.3333744  )
        16           C   tau(  16) = (  0.2496526  0.2497820  0.4165849  )
        17           C   tau(  17) = ( -0.0000727  0.0000546  0.6666622  )
        18           C   tau(  18) = (  0.0831929  0.0834851  0.7499865  )
        19           C   tau(  19) = ( -0.0001563  0.1669846  0.8331774  )
        20           C   tau(  20) = (  0.0832097  0.2501747  0.9165437  )
        21           C   tau(  21) = (  0.1666380  0.0001173  0.8333136  )
        22           C   tau(  22) = (  0.2500227  0.0834044  0.9165992  )
        23           C   tau(  23) = (  0.1666095  0.1667506  0.6665682  )
        24           C   tau(  24) = (  0.2500076  0.2501160  0.7498973  )
        25           C   tau(  25) = ( -0.0001519  0.3334691 -0.0000134  )
        26           C   tau(  26) = (  0.0830783  0.4166263  0.0834328  )
        27           C   tau(  27) = ( -0.0003003  0.5000788  0.1669521  )
        28           C   tau(  28) = (  0.0840126  0.5833826  0.2494191  )
        29           C   tau(  29) = (  0.1663305  0.3332814  0.1666499  )
        30           C   tau(  30) = (  0.2496723  0.4164211  0.2498322  )
        31           C   tau(  31) = (  0.1668762  0.5001063  0.0002103  )
        32           C   tau(  32) = (  0.2499964  0.5832650  0.0833304  )
        33           C   tau(  33) = ( -0.0005704  0.3337444  0.3337138  )
        34           C   tau(  34) = (  0.0829294  0.4170192  0.4170219  )
        35           C   tau(  35) = ( -0.0002787  0.5005881  0.5001513  )
        36           C   tau(  36) = (  0.0832576  0.5835243  0.5834618  )
        37           C   tau(  37) = (  0.1664290  0.3333598  0.4999872  )
        38           C   tau(  38) = (  0.2498904  0.4166664  0.5832812  )
        39           C   tau(  39) = (  0.1666245  0.4999076  0.3332694  )
        40           C   tau(  40) = (  0.2500196  0.5832051  0.4166952  )
        41           C   tau(  41) = ( -0.0000884  0.3338932  0.6664120  )
        42           C   tau(  42) = (  0.0832515  0.4170552  0.7500484  )
        43           C   tau(  43) = (  0.0009160  0.5006938  0.8342482  )
        44           C   tau(  44) = (  0.0838931  0.5833702  0.9172264  )
        45           C   tau(  45) = (  0.1666538  0.3334688  0.8331830  )
        46           C   tau(  46) = (  0.2500991  0.4166265  0.9164130  )
        47           C   tau(  47) = (  0.1666984  0.5001203  0.6666319  )
        48           C   tau(  48) = (  0.2501410  0.5833510  0.7499511  )
        49           C   tau(  49) = (  0.0001715  0.6667673  0.0002452  )
        50           C   tau(  50) = (  0.0834906  0.7500759  0.0834118  )
        51           C   tau(  51) = (  0.0001477  0.8334192  0.1666988  )
        52           C   tau(  52) = (  0.0834029  0.9166876  0.2501533  )
        53           C   tau(  53) = (  0.1670811  0.6665570  0.1664455  )
        54           C   tau(  54) = (  0.2502635  0.7499211  0.2500942  )
        55           C   tau(  55) = (  0.1667047  0.8333879  0.0000400  )
        56           C   tau(  56) = (  0.2500850  0.9166323  0.0834200  )
        57           C   tau(  57) = (  0.0014628  0.6663151  0.3321117  )
        58           C   tau(  58) = (  0.0838678  0.7500454  0.4165948  )
        59           C   tau(  59) = (  0.0013355  0.8341564  0.5003752  )
        60           C   tau(  60) = (  0.0839924  0.9172035  0.5833154  )
        61           C   tau(  61) = (  0.1668813  0.6666536  0.5000928  )
        62           C   tau(  62) = (  0.2502898  0.7498947  0.5834332  )
        63           C   tau(  63) = (  0.1670229  0.8333051  0.3333996  )
        64           C   tau(  64) = (  0.2503547  0.9164683  0.4167448  )
        65           C   tau(  65) = (  0.0002817  0.6667376  0.6668961  )
        66           C   tau(  66) = (  0.0834921  0.7499644  0.7499656  )
        67           C   tau(  67) = (  0.0000225  0.8332765  0.8333557  )
        68           C   tau(  68) = (  0.0833138  0.9167375  0.9166474  )
        69           C   tau(  69) = (  0.1669124  0.6667675  0.8335056  )
        70           C   tau(  70) = (  0.2500784  0.7500764  0.9168250  )
        71           C   tau(  71) = (  0.1669889  0.8335141  0.6667762  )
        72           C   tau(  72) = (  0.2501446  0.9168094  0.7500964  )
        73           C   tau(  73) = (  0.3333845 -0.0000274 -0.0000064  )
        74           C   tau(  74) = (  0.4167074  0.0831748  0.0832594  )
        75           C   tau(  75) = (  0.3331947  0.1664469  0.1665292  )
        76           C   tau(  76) = (  0.4164279  0.2495724  0.2497617  )
        77           C   tau(  77) = (  0.5000975 -0.0003561  0.1668369  )
        78           C   tau(  78) = (  0.5833353  0.0827877  0.2500861  )
        79           C   tau(  79) = (  0.5000399  0.1666598 -0.0003219  )
        80           C   tau(  80) = (  0.5832505  0.2497834  0.0829850  )
        81           C   tau(  81) = (  0.3335038 -0.0003569  0.3334318  )
        82           C   tau(  82) = (  0.4167536  0.0827871  0.4166690  )
        83           C   tau(  83) = (  0.3331276  0.1662654  0.4999074  )
        84           C   tau(  84) = (  0.4161989  0.2494980  0.5829690  )
        85           C   tau(  85) = (  0.5003692 -0.0005709  0.5001912  )
        86           C   tau(  86) = (  0.5835773  0.0831558  0.5833296  )
        87           C   tau(  87) = (  0.4997998  0.1660271  0.3331330  )
        88           C   tau(  88) = (  0.5828630  0.2493038  0.4161960  )
        89           C   tau(  89) = (  0.3334270  0.0001368  0.6666649  )
        90           C   tau(  90) = (  0.4168949  0.0835039  0.7499151  )
        91           C   tau(  91) = (  0.3334266  0.1667738  0.8331521  )
        92           C   tau(  92) = (  0.4168220  0.2501311  0.9162453  )
        93           C   tau(  93) = (  0.5001570  0.0000983  0.8332736  )
        94           C   tau(  94) = (  0.5834292  0.0836445  0.9163609  )
        95           C   tau(  95) = (  0.5002114  0.1668943  0.6663403  )
        96           C   tau(  96) = (  0.5837184  0.2513382  0.7488764  )
        97           C   tau(  97) = (  0.3333155  0.3332819 -0.0003349  )
        98           C   tau(  98) = (  0.4164983  0.4164217  0.0830056  )
        99           C   tau(  99) = (  0.3329305  0.4997642  0.1662640  )
       100           C   tau( 100) = (  0.4159758  0.5828840  0.2493092  )
       101           C   tau( 101) = (  0.4996649  0.3328740  0.1661092  )
       102           C   tau( 102) = (  0.5827175  0.4160803  0.2491089  )
       103           C   tau( 103) = (  0.4999362  0.4999081 -0.0000430  )
       104           C   tau( 104) = (  0.5833615  0.5832057  0.0833517  )
       105           C   tau( 105) = (  0.3327757  0.3328731  0.3329989  )
       106           C   tau( 106) = (  0.4157762  0.4160800  0.4160509  )
       107           C   tau( 107) = (  0.3331862  0.4997585  0.4998693  )
       108           C   tau( 108) = (  0.4169603  0.5830961  0.5833137  )
       109           C   tau( 109) = (  0.4987140  0.3322411  0.4994683  )
       110           C   tau( 110) = (  0.5834203  0.4174422  0.5793129  )
       111           C   tau( 111) = (  0.4983883  0.4994149  0.3317212  )
       112           C   tau( 112) = (  0.5828969  0.5792994  0.4162304  )
       113           C   tau( 113) = (  0.3334091  0.3333161  0.6663944  )
       114           C   tau( 114) = (  0.4174961  0.4168400  0.7490873  )
       115           C   tau( 115) = (  0.3336187  0.5000790  0.8330342  )
       116           C   tau( 116) = (  0.4160857  0.5833831  0.9173461  )
       117           C   tau( 117) = (  0.5003797  0.3337454  0.8327633  )
       118           C   tau( 118) = (  0.5836886  0.4170208  0.9162611  )
       119           C   tau( 119) = (  0.5012455  0.5008071  0.6654124  )
       120           C   tau( 120) = (  0.5835524  0.5843750  0.7505478  )
       121           C   tau( 121) = (  0.3331119  0.6665569  0.0004153  )
       122           C   tau( 122) = (  0.4167608  0.7499214  0.0835969  )
       123           C   tau( 123) = (  0.3335360  0.8331787  0.1668695  )
       124           C   tau( 124) = (  0.4169678  0.9161974  0.2503013  )
       125           C   tau( 125) = (  0.5000340  0.6663064  0.1668440  )
       126           C   tau( 126) = (  0.5836710  0.7489080  0.2509898  )
       127           C   tau( 127) = (  0.5000662  0.8333057  0.0003558  )
       128           C   tau( 128) = (  0.5834111  0.9164693  0.0836876  )
       129           C   tau( 129) = (  0.3335109  0.6663063  0.3333673  )
       130           C   tau( 130) = (  0.4176567  0.7489079  0.4170045  )
       131           C   tau( 131) = (  0.3339050  0.8328524  0.5002293  )
       132           C   tau( 132) = (  0.4167970  0.9165186  0.5835833  )
       133           C   tau( 133) = (  0.5013776  0.6647826  0.5007313  )
       134           C   tau( 134) = (  0.5852772  0.7474226  0.5846601  )
       135           C   tau( 135) = (  0.5005403  0.8325301  0.3338737  )
       136           C   tau( 136) = (  0.5840510  0.9154504  0.4173845  )
       137           C   tau( 137) = (  0.3335154  0.6666020  0.6667311  )
       138           C   tau( 138) = (  0.4166101  0.7498818  0.7503662  )
       139           C   tau( 139) = (  0.3333646  0.8334192  0.8334821  )
       140           C   tau( 140) = (  0.4168192  0.9166884  0.9167369  )
       141           C   tau( 141) = (  0.4987777  0.6663153  0.8347963  )
       142           C   tau( 142) = (  0.5832617  0.7500458  0.9171999  )
       143           C   tau( 143) = (  0.4997516  0.8332848  0.6668172  )
       144           C   tau( 144) = (  0.5835708  0.9165355  0.7502145  )
       145           C   tau( 145) = (  0.6668090  0.0003119  0.0002907  )
       146           C   tau( 146) = (  0.7499841  0.0833857  0.0833678  )
       147           C   tau( 147) = (  0.6665727  0.1662658  0.1664599  )
       148           C   tau( 148) = (  0.7496343  0.2494978  0.2495319  )
       149           C   tau( 149) = (  0.8333300  0.0001362  0.1667598  )
       150           C   tau( 150) = (  0.9165803  0.0835032  0.2502281  )
       151           C   tau( 151) = (  0.8332333  0.1667519 -0.0000584  )
       152           C   tau( 152) = (  0.9165625  0.2501165  0.0833405  )
       153           C   tau( 153) = (  0.6668576 -0.0005703  0.3337017  )
       154           C   tau( 154) = (  0.7499962  0.0831556  0.4169104  )
       155           C   tau( 155) = (  0.6666148  0.1667058  0.4999475  )
       156           C   tau( 156) = (  0.7498423  0.2510208  0.5831758  )
       157           C   tau( 157) = (  0.8333486 -0.0002650  0.5002132  )
       158           C   tau( 158) = (  0.9164222  0.0835689  0.5833998  )
       159           C   tau( 159) = (  0.8330064  0.1668939  0.3335444  )
       160           C   tau( 160) = (  0.9155432  0.2513381  0.4170526  )
       161           C   tau( 161) = (  0.6668800 -0.0002644  0.6666813  )
       162           C   tau( 162) = (  0.7500663  0.0835697  0.7497548  )
       163           C   tau( 163) = (  0.6668804  0.1673301  0.8327167  )
       164           C   tau( 164) = (  0.7501214  0.2503086  0.9164400  )
       165           C   tau( 165) = (  0.8333279  0.0000552  0.8332602  )
       166           C   tau( 166) = (  0.9166520  0.0834855  0.9165258  )
       167           C   tau( 167) = (  0.8331843  0.1672475  0.6665170  )
       168           C   tau( 168) = (  0.9164615  0.2507569  0.7497944  )
       169           C   tau( 169) = (  0.6666532  0.3333613 -0.0002388  )
       170           C   tau( 170) = (  0.7499474  0.4166677  0.0832228  )
       171           C   tau( 171) = (  0.6665356  0.4997593  0.1665186  )
       172           C   tau( 172) = (  0.7499808  0.5830965  0.2502926  )
       173           C   tau( 173) = (  0.8330601  0.3333163  0.1667420  )
       174           C   tau( 174) = (  0.9157535  0.4168391  0.2508295  )
       175           C   tau( 175) = (  0.8332979  0.5001205  0.0000299  )
       176           C   tau( 176) = (  0.9166169  0.5833512  0.0834733  )
       177           C   tau( 177) = (  0.6661350  0.3322413  0.3320474  )
       178           C   tau( 178) = (  0.7459796  0.4174423  0.4167538  )
       179           C   tau( 179) = (  0.8315617  0.3357697  0.5008688  )
       180           C   tau( 180) = (  0.9145310  0.4202692  0.5843183  )
       181           C   tau( 181) = (  0.8320792  0.5008068  0.3345788  )
       182           C   tau( 182) = (  0.9172161  0.5843732  0.4168863  )
       183           C   tau( 183) = (  0.6675354  0.3357697  0.6648946  )
       184           C   tau( 184) = (  0.7509855  0.4202704  0.7478619  )
       185           C   tau( 185) = (  0.6668183  0.5005894  0.8330517  )
       186           C   tau( 186) = (  0.7501289  0.5835248  0.9165883  )
       187           C   tau( 187) = (  0.8330787  0.3338946  0.8332431  )
       188           C   tau( 188) = (  0.9167152  0.4170558  0.9165833  )
       189           C   tau( 189) = (  0.8372888  0.5009599  0.6706200  )
       190           C   tau( 190) = (  0.9164820  0.5831355  0.7498132  )
       191           C   tau( 191) = (  0.6667593  0.6666540  0.0002127  )
       192           C   tau( 192) = (  0.7500996  0.7498953  0.0836214  )
       193           C   tau( 193) = (  0.6668951  0.8328529  0.1672381  )
       194           C   tau( 194) = (  0.7502484  0.9165179  0.2501303  )
       195           C   tau( 195) = (  0.8333969  0.6666023  0.1668477  )
       196           C   tau( 196) = (  0.9170322  0.7498815  0.2499437  )
       197           C   tau( 197) = (  0.8334421  0.8335144  0.0003210  )
       198           C   tau( 198) = (  0.9167618  0.9168089  0.0834774  )
       199           C   tau( 199) = (  0.6673985  0.6647818  0.3347107  )
       200           C   tau( 200) = (  0.7513267  0.7474215  0.4186128  )
       201           C   tau( 201) = (  0.6677192  0.8314358  0.5010520  )
       202           C   tau( 202) = (  0.7502961  0.9156671  0.5836289  )
       203           C   tau( 203) = (  0.8430374  0.6719221  0.4936986  )
       204           C   tau( 204) = (  0.9171221  0.7489943  0.5826938  )
       205           C   tau( 205) = (  0.8334837  0.8332833  0.3330862  )
       206           C   tau( 206) = (  0.9168818  0.9165351  0.4169044  )
       207           C   tau( 207) = (  0.6603644  0.6719230  0.6763671  )
       208           C   tau( 208) = (  0.7493600  0.7489950  0.7504535  )
       209           C   tau( 209) = (  0.6670424  0.8341570  0.8346677  )
       210           C   tau( 210) = (  0.7499816  0.9172043  0.9173244  )
       211           C   tau( 211) = (  0.8335633  0.6667378  0.8336122  )
       212           C   tau( 212) = (  0.9166324  0.7499640  0.9168240  )
       213           C   tau( 213) = (  0.8331080  0.8320497  0.6664401  )
       214           C   tau( 214) = (  0.9164297  0.9161161  0.7497632  )
       215           N   tau( 215) = (  0.6582123  0.4931502  0.4915451  )

     number of k points=     1
                       cart. coord. in units 2pi/alat
        k(    1) = (   0.0000000   0.0000000   0.0000000), wk =   1.0000000

                       cryst. coord.
        k(    1) = (   0.0000000   0.0000000   0.0000000), wk =   1.0000000

     Dense  grid:   437864 G-vectors     FFT dimensions: ( 120, 120, 120)

     Estimated max dynamical RAM per process >     112.27MB

     Estimated total allocated dynamical RAM >   12574.52MB
     Generating pointlists ...
     new r_m :   0.0565 (alat units)  1.1430 (a.u.) for type    1
     new r_m :   0.0565 (alat units)  1.1430 (a.u.) for type    2

     Initial potential from superposition of free atoms

     starting charge  859.50659, renormalised to  862.00000
     Starting wfc are random

     total cpu time spent up to now is        2.9 secs

     per-process dynamical memory:    76.5 Mb

     Self-consistent Calculation

     iteration #  1     ecut=    85.00 Ry     beta=0.70
     Davidson diagonalization with overlap
     ethr =  1.00E-02,  avg # of iterations =  8.0

     total cpu time spent up to now is       37.9 secs

     total energy              =   -2455.47199268 Ry
     Harris-Foulkes estimate   =   -2461.07957093 Ry
     estimated scf accuracy    <      12.61679037 Ry

     total magnetization       =     2.00 Bohr mag/cell
     absolute magnetization    =     2.00 Bohr mag/cell

     iteration #  2     ecut=    85.00 Ry     beta=0.70
     Davidson diagonalization with overlap
     ethr =  1.46E-03,  avg # of iterations =  7.0

     total cpu time spent up to now is       53.7 secs

     total energy              =   -2455.94581245 Ry
     Harris-Foulkes estimate   =   -2456.63255841 Ry
     estimated scf accuracy    <       1.01153975 Ry

     total magnetization       =     2.00 Bohr mag/cell
     absolute magnetization    =     2.08 Bohr mag/cell

     iteration #  3     ecut=    85.00 Ry     beta=0.70
     Davidson diagonalization with overlap
     ethr =  1.17E-04,  avg # of iterations =  6.0

     total cpu time spent up to now is       79.8 secs

     total energy              =   -2455.30730372 Ry
     Harris-Foulkes estimate   =   -2457.44880015 Ry
     estimated scf accuracy    <       6.82976743 Ry

     total magnetization       =     2.00 Bohr mag/cell
     absolute magnetization    =     2.20 Bohr mag/cell

     iteration #  4     ecut=    85.00 Ry     beta=0.70
     Davidson diagonalization with overlap
     ethr =  1.17E-04,  avg # of iterations =  6.0

     total cpu time spent up to now is       99.0 secs

     total energy              =   -2456.48357293 Ry
     Harris-Foulkes estimate   =   -2456.51633291 Ry
     estimated scf accuracy    <       0.10081273 Ry

     total magnetization       =     2.00 Bohr mag/cell
     absolute magnetization    =     2.15 Bohr mag/cell

     iteration #  5     ecut=    85.00 Ry     beta=0.70
     Davidson diagonalization with overlap
     ethr =  1.17E-05,  avg # of iterations =  7.0

     total cpu time spent up to now is      117.8 secs

     total energy              =   -2456.49844602 Ry
     Harris-Foulkes estimate   =   -2456.50502385 Ry
     estimated scf accuracy    <       0.02416233 Ry

     total magnetization       =     2.00 Bohr mag/cell
     absolute magnetization    =     2.18 Bohr mag/cell

     iteration #  6     ecut=    85.00 Ry     beta=0.70
     Davidson diagonalization with overlap
     ethr =  2.80E-06,  avg # of iterations =  7.0

     total cpu time spent up to now is      137.7 secs

     total energy              =   -2456.50266480 Ry
     Harris-Foulkes estimate   =   -2456.50457413 Ry
     estimated scf accuracy    <       0.00644092 Ry

     total magnetization       =     2.00 Bohr mag/cell
     absolute magnetization    =     2.22 Bohr mag/cell

     iteration #  7     ecut=    85.00 Ry     beta=0.70
     Davidson diagonalization with overlap
     ethr =  7.47E-07,  avg # of iterations =  7.0

     total cpu time spent up to now is      157.4 secs

     total energy              =   -2456.50399297 Ry
     Harris-Foulkes estimate   =   -2456.50442931 Ry
     estimated scf accuracy    <       0.00137793 Ry

     total magnetization       =     2.00 Bohr mag/cell
     absolute magnetization    =     2.24 Bohr mag/cell

     iteration #  8     ecut=    85.00 Ry     beta=0.70
     Davidson diagonalization with overlap
     ethr =  1.60E-07,  avg # of iterations =  7.0

     total cpu time spent up to now is      177.1 secs

     total energy              =   -2456.50437525 Ry
     Harris-Foulkes estimate   =   -2456.50445117 Ry
     estimated scf accuracy    <       0.00044667 Ry

     total magnetization       =     2.00 Bohr mag/cell
     absolute magnetization    =     2.25 Bohr mag/cell

     iteration #  9     ecut=    85.00 Ry     beta=0.70
     Davidson diagonalization with overlap
     ethr =  5.18E-08,  avg # of iterations =  7.0

     total cpu time spent up to now is      196.3 secs

     total energy              =   -2456.50448539 Ry
     Harris-Foulkes estimate   =   -2456.50448372 Ry
     estimated scf accuracy    <       0.00006419 Ry

     total magnetization       =     2.00 Bohr mag/cell
     absolute magnetization    =     2.26 Bohr mag/cell

     iteration # 10     ecut=    85.00 Ry     beta=0.70
     Davidson diagonalization with overlap
     ethr =  7.45E-09,  avg # of iterations =  7.0

     total cpu time spent up to now is      216.3 secs

     total energy              =   -2456.50450922 Ry
     Harris-Foulkes estimate   =   -2456.50450449 Ry
     estimated scf accuracy    <       0.00001263 Ry

     total magnetization       =     2.00 Bohr mag/cell
     absolute magnetization    =     2.27 Bohr mag/cell

     iteration # 11     ecut=    85.00 Ry     beta=0.70
     Davidson diagonalization with overlap
     ethr =  1.46E-09,  avg # of iterations =  7.0

     total cpu time spent up to now is      237.6 secs

     total energy              =   -2456.50451379 Ry
     Harris-Foulkes estimate   =   -2456.50451525 Ry
     estimated scf accuracy    <       0.00000566 Ry

     total magnetization       =     2.00 Bohr mag/cell
     absolute magnetization    =     2.28 Bohr mag/cell

     iteration # 12     ecut=    85.00 Ry     beta=0.70
     Davidson diagonalization with overlap
     ethr =  6.56E-10,  avg # of iterations =  7.0

     total cpu time spent up to now is      257.2 secs

     total energy              =   -2456.50451526 Ry
     Harris-Foulkes estimate   =   -2456.50451545 Ry
     estimated scf accuracy    <       0.00000091 Ry

     total magnetization       =     2.00 Bohr mag/cell
     absolute magnetization    =     2.28 Bohr mag/cell

     iteration # 13     ecut=    85.00 Ry     beta=0.70
     Davidson diagonalization with overlap
     ethr =  1.06E-10,  avg # of iterations =  7.0

     total cpu time spent up to now is      278.0 secs

     total energy              =   -2456.50451554 Ry
     Harris-Foulkes estimate   =   -2456.50451553 Ry
     estimated scf accuracy    <       0.00000015 Ry

     total magnetization       =     2.00 Bohr mag/cell
     absolute magnetization    =     2.28 Bohr mag/cell

     iteration # 14     ecut=    85.00 Ry     beta=0.70
     Davidson diagonalization with overlap
     ethr =  1.70E-11,  avg # of iterations =  7.0

     total cpu time spent up to now is      299.6 secs

     total energy              =   -2456.50451559 Ry
     Harris-Foulkes estimate   =   -2456.50451559 Ry
     estimated scf accuracy    <       0.00000004 Ry

     total magnetization       =     2.00 Bohr mag/cell
     absolute magnetization    =     2.28 Bohr mag/cell

     iteration # 15     ecut=    85.00 Ry     beta=0.70
     Davidson diagonalization with overlap
     ethr =  4.19E-12,  avg # of iterations =  6.0

     total cpu time spent up to now is      319.4 secs

     total energy              =   -2456.50451560 Ry
     Harris-Foulkes estimate   =   -2456.50451561 Ry
     estimated scf accuracy    <       0.00000002 Ry

     total magnetization       =     2.00 Bohr mag/cell
     absolute magnetization    =     2.28 Bohr mag/cell

     iteration # 16     ecut=    85.00 Ry     beta=0.70
     Davidson diagonalization with overlap
     ethr =  2.27E-12,  avg # of iterations =  6.0

     total cpu time spent up to now is      337.8 secs

     total energy              =   -2456.50451561 Ry
     Harris-Foulkes estimate   =   -2456.50451561 Ry
     estimated scf accuracy    <          5.8E-09 Ry

     total magnetization       =     2.00 Bohr mag/cell
     absolute magnetization    =     2.28 Bohr mag/cell

     iteration # 17     ecut=    85.00 Ry     beta=0.70
     Davidson diagonalization with overlap
     ethr =  6.77E-13,  avg # of iterations =  6.5

     total cpu time spent up to now is      358.9 secs

     total energy              =   -2456.50451561 Ry
     Harris-Foulkes estimate   =   -2456.50451561 Ry
     estimated scf accuracy    <          1.6E-09 Ry

     total magnetization       =     2.00 Bohr mag/cell
     absolute magnetization    =     2.28 Bohr mag/cell

     iteration # 18     ecut=    85.00 Ry     beta=0.70
     Davidson diagonalization with overlap
     ethr =  1.88E-13,  avg # of iterations =  7.0

     total cpu time spent up to now is      379.0 secs

     total energy              =   -2456.50451561 Ry
     Harris-Foulkes estimate   =   -2456.50451561 Ry
     estimated scf accuracy    <          5.6E-10 Ry

     total magnetization       =     2.00 Bohr mag/cell
     absolute magnetization    =     2.28 Bohr mag/cell

     iteration # 19     ecut=    85.00 Ry     beta=0.70
     Davidson diagonalization with overlap
     ethr =  1.00E-13,  avg # of iterations =  7.0

     total cpu time spent up to now is      398.8 secs

     total energy              =   -2456.50451561 Ry
     Harris-Foulkes estimate   =   -2456.50451561 Ry
     estimated scf accuracy    <          3.5E-10 Ry

     total magnetization       =     2.00 Bohr mag/cell
     absolute magnetization    =     2.28 Bohr mag/cell

     iteration # 20     ecut=    85.00 Ry     beta=0.70
     Davidson diagonalization with overlap
     ethr =  1.00E-13,  avg # of iterations =  7.0
 
     Magnetic moment per site:
     atom:    1    charge:    1.7882    magn:    0.0001    constr:    0.0000
     atom:    2    charge:    1.7876    magn:   -0.0000    constr:    0.0000
     atom:    3    charge:    1.7884    magn:    0.0002    constr:    0.0000
     atom:    4    charge:    1.7871    magn:    0.0001    constr:    0.0000
     atom:    5    charge:    1.7886    magn:    0.0005    constr:    0.0000
     atom:    6    charge:    1.7870    magn:    0.0000    constr:    0.0000
     atom:    7    charge:    1.7883    magn:    0.0004    constr:    0.0000
     atom:    8    charge:    1.7873    magn:    0.0000    constr:    0.0000
     atom:    9    charge:    1.7881    magn:    0.0011    constr:    0.0000
     atom:   10    charge:    1.7863    magn:   -0.0001    constr:    0.0000
     atom:   11    charge:    1.7849    magn:    0.0002    constr:    0.0000
     atom:   12    charge:    1.7889    magn:    0.0026    constr:    0.0000
     atom:   13    charge:    1.7889    magn:    0.0013    constr:    0.0000
     atom:   14    charge:    1.7914    magn:    0.0013    constr:    0.0000
     atom:   15    charge:    1.7888    magn:    0.0001    constr:    0.0000
     atom:   16    charge:    1.7888    magn:   -0.0000    constr:    0.0000
     atom:   17    charge:    1.7860    magn:    0.0001    constr:    0.0000
     atom:   18    charge:    1.7878    magn:   -0.0001    constr:    0.0000
     atom:   19    charge:    1.7875    magn:    0.0011    constr:    0.0000
     atom:   20    charge:    1.7879    magn:   -0.0001    constr:    0.0000
     atom:   21    charge:    1.7882    magn:    0.0001    constr:    0.0000
     atom:   22    charge:    1.7876    magn:   -0.0000    constr:    0.0000
     atom:   23    charge:    1.7876    magn:    0.0014    constr:    0.0000
     atom:   24    charge:    1.7880    magn:   -0.0001    constr:    0.0000
     atom:   25    charge:    1.7885    magn:    0.0011    constr:    0.0000
     atom:   26    charge:    1.7875    magn:   -0.0001    constr:    0.0000
     atom:   27    charge:    1.7856    magn:    0.0002    constr:    0.0000
     atom:   28    charge:    1.7944    magn:    0.0032    constr:    0.0000
     atom:   29    charge:    1.7888    magn:    0.0001    constr:    0.0000
     atom:   30    charge:    1.7896    magn:   -0.0000    constr:    0.0000
     atom:   31    charge:    1.7895    magn:    0.0011    constr:    0.0000
     atom:   32    charge:    1.7944    magn:    0.0013    constr:    0.0000
     atom:   33    charge:    1.7884    magn:    0.0003    constr:    0.0000
     atom:   34    charge:    1.7876    magn:   -0.0007    constr:    0.0000
     atom:   35    charge:    1.7896    magn:    0.0059    constr:    0.0000
     atom:   36    charge:    1.7890    magn:   -0.0010    constr:    0.0000
     atom:   37    charge:    1.7879    magn:    0.0001    constr:    0.0000
     atom:   38    charge:    1.7888    magn:   -0.0001    constr:    0.0000
     atom:   39    charge:    1.7878    magn:    0.0001    constr:    0.0000
     atom:   40    charge:    1.7889    magn:   -0.0001    constr:    0.0000
     atom:   41    charge:    1.7823    magn:    0.0157    constr:    0.0000
     atom:   42    charge:    1.7875    magn:   -0.0011    constr:    0.0000
     atom:   43    charge:    1.7900    magn:    0.0156    constr:    0.0000
     atom:   44    charge:    1.7929    magn:    0.0011    constr:    0.0000
     atom:   45    charge:    1.7885    magn:    0.0011    constr:    0.0000
     atom:   46    charge:    1.7875    magn:   -0.0001    constr:    0.0000
     atom:   47    charge:    1.7887    magn:    0.0015    constr:    0.0000
     atom:   48    charge:    1.7887    magn:   -0.0001    constr:    0.0000
     atom:   49    charge:    1.7879    magn:    0.0002    constr:    0.0000
     atom:   50    charge:    1.7891    magn:   -0.0001    constr:    0.0000
     atom:   51    charge:    1.7889    magn:    0.0011    constr:    0.0000
     atom:   52    charge:    1.7877    magn:   -0.0000    constr:    0.0000
     atom:   53    charge:    1.7912    magn:    0.0017    constr:    0.0000
     atom:   54    charge:    1.7886    magn:   -0.0001    constr:    0.0000
     atom:   55    charge:    1.7888    magn:    0.0001    constr:    0.0000
     atom:   56    charge:    1.7876    magn:   -0.0000    constr:    0.0000
     atom:   57    charge:    1.7912    magn:    0.0187    constr:    0.0000
     atom:   58    charge:    1.7876    magn:   -0.0011    constr:    0.0000
     atom:   59    charge:    1.7885    magn:    0.0172    constr:    0.0000
     atom:   60    charge:    1.7925    magn:    0.0020    constr:    0.0000
     atom:   61    charge:    1.7887    magn:    0.0016    constr:    0.0000
     atom:   62    charge:    1.7887    magn:   -0.0001    constr:    0.0000
     atom:   63    charge:    1.7894    magn:    0.0011    constr:    0.0000
     atom:   64    charge:    1.7870    magn:   -0.0001    constr:    0.0000
     atom:   65    charge:    1.7892    magn:    0.0069    constr:    0.0000
     atom:   66    charge:    1.7882    magn:   -0.0004    constr:    0.0000
     atom:   67    charge:    1.7875    magn:    0.0002    constr:    0.0000
     atom:   68    charge:    1.7882    magn:   -0.0001    constr:    0.0000
     atom:   69    charge:    1.7879    magn:    0.0002    constr:    0.0000
     atom:   70    charge:    1.7891    magn:   -0.0001    constr:    0.0000
     atom:   71    charge:    1.7877    magn:    0.0001    constr:    0.0000
     atom:   72    charge:    1.7889    magn:   -0.0001    constr:    0.0000
     atom:   73    charge:    1.7885    magn:    0.0005    constr:    0.0000
     atom:   74    charge:    1.7870    magn:    0.0000    constr:    0.0000
     atom:   75    charge:    1.7889    magn:    0.0001    constr:    0.0000
     atom:   76    charge:    1.7883    magn:    0.0000    constr:    0.0000
     atom:   77    charge:    1.7890    magn:    0.0001    constr:    0.0000
     atom:   78    charge:    1.7882    magn:   -0.0000    constr:    0.0000
     atom:   79    charge:    1.7888    magn:    0.0001    constr:    0.0000
     atom:   80    charge:    1.7888    magn:   -0.0000    constr:    0.0000
     atom:   81    charge:    1.7890    magn:    0.0001    constr:    0.0000
     atom:   82    charge:    1.7882    magn:   -0.0000    constr:    0.0000
     atom:   83    charge:    1.7901    magn:    0.0002    constr:    0.0000
     atom:   84    charge:    1.7926    magn:    0.0002    constr:    0.0000
     atom:   85    charge:    1.7865    magn:    0.0001    constr:    0.0000
     atom:   86    charge:    1.7877    magn:   -0.0001    constr:    0.0000
     atom:   87    charge:    1.7903    magn:    0.0000    constr:    0.0000
     atom:   88    charge:    1.7888    magn:   -0.0001    constr:    0.0000
     atom:   89    charge:    1.7882    magn:    0.0016    constr:    0.0000
     atom:   90    charge:    1.7877    magn:   -0.0001    constr:    0.0000
     atom:   91    charge:    1.7884    magn:    0.0002    constr:    0.0000
     atom:   92    charge:    1.7872    magn:    0.0001    constr:    0.0000
     atom:   93    charge:    1.7881    magn:    0.0011    constr:    0.0000
     atom:   94    charge:    1.7863    magn:   -0.0001    constr:    0.0000
     atom:   95    charge:    1.7866    magn:    0.0002    constr:    0.0000
     atom:   96    charge:    1.7818    magn:   -0.0002    constr:    0.0000
     atom:   97    charge:    1.7888    magn:    0.0001    constr:    0.0000
     atom:   98    charge:    1.7896    magn:   -0.0000    constr:    0.0000
     atom:   99    charge:    1.7914    magn:    0.0002    constr:    0.0000
     atom:  100    charge:    1.7945    magn:    0.0001    constr:    0.0000
     atom:  101    charge:    1.7910    magn:    0.0000    constr:    0.0000
     atom:  102    charge:    1.7900    magn:   -0.0001    constr:    0.0000
     atom:  103    charge:    1.7878    magn:    0.0001    constr:    0.0000
     atom:  104    charge:    1.7889    magn:   -0.0001    constr:    0.0000
     atom:  105    charge:    1.7910    magn:    0.0000    constr:    0.0000
     atom:  106    charge:    1.7900    magn:   -0.0001    constr:    0.0000
     atom:  107    charge:    1.7885    magn:    0.0008    constr:    0.0000
     atom:  108    charge:    1.7917    magn:   -0.0006    constr:    0.0000
     atom:  109    charge:    1.7961    magn:    0.0002    constr:    0.0000
     atom:  110    charge:    1.7650    magn:    0.0007    constr:    0.0000
     atom:  111    charge:    1.8000    magn:    0.0001    constr:    0.0000
     atom:  112    charge:    1.7713    magn:    0.0005    constr:    0.0000
     atom:  113    charge:    1.7876    magn:    0.0002    constr:    0.0000
     atom:  114    charge:    1.7834    magn:   -0.0002    constr:    0.0000
     atom:  115    charge:    1.7856    magn:    0.0002    constr:    0.0000
     atom:  116    charge:    1.7944    magn:    0.0032    constr:    0.0000
     atom:  117    charge:    1.7884    magn:    0.0003    constr:    0.0000
     atom:  118    charge:    1.7876    magn:   -0.0007    constr:    0.0000
     atom:  119    charge:    1.7836    magn:    0.0042    constr:    0.0000
     atom:  120    charge:    1.7998    magn:   -0.0050    constr:    0.0000
     atom:  121    charge:    1.7912    magn:    0.0017    constr:    0.0000
     atom:  122    charge:    1.7886    magn:   -0.0001    constr:    0.0000
     atom:  123    charge:    1.7891    magn:    0.0002    constr:    0.0000
     atom:  124    charge:    1.7871    magn:    0.0001    constr:    0.0000
     atom:  125    charge:    1.7878    magn:    0.0002    constr:    0.0000
     atom:  126    charge:    1.7834    magn:   -0.0003    constr:    0.0000
     atom:  127    charge:    1.7894    magn:    0.0011    constr:    0.0000
     atom:  128    charge:    1.7870    magn:   -0.0001    constr:    0.0000
     atom:  129    charge:    1.7878    magn:    0.0002    constr:    0.0000
     atom:  130    charge:    1.7834    magn:   -0.0003    constr:    0.0000
     atom:  131    charge:    1.7858    magn:    0.0002    constr:    0.0000
     atom:  132    charge:    1.7899    magn:    0.0034    constr:    0.0000
     atom:  133    charge:    1.7851    magn:    0.0039    constr:    0.0000
     atom:  134    charge:    1.7865    magn:   -0.0049    constr:    0.0000
     atom:  135    charge:    1.7885    magn:    0.0004    constr:    0.0000
     atom:  136    charge:    1.7845    magn:   -0.0008    constr:    0.0000
     atom:  137    charge:    1.7885    magn:    0.0009    constr:    0.0000
     atom:  138    charge:    1.7882    magn:   -0.0011    constr:    0.0000
     atom:  139    charge:    1.7889    magn:    0.0011    constr:    0.0000
     atom:  140    charge:    1.7877    magn:   -0.0000    constr:    0.0000
     atom:  141    charge:    1.7912    magn:    0.0187    constr:    0.0000
     atom:  142    charge:    1.7876    magn:   -0.0011    constr:    0.0000
     atom:  143    charge:    1.7825    magn:    0.0185    constr:    0.0000
     atom:  144    charge:    1.7865    magn:   -0.0011    constr:    0.0000
     atom:  145    charge:    1.7889    magn:    0.0013    constr:    0.0000
     atom:  146    charge:    1.7914    magn:    0.0013    constr:    0.0000
     atom:  147    charge:    1.7901    magn:    0.0002    constr:    0.0000
     atom:  148    charge:    1.7926    magn:    0.0002    constr:    0.0000
     atom:  149    charge:    1.7881    magn:    0.0016    constr:    0.0000
     atom:  150    charge:    1.7877    magn:   -0.0001    constr:    0.0000
     atom:  151    charge:    1.7876    magn:    0.0014    constr:    0.0000
     atom:  152    charge:    1.7880    magn:   -0.0001    constr:    0.0000
     atom:  153    charge:    1.7865    magn:    0.0001    constr:    0.0000
     atom:  154    charge:    1.7877    magn:   -0.0001    constr:    0.0000
     atom:  155    charge:    1.7872    magn:    0.0008    constr:    0.0000
     atom:  156    charge:    1.7907    magn:   -0.0005    constr:    0.0000
     atom:  157    charge:    1.7868    magn:    0.0015    constr:    0.0000
     atom:  158    charge:    1.7875    magn:   -0.0001    constr:    0.0000
     atom:  159    charge:    1.7866    magn:    0.0002    constr:    0.0000
     atom:  160    charge:    1.7818    magn:   -0.0002    constr:    0.0000
     atom:  161    charge:    1.7868    magn:    0.0015    constr:    0.0000
     atom:  162    charge:    1.7875    magn:   -0.0001    constr:    0.0000
     atom:  163    charge:    1.7849    magn:    0.0002    constr:    0.0000
     atom:  164    charge:    1.7889    magn:    0.0026    constr:    0.0000
     atom:  165    charge:    1.7860    magn:    0.0001    constr:    0.0000
     atom:  166    charge:    1.7878    magn:   -0.0001    constr:    0.0000
     atom:  167    charge:    1.7872    magn:    0.0008    constr:    0.0000
     atom:  168    charge:    1.7871    magn:   -0.0010    constr:    0.0000
     atom:  169    charge:    1.7879    magn:    0.0001    constr:    0.0000
     atom:  170    charge:    1.7888    magn:   -0.0001    constr:    0.0000
     atom:  171    charge:    1.7885    magn:    0.0008    constr:    0.0000
     atom:  172    charge:    1.7917    magn:   -0.0006    constr:    0.0000
     atom:  173    charge:    1.7876    magn:    0.0002    constr:    0.0000
     atom:  174    charge:    1.7834    magn:   -0.0002    constr:    0.0000
     atom:  175    charge:    1.7887    magn:    0.0015    constr:    0.0000
     atom:  176    charge:    1.7887    magn:   -0.0001    constr:    0.0000
     atom:  177    charge:    1.7961    magn:    0.0002    constr:    0.0000
     atom:  178    charge:    1.7650    magn:    0.0007    constr:    0.0000
     atom:  179    charge:    1.7835    magn:    0.0032    constr:    0.0000
     atom:  180    charge:    1.7836    magn:   -0.0023    constr:    0.0000
     atom:  181    charge:    1.7836    magn:    0.0042    constr:    0.0000
     atom:  182    charge:    1.7998    magn:   -0.0050    constr:    0.0000
     atom:  183    charge:    1.7835    magn:    0.0032    constr:    0.0000
     atom:  184    charge:    1.7836    magn:   -0.0023    constr:    0.0000
     atom:  185    charge:    1.7896    magn:    0.0059    constr:    0.0000
     atom:  186    charge:    1.7890    magn:   -0.0010    constr:    0.0000
     atom:  187    charge:    1.7823    magn:    0.0157    constr:    0.0000
     atom:  188    charge:    1.7875    magn:   -0.0011    constr:    0.0000
     atom:  189    charge:    1.7840    magn:    0.2291    constr:    0.0000
     atom:  190    charge:    1.7961    magn:   -0.0077    constr:    0.0000
     atom:  191    charge:    1.7887    magn:    0.0016    constr:    0.0000
     atom:  192    charge:    1.7887    magn:   -0.0001    constr:    0.0000
     atom:  193    charge:    1.7858    magn:    0.0002    constr:    0.0000
     atom:  194    charge:    1.7899    magn:    0.0034    constr:    0.0000
     atom:  195    charge:    1.7885    magn:    0.0009    constr:    0.0000
     atom:  196    charge:    1.7882    magn:   -0.0011    constr:    0.0000
     atom:  197    charge:    1.7877    magn:    0.0001    constr:    0.0000
     atom:  198    charge:    1.7889    magn:   -0.0001    constr:    0.0000
     atom:  199    charge:    1.7851    magn:    0.0039    constr:    0.0000
     atom:  200    charge:    1.7865    magn:   -0.0049    constr:    0.0000
     atom:  201    charge:    1.7861    magn:    0.0061    constr:    0.0000
     atom:  202    charge:    1.7886    magn:   -0.0010    constr:    0.0000
     atom:  203    charge:    1.7997    magn:    0.2581    constr:    0.0000
     atom:  204    charge:    1.7944    magn:   -0.0086    constr:    0.0000
     atom:  205    charge:    1.7825    magn:    0.0185    constr:    0.0000
     atom:  206    charge:    1.7865    magn:   -0.0011    constr:    0.0000
     atom:  207    charge:    1.7997    magn:    0.2581    constr:    0.0000
     atom:  208    charge:    1.7944    magn:   -0.0086    constr:    0.0000
     atom:  209    charge:    1.7885    magn:    0.0172    constr:    0.0000
     atom:  210    charge:    1.7925    magn:    0.0020    constr:    0.0000
     atom:  211    charge:    1.7892    magn:    0.0069    constr:    0.0000
     atom:  212    charge:    1.7882    magn:   -0.0004    constr:    0.0000
     atom:  213    charge:    1.7836    magn:    0.0071    constr:    0.0000
     atom:  214    charge:    1.7846    magn:   -0.0004    constr:    0.0000
     atom:  215    charge:    2.8759    magn:   -0.0006    constr:    0.0000

     total cpu time spent up to now is      415.9 secs

     End of self-consistent calculation

 ------ SPIN UP ------------


          k = 0.0000 0.0000 0.0000 ( 54564 PWs)   bands (ev):

    -8.2694  -7.4427  -7.2619  -7.2599  -7.2248  -7.2119  -7.1330  -6.6027
    -6.2603  -6.2583  -6.2532  -6.2485  -6.2389  -6.2166  -6.2122  -6.1996
    -6.1704  -6.1445  -5.9863  -5.4889  -5.2405  -5.2290  -5.2215  -5.2130
    -5.2071  -5.1908  -5.0420  -4.4317  -4.2447  -4.2371  -4.2241  -4.2177
    -4.1627  -3.8397  -3.3528  -3.3513  -3.3456  -3.3415  -3.3407  -3.3295
    -3.3278  -3.3260  -3.3152  -3.3112  -3.3077  -3.3058  -3.3004  -3.3000
    -3.2808  -3.2705  -3.2654  -3.2625  -3.2568  -3.2355  -3.1843  -3.1659
    -2.9989  -2.7994  -2.5804  -2.5742  -2.5513  -2.5441  -2.5427  -2.5333
    -2.5314  -2.5265  -2.5241  -2.5188  -2.5100  -2.4946  -2.4909  -2.4888
    -2.4756  -2.4679  -2.4590  -2.4263  -2.4251  -2.3983  -2.3091  -2.2842
    -1.6229  -1.0334  -0.8701  -0.8678  -0.8414  -0.8274  -0.8225  -0.8209
    -0.8185  -0.8128  -0.7723  -0.7639  -0.4206   0.3794   0.4304   0.4332
     0.4491   0.4579   0.4934   0.7109   0.8848   0.8922   0.9302   0.9376
     0.9390   0.9436   0.9480   0.9501   0.9536   0.9642   0.9713   0.9771
     0.9773   0.9979   1.0278   1.0440   1.0465   1.0681   1.0702   1.0735
     1.0828   1.0864   1.1192   1.1372   1.1418   1.1463   1.1574   1.1598
     1.1625   1.1649   1.1656   1.1728   1.1811   1.1928   1.1929   1.2124
     1.2130   1.2159   1.2206   1.2226   1.2289   1.2290   1.2538   1.4586
     1.5599   1.5860   1.9706   2.2288   2.2297   2.2318   2.2705   2.2732
     2.2803   2.2858   2.3049   2.3067   2.4260   2.4350   3.3904   3.7387
     3.7404   3.7554   3.8095   3.8148   3.8168   3.8183   3.8228   3.8249
     3.8270   3.8289   3.8418   3.8473   3.8478   3.8612   3.8712   3.9813
     3.9889   3.9953   4.0248   4.3872   4.3899   4.4114   4.4855   4.4884
     4.4925   4.4941   4.4946   4.4958   4.5061   4.5061   4.5088   4.5137
     4.5197   4.5211   4.5233   4.5350   4.5444   4.5494   4.5506   4.5600
     4.7458   4.7500   5.2678   5.2717   5.2792   5.3301   5.3309   5.3353
     5.3355   5.3406   5.3452   5.3522   5.3545   5.3612   5.3721   5.3738
     5.4203   5.4235   5.4323   5.4406   5.4487   5.4783   5.4824   5.5453
     5.5606   5.5633   5.6319   5.7628   5.7655   5.8518   5.8593   5.8620
     5.8690   5.8740   5.8755   5.8799   5.8830   5.8884   5.8934   5.9010
     5.9092   5.9098   5.9226   5.9304   5.9379   5.9388   5.9592   5.9593
     5.9742   5.9963   5.9990   6.0408   6.0526   6.3229   6.3524   6.3705
     6.8630   6.8677   6.9207   6.9420   6.9540   6.9600   7.0665   7.4017
     7.4062   7.4806   7.4880   7.4890   7.5013   7.5045   7.5047   7.5293
     7.5795   7.5840   7.7413   7.7439   7.8561   7.8746   7.8821   7.8838
     7.8861   7.8895   7.8970   7.9179   7.9451   7.9481   7.9517   8.0870
     8.0991   8.1196   8.1446   8.1474   8.1499   8.1617   8.1636   8.1653
     8.1667   8.1740   8.1759   8.1778   8.1840   8.1887   8.2123   8.2126
     8.2216   8.2255   8.2296   8.2335   8.2361   8.2400   8.2885   8.2939
     8.3158   8.3411   8.3497   8.3516   8.3545   8.3553   8.3587   8.3601
     8.3617   8.3618   8.3672   8.3687   8.3746   8.3757   8.3784   8.3800
     8.3854   8.3863   8.3864   8.3901   8.3941   8.3996   8.4006   8.4085
     8.4136   8.4160   8.4303   8.4323   8.4434   8.4521   8.4526   8.4662
     8.4709   8.4899   8.4983   8.5130   8.5322   8.5534   8.5571   8.5607
     8.5724   8.6359   8.6853   8.9293   8.9390   8.9413   9.1085   9.1148
     9.1735   9.1746   9.1788   9.1841   9.2072   9.2078   9.2113   9.2159
     9.2285   9.2360   9.2375   9.2427   9.2520   9.2583   9.2615   9.2735
     9.3154   9.3164   9.3853  10.0448  10.1478  10.1632  10.4875  10.5426
    10.5459  10.5930  10.5973  10.5993  10.6127  10.6186  10.6221  10.6245
    10.6855  10.6981  10.7046  10.7872  10.7954  10.8456  10.8510  10.8526
    10.8595  10.8615  10.8646  10.8666  10.8771  10.8916  10.8961  10.9172
    10.9249  10.9309  10.9436  10.9545  10.9691  11.5194  11.5392  11.5398
    11.7608  11.7684  11.7773  11.8002  11.8035  11.8051  11.8280  11.8321
    11.8754  11.8860  12.9409  13.0296  13.0315  13.8896  14.8493  15.1315
    17.3510  17.3636  17.3741  17.4090  17.4142  17.4340  17.9328  18.0017
    18.0050  18.0171  18.0230  18.0756  18.1183  18.1338  18.1827  18.2265
    18.2303  18.2483  18.8386  18.8458  18.8654  19.4534  19.5336  19.5352
    19.5486  19.5806  19.5825  19.5890  19.5920  19.6091  19.6109  19.6148
    19.6514  20.0722  20.2408  20.2417  20.2723  20.2723  20.2759  20.2786
    20.2813  20.2828  20.2883  20.2884  20.3000  20.3104  20.3132  20.3187
    20.3356  20.3376  20.3458  20.3792  20.3794  20.4035  20.4194  20.4235
    20.4372  20.6967  20.6995  20.7200  20.7440  20.7489  20.7632  20.7649
    20.7686  20.7715  20.7765  20.7856  20.7873  20.8107  20.8263  20.8339
    20.8565  20.8595  20.8639  20.8745  20.8753  20.8790  20.8815  20.8892
    20.8997  20.9074  20.9135  20.9150  20.9252  20.9364  20.9450  20.9516
    20.9662  20.9735  20.9768  20.9825  21.0159  21.0669  21.0686  21.0874
    21.1170  21.1187  21.1439  21.2576  21.3381  21.3484  21.3657  21.3859
    21.3896  21.3927  21.3969  21.3996  21.4015  21.4029  21.4092  21.4150
    21.4202  21.4274  21.4384  21.4404  21.4471  21.4471  21.4487  21.4495
    21.4726  21.4729  21.4752  21.4772  21.4869  21.4898  21.4974  21.5043
    21.5167  21.5238  21.5302  21.5412  21.5632  21.5854  21.6728  21.6852
    21.6906  21.7132  21.7237  21.7272  21.7330  21.7362  21.7398  21.7487
    21.7511  21.7526  21.7856  21.7952  21.8046  21.8149  21.8446  21.8648
    21.8800  21.9922  21.9938  22.0268  22.0311  22.0554  22.1466  22.1479
    22.1548  22.1957  22.2181  22.2207  22.2250  22.2373  22.2445  22.3748
    22.3820  22.3886  22.4521  22.5040  22.5070  22.5215  22.5315  22.5324
    22.6960  22.7102  22.7297  22.8501  22.9864  23.0104  23.0252  23.1472
    23.1512  23.1612  23.1688  23.1689  23.1724  23.1784  23.1856  23.1892
    23.1957  23.1969  23.2076  23.2337  23.2459  23.2523  23.2614  23.3063
    23.3416  23.3462  23.3959  23.3960  23.4705  23.4879  23.4928  23.8205
    23.8264  23.8277  23.8325  23.8455  23.8510  23.8540  23.8662  23.8713
    23.8809  23.8893  23.8925  23.8974  23.8997  23.9144  23.9301  23.9484
    23.9937  24.0062  24.0088  24.1525  24.1539  24.2354  24.2530  24.2998
    24.3029  24.3115  24.3229  24.3499  24.3505  24.3548  24.3565  24.3616
    24.3745  24.4102  24.4127  24.4138  24.4483  24.4518  24.4581  24.4637
    24.4659  24.4762  24.4784  24.5011  24.5231  24.5316  24.5468  24.5548
    24.5574  24.5622  24.5661  24.5793  24.5885  24.5917  24.5986  24.6164
    24.6166  24.6303  24.6383  24.6545  24.6656  24.6957  24.7553  24.8015
    24.8339  24.8990  24.9592  25.5137  25.5334  25.5773  25.6872  25.8547
    25.8683  25.8745  25.8858  25.8875  26.0274  26.0361  26.0402  26.0427
    26.0913  26.1014  26.1507  26.1705  26.1746  26.1787  26.2672  26.2982
    26.3281  26.5345  26.6353  26.6359  26.6492  26.6760  26.6899  26.6967
    26.6996  26.7230  26.7307  26.7437  26.7476  26.7567  26.8171  26.8242
    26.8333  26.8370  26.8556  26.8627  26.8977  26.9050  26.9122  26.9867
    26.9951  27.1011  27.1074  27.1292  27.1342  27.1375  27.1459  27.1459
    27.1613  27.1618  27.1627  27.1652  27.1658  27.1930  27.1958  27.2227
    27.2289  27.2511  27.2632  27.2802  27.2852  27.2870  27.2952  27.2979
    27.3066  27.3134  27.3176  27.3227  27.3283  27.3412  27.3486  27.3521
    27.3564  27.3585  27.3607  27.3764  27.3810  27.4018  27.4046  27.4114
    27.4166  27.4239  27.4248  27.4255  27.4320  27.4388  27.4613  27.4684

     occupation numbers 
     1.0000   1.0000   1.0000   1.0000   1.0000   1.0000   1.0000   1.0000
     1.0000   1.0000   1.0000   1.0000   1.0000   1.0000   1.0000   1.0000
     1.0000   1.0000   1.0000   1.0000   1.0000   1.0000   1.0000   1.0000
     1.0000   1.0000   1.0000   1.0000   1.0000   1.0000   1.0000   1.0000
     1.0000   1.0000   1.0000   1.0000   1.0000   1.0000   1.0000   1.0000
     1.0000   1.0000   1.0000   1.0000   1.0000   1.0000   1.0000   1.0000
     1.0000   1.0000   1.0000   1.0000   1.0000   1.0000   1.0000   1.0000
     1.0000   1.0000   1.0000   1.0000   1.0000   1.0000   1.0000   1.0000
     1.0000   1.0000   1.0000   1.0000   1.0000   1.0000   1.0000   1.0000
     1.0000   1.0000   1.0000   1.0000   1.0000   1.0000   1.0000   1.0000
     1.0000   1.0000   1.0000   1.0000   1.0000   1.0000   1.0000   1.0000
     1.0000   1.0000   1.0000   1.0000   1.0000   1.0000   1.0000   1.0000
     1.0000   1.0000   1.0000   1.0000   1.0000   1.0000   1.0000   1.0000
     1.0000   1.0000   1.0000   1.0000   1.0000   1.0000   1.0000   1.0000
     1.0000   1.0000   1.0000   1.0000   1.0000   1.0000   1.0000   1.0000
     1.0000   1.0000   1.0000   1.0000   1.0000   1.0000   1.0000   1.0000
     1.0000   1.0000   1.0000   1.0000   1.0000   1.0000   1.0000   1.0000
     1.0000   1.0000   1.0000   1.0000   1.0000   1.0000   1.0000   1.0000
     1.0000   1.0000   1.0000   1.0000   1.0000   1.0000   1.0000   1.0000
     1.0000   1.0000   1.0000   1.0000   1.0000   1.0000   1.0000   1.0000
     1.0000   1.0000   1.0000   1.0000   1.0000   1.0000   1.0000   1.0000
     1.0000   1.0000   1.0000   1.0000   1.0000   1.0000   1.0000   1.0000
     1.0000   1.0000   1.0000   1.0000   1.0000   1.0000   1.0000   1.0000
     1.0000   1.0000   1.0000   1.0000   1.0000   1.0000   1.0000   1.0000
     1.0000   1.0000   1.0000   1.0000   1.0000   1.0000   1.0000   1.0000
     1.0000   1.0000   1.0000   1.0000   1.0000   1.0000   1.0000   1.0000
     1.0000   1.0000   1.0000   1.0000   1.0000   1.0000   1.0000   1.0000
     1.0000   1.0000   1.0000   1.0000   1.0000   1.0000   1.0000   1.0000
     1.0000   1.0000   1.0000   1.0000   1.0000   1.0000   1.0000   1.0000
     1.0000   1.0000   1.0000   1.0000   1.0000   1.0000   1.0000   1.0000
     1.0000   1.0000   1.0000   1.0000   1.0000   1.0000   1.0000   1.0000
     1.0000   1.0000   1.0000   1.0000   1.0000   1.0000   1.0000   1.0000
     1.0000   1.0000   1.0000   1.0000   1.0000   1.0000   1.0000   1.0000
     1.0000   1.0000   1.0000   1.0000   1.0000   1.0000   1.0000   1.0000
     1.0000   1.0000   1.0000   1.0000   1.0000   1.0000   1.0000   1.0000
     1.0000   1.0000   1.0000   1.0000   1.0000   1.0000   1.0000   1.0000
     1.0000   1.0000   1.0000   1.0000   1.0000   1.0000   1.0000   1.0000
     1.0000   1.0000   1.0000   1.0000   1.0000   1.0000   1.0000   1.0000
     1.0000   1.0000   1.0000   1.0000   1.0000   1.0000   1.0000   1.0000
     1.0000   1.0000   1.0000   1.0000   1.0000   1.0000   1.0000   1.0000
     1.0000   1.0000   1.0000   1.0000   1.0000   1.0000   1.0000   1.0000
     1.0000   1.0000   1.0000   1.0000   1.0000   1.0000   1.0000   1.0000
     1.0000   1.0000   1.0000   1.0000   1.0000   1.0000   1.0000   1.0000
     1.0000   1.0000   1.0000   1.0000   1.0000   1.0000   1.0000   1.0000
     1.0000   1.0000   1.0000   1.0000   1.0000   1.0000   1.0000   1.0000
     1.0000   1.0000   1.0000   1.0000   1.0000   1.0000   1.0000   1.0000
     1.0000   1.0000   1.0000   1.0000   1.0000   1.0000   1.0000   1.0000
     1.0000   1.0000   1.0000   1.0000   1.0000   1.0000   1.0000   1.0000
     1.0000   1.0000   1.0000   1.0000   1.0000   1.0000   1.0000   1.0000
     1.0000   1.0000   1.0000   1.0000   1.0000   1.0000   1.0000   1.0000
     1.0000   1.0000   1.0000   1.0000   1.0000   1.0000   1.0000   1.0000
     1.0000   1.0000   1.0000   1.0000   1.0000   1.0000   1.0000   1.0000
     1.0000   1.0000   1.0000   1.0000   1.0000   1.0000   1.0000   1.0000
     1.0000   1.0000   1.0000   1.0000   1.0000   1.0000   1.0000   1.0000
     0.0000   0.0000   0.0000   0.0000   0.0000   0.0000   0.0000   0.0000
     0.0000   0.0000   0.0000   0.0000   0.0000   0.0000   0.0000   0.0000
     0.0000   0.0000   0.0000   0.0000   0.0000   0.0000   0.0000   0.0000
     0.0000   0.0000   0.0000   0.0000   0.0000   0.0000   0.0000   0.0000
     0.0000   0.0000   0.0000   0.0000   0.0000   0.0000   0.0000   0.0000
     0.0000   0.0000   0.0000   0.0000   0.0000   0.0000   0.0000   0.0000
     0.0000   0.0000   0.0000   0.0000   0.0000   0.0000   0.0000   0.0000
     0.0000   0.0000   0.0000   0.0000   0.0000   0.0000   0.0000   0.0000
     0.0000   0.0000   0.0000   0.0000   0.0000   0.0000   0.0000   0.0000
     0.0000   0.0000   0.0000   0.0000   0.0000   0.0000   0.0000   0.0000
     0.0000   0.0000   0.0000   0.0000   0.0000   0.0000   0.0000   0.0000
     0.0000   0.0000   0.0000   0.0000   0.0000   0.0000   0.0000   0.0000
     0.0000   0.0000   0.0000   0.0000   0.0000   0.0000   0.0000   0.0000
     0.0000   0.0000   0.0000   0.0000   0.0000   0.0000   0.0000   0.0000
     0.0000   0.0000   0.0000   0.0000   0.0000   0.0000   0.0000   0.0000
     0.0000   0.0000   0.0000   0.0000   0.0000   0.0000   0.0000   0.0000
     0.0000   0.0000   0.0000   0.0000   0.0000   0.0000   0.0000   0.0000
     0.0000   0.0000   0.0000   0.0000   0.0000   0.0000   0.0000   0.0000
     0.0000   0.0000   0.0000   0.0000   0.0000   0.0000   0.0000   0.0000
     0.0000   0.0000   0.0000   0.0000   0.0000   0.0000   0.0000   0.0000
     0.0000   0.0000   0.0000   0.0000   0.0000   0.0000   0.0000   0.0000
     0.0000   0.0000   0.0000   0.0000   0.0000   0.0000   0.0000   0.0000
     0.0000   0.0000   0.0000   0.0000   0.0000   0.0000   0.0000   0.0000
     0.0000   0.0000   0.0000   0.0000   0.0000   0.0000   0.0000   0.0000
     0.0000   0.0000   0.0000   0.0000   0.0000   0.0000   0.0000   0.0000
     0.0000   0.0000   0.0000   0.0000   0.0000   0.0000   0.0000   0.0000
     0.0000   0.0000   0.0000   0.0000   0.0000   0.0000   0.0000   0.0000
     0.0000   0.0000   0.0000   0.0000   0.0000   0.0000   0.0000   0.0000
     0.0000   0.0000   0.0000   0.0000   0.0000   0.0000   0.0000   0.0000
     0.0000   0.0000   0.0000   0.0000   0.0000   0.0000   0.0000   0.0000
     0.0000   0.0000   0.0000   0.0000   0.0000   0.0000   0.0000   0.0000
     0.0000   0.0000   0.0000   0.0000   0.0000   0.0000   0.0000   0.0000
     0.0000   0.0000   0.0000   0.0000   0.0000   0.0000   0.0000   0.0000
     0.0000   0.0000   0.0000   0.0000   0.0000   0.0000   0.0000   0.0000
     0.0000   0.0000   0.0000   0.0000   0.0000   0.0000   0.0000   0.0000
     0.0000   0.0000   0.0000   0.0000   0.0000   0.0000   0.0000   0.0000
     0.0000   0.0000   0.0000   0.0000   0.0000   0.0000   0.0000   0.0000
     0.0000   0.0000   0.0000   0.0000   0.0000   0.0000   0.0000   0.0000
     0.0000   0.0000   0.0000   0.0000   0.0000   0.0000   0.0000   0.0000
     0.0000   0.0000   0.0000   0.0000   0.0000   0.0000   0.0000   0.0000
     0.0000   0.0000   0.0000   0.0000   0.0000   0.0000   0.0000   0.0000
     0.0000   0.0000   0.0000   0.0000   0.0000   0.0000   0.0000   0.0000
     0.0000   0.0000   0.0000   0.0000   0.0000   0.0000   0.0000   0.0000
     0.0000   0.0000   0.0000   0.0000   0.0000   0.0000   0.0000   0.0000
     0.0000   0.0000   0.0000   0.0000   0.0000   0.0000   0.0000   0.0000
     0.0000   0.0000   0.0000   0.0000   0.0000   0.0000   0.0000   0.0000

 ------ SPIN DOWN ----------


          k = 0.0000 0.0000 0.0000 ( 54564 PWs)   bands (ev):

    -8.2642  -7.4397  -7.2593  -7.2573  -7.2169  -7.2055  -7.1216  -6.5993
    -6.2580  -6.2563  -6.2507  -6.2464  -6.2344  -6.2085  -6.2062  -6.1965
    -6.1537  -6.1294  -5.9639  -5.4842  -5.2333  -5.2241  -5.2161  -5.1998
    -5.1953  -5.1784  -5.0183  -4.4196  -4.2392  -4.2318  -4.2129  -4.2091
    -4.1549  -3.8270  -3.3487  -3.3478  -3.3425  -3.3399  -3.3384  -3.3264
    -3.3242  -3.3224  -3.3138  -3.3078  -3.3059  -3.3024  -3.2973  -3.2963
    -3.2672  -3.2582  -3.2536  -3.2515  -3.2487  -3.2326  -3.1582  -3.1417
    -2.9864  -2.7958  -2.5786  -2.5718  -2.5478  -2.5396  -2.5394  -2.5308
    -2.5244  -2.5212  -2.5183  -2.5127  -2.5039  -2.4868  -2.4860  -2.4836
    -2.4710  -2.4642  -2.4478  -2.4134  -2.4132  -2.3892  -2.2422  -2.2213
    -1.5618  -1.0254  -0.8656  -0.8638  -0.8321  -0.8206  -0.8177  -0.8130
    -0.8118  -0.8059  -0.7404  -0.7328  -0.3599   0.3919   0.4336   0.4370
     0.4563   0.4653   0.4999   0.7309   0.8877   0.8954   0.9306   0.9397
     0.9405   0.9463   0.9502   0.9525   0.9561   0.9689   0.9758   0.9802
     0.9802   1.0047   1.0388   1.0532   1.0551   1.0754   1.0771   1.0835
     1.1012   1.1056   1.1231   1.1408   1.1453   1.1527   1.1606   1.1637
     1.1662   1.1682   1.1714   1.1789   1.1904   1.1973   1.1991   1.2183
     1.2222   1.2254   1.2291   1.2347   1.2397   1.2506   1.2844   1.4739
     1.6161   1.6348   1.9927   2.2354   2.2357   2.2476   2.2757   2.2764
     2.2837   2.2945   2.3107   2.3122   2.4894   2.4939   3.4598   3.7445
     3.7457   3.7660   3.8113   3.8200   3.8212   3.8229   3.8263   3.8317
     3.8327   3.8335   3.8479   3.8532   3.8556   3.8708   3.8815   3.9981
     4.0028   4.0065   4.0459   4.3934   4.3967   4.4324   4.4868   4.4915
     4.4955   4.4964   4.5012   4.5021   4.5098   4.5115   4.5122   4.5200
     4.5261   4.5282   4.5309   4.5449   4.5547   4.5595   4.5628   4.5715
     4.8070   4.8090   5.2722   5.2762   5.2939   5.3324   5.3329   5.3370
     5.3376   5.3433   5.3478   5.3561   5.3585   5.3638   5.3756   5.3769
     5.4275   5.4331   5.4395   5.4486   5.4553   5.4922   5.4952   5.5485
     5.5722   5.5726   5.6707   5.7681   5.7714   5.8615   5.8630   5.8645
     5.8745   5.8781   5.8804   5.8873   5.8877   5.8944   5.8995   5.9089
     5.9141   5.9144   5.9346   5.9423   5.9438   5.9509   5.9725   5.9730
     5.9961   6.0116   6.0169   6.0515   6.0638   6.3457   6.4026   6.4121
     6.8697   6.8743   6.9307   6.9507   6.9716   6.9764   7.1462   7.4156
     7.4185   7.4870   7.4921   7.4926   7.5067   7.5115   7.5122   7.5446
     7.5942   7.6004   7.7457   7.7487   7.8672   7.8818   7.8881   7.8912
     7.8984   7.9072   7.9108   7.9279   7.9556   7.9589   7.9667   8.0969
     8.1080   8.1223   8.1473   8.1499   8.1518   8.1641   8.1664   8.1679
     8.1684   8.1770   8.1800   8.1805   8.1869   8.1914   8.2172   8.2193
     8.2286   8.2320   8.2400   8.2439   8.2445   8.2456   8.2946   8.2997
     8.3231   8.3507   8.3539   8.3551   8.3569   8.3587   8.3611   8.3633
     8.3647   8.3651   8.3720   8.3722   8.3786   8.3807   8.3834   8.3837
     8.3886   8.3906   8.3940   8.3976   8.4011   8.4052   8.4137   8.4163
     8.4224   8.4261   8.4377   8.4439   8.4518   8.4602   8.4620   8.4722
     8.4778   8.5000   8.5203   8.5291   8.5487   8.5660   8.5746   8.5793
     8.5889   8.6756   8.7237   8.9430   8.9580   8.9606   9.1143   9.1205
     9.1764   9.1772   9.1814   9.1861   9.2116   9.2156   9.2209   9.2211
     9.2363   9.2418   9.2492   9.2573   9.2616   9.2760   9.2795   9.2799
     9.3421   9.3447   9.4212  10.0621  10.2298  10.2315  10.5565  10.5610
    10.5957  10.6013  10.6032  10.6158  10.6180  10.6337  10.6371  10.6604
    10.6918  10.7038  10.7122  10.7917  10.7999  10.8528  10.8563  10.8573
    10.8679  10.8681  10.8753  10.8774  10.8831  10.9067  10.9132  10.9320
    10.9350  10.9431  10.9604  10.9620  10.9764  11.5322  11.5693  11.5731
    11.7686  11.7755  11.7792  11.8051  11.8082  11.8114  11.8417  11.8633
    11.9040  12.2169  13.0619  13.0710  13.0766  14.4897  16.3225  16.5031
    17.3549  17.3677  17.3844  17.4220  17.4290  17.4444  17.9380  18.0103
    18.0142  18.0240  18.0284  18.0836  18.1233  18.1387  18.2092  18.2461
    18.2535  18.2593  18.8589  18.8669  18.8789  19.4619  19.5367  19.5385
    19.5513  19.5886  19.5925  19.5970  19.5978  19.6149  19.6155  19.6195
    19.6587  20.0768  20.2441  20.2443  20.2743  20.2757  20.2791  20.2830
    20.2843  20.2869  20.2955  20.2971  20.3061  20.3146  20.3185  20.3235
    20.3433  20.3483  20.3544  20.3863  20.3867  20.4107  20.4268  20.4326
    20.4457  20.7015  20.7060  20.7259  20.7462  20.7510  20.7656  20.7673
    20.7707  20.7747  20.7786  20.7889  20.7901  20.8128  20.8304  20.8379
    20.8607  20.8631  20.8675  20.8790  20.8798  20.8830  20.8924  20.9037
    20.9076  20.9142  20.9269  20.9323  20.9403  20.9442  20.9516  20.9583
    20.9699  20.9825  20.9884  20.9903  21.0254  21.0748  21.0776  21.0939
    21.1256  21.1261  21.1505  21.2623  21.3433  21.3538  21.3700  21.3900
    21.3947  21.3997  21.4011  21.4028  21.4041  21.4068  21.4140  21.4193
    21.4248  21.4314  21.4446  21.4449  21.4524  21.4532  21.4555  21.4570
    21.4782  21.4804  21.4823  21.4879  21.4963  21.5065  21.5157  21.5212
    21.5259  21.5387  21.5468  21.5673  21.5942  21.6170  21.6844  21.6919
    21.7010  21.7164  21.7269  21.7333  21.7380  21.7438  21.7486  21.7559
    21.7592  21.7597  21.7955  21.7997  21.8093  21.8209  21.8653  21.8856
    21.9052  22.0025  22.0139  22.0470  22.0501  22.0774  22.1499  22.1505
    22.1580  22.2115  22.2324  22.2326  22.2332  22.2484  22.2529  22.3864
    22.3932  22.3984  22.4696  22.5123  22.5152  22.5303  22.5352  22.5362
    22.7224  22.7594  22.7718  22.9214  23.0058  23.0323  23.0457  23.1525
    23.1572  23.1635  23.1715  23.1717  23.1783  23.1826  23.1887  23.1949
    23.1999  23.2007  23.2140  23.2456  23.2658  23.2700  23.2823  23.3395
    23.3971  23.3995  23.4160  23.4160  23.4872  23.5266  23.5310  23.8240
    23.8322  23.8330  23.8391  23.8482  23.8550  23.8590  23.8694  23.8744
    23.8899  23.9023  23.9058  23.9060  23.9134  23.9376  23.9385  23.9715
    24.0117  24.0264  24.0356  24.1691  24.1704  24.2593  24.2715  24.3062
    24.3077  24.3166  24.3269  24.3545  24.3561  24.3589  24.3616  24.3673
    24.3807  24.4153  24.4197  24.4201  24.4615  24.4626  24.4721  24.4795
    24.4831  24.4862  24.4913  24.5101  24.5309  24.5506  24.5570  24.5630
    24.5637  24.5829  24.5842  24.5891  24.5944  24.5961  24.6075  24.6314
    24.6336  24.6543  24.6585  24.6770  24.6872  24.7178  24.8018  24.9376
    24.9563  24.9636  25.0244  25.5621  25.5796  25.6250  25.7168  25.8613
    25.8802  25.8897  25.8976  25.9031  26.0325  26.0402  26.0470  26.0484
    26.1003  26.1101  26.1631  26.1892  26.1932  26.1990  26.2857  26.3266
    26.3609  26.5522  26.6426  26.6428  26.6630  26.6849  26.6956  26.7030
    26.7048  26.7301  26.7380  26.7532  26.7561  26.7677  26.8287  26.8376
    26.8420  26.8435  26.8611  26.8682  26.9104  26.9150  26.9199  27.0145
    27.0272  27.1069  27.1135  27.1326  27.1412  27.1412  27.1496  27.1522
    27.1647  27.1658  27.1671  27.1700  27.1701  27.1994  27.2013  27.2336
    27.2351  27.2557  27.2682  27.2879  27.2929  27.2933  27.2995  27.3016
    27.3120  27.3219  27.3266  27.3296  27.3367  27.3480  27.3582  27.3602
    27.3609  27.3657  27.3765  27.3990  27.4007  27.4087  27.4105  27.4176
    27.4223  27.4297  27.4312  27.4348  27.4411  27.4475  27.4760  27.4877

     occupation numbers 
     1.0000   1.0000   1.0000   1.0000   1.0000   1.0000   1.0000   1.0000
     1.0000   1.0000   1.0000   1.0000   1.0000   1.0000   1.0000   1.0000
     1.0000   1.0000   1.0000   1.0000   1.0000   1.0000   1.0000   1.0000
     1.0000   1.0000   1.0000   1.0000   1.0000   1.0000   1.0000   1.0000
     1.0000   1.0000   1.0000   1.0000   1.0000   1.0000   1.0000   1.0000
     1.0000   1.0000   1.0000   1.0000   1.0000   1.0000   1.0000   1.0000
     1.0000   1.0000   1.0000   1.0000   1.0000   1.0000   1.0000   1.0000
     1.0000   1.0000   1.0000   1.0000   1.0000   1.0000   1.0000   1.0000
     1.0000   1.0000   1.0000   1.0000   1.0000   1.0000   1.0000   1.0000
     1.0000   1.0000   1.0000   1.0000   1.0000   1.0000   1.0000   1.0000
     1.0000   1.0000   1.0000   1.0000   1.0000   1.0000   1.0000   1.0000
     1.0000   1.0000   1.0000   1.0000   1.0000   1.0000   1.0000   1.0000
     1.0000   1.0000   1.0000   1.0000   1.0000   1.0000   1.0000   1.0000
     1.0000   1.0000   1.0000   1.0000   1.0000   1.0000   1.0000   1.0000
     1.0000   1.0000   1.0000   1.0000   1.0000   1.0000   1.0000   1.0000
     1.0000   1.0000   1.0000   1.0000   1.0000   1.0000   1.0000   1.0000
     1.0000   1.0000   1.0000   1.0000   1.0000   1.0000   1.0000   1.0000
     1.0000   1.0000   1.0000   1.0000   1.0000   1.0000   1.0000   1.0000
     1.0000   1.0000   1.0000   1.0000   1.0000   1.0000   1.0000   1.0000
     1.0000   1.0000   1.0000   1.0000   1.0000   1.0000   1.0000   1.0000
     1.0000   1.0000   1.0000   1.0000   1.0000   1.0000   1.0000   1.0000
     1.0000   1.0000   1.0000   1.0000   1.0000   1.0000   1.0000   1.0000
     1.0000   1.0000   1.0000   1.0000   1.0000   1.0000   1.0000   1.0000
     1.0000   1.0000   1.0000   1.0000   1.0000   1.0000   1.0000   1.0000
     1.0000   1.0000   1.0000   1.0000   1.0000   1.0000   1.0000   1.0000
     1.0000   1.0000   1.0000   1.0000   1.0000   1.0000   1.0000   1.0000
     1.0000   1.0000   1.0000   1.0000   1.0000   1.0000   1.0000   1.0000
     1.0000   1.0000   1.0000   1.0000   1.0000   1.0000   1.0000   1.0000
     1.0000   1.0000   1.0000   1.0000   1.0000   1.0000   1.0000   1.0000
     1.0000   1.0000   1.0000   1.0000   1.0000   1.0000   1.0000   1.0000
     1.0000   1.0000   1.0000   1.0000   1.0000   1.0000   1.0000   1.0000
     1.0000   1.0000   1.0000   1.0000   1.0000   1.0000   1.0000   1.0000
     1.0000   1.0000   1.0000   1.0000   1.0000   1.0000   1.0000   1.0000
     1.0000   1.0000   1.0000   1.0000   1.0000   1.0000   1.0000   1.0000
     1.0000   1.0000   1.0000   1.0000   1.0000   1.0000   1.0000   1.0000
     1.0000   1.0000   1.0000   1.0000   1.0000   1.0000   1.0000   1.0000
     1.0000   1.0000   1.0000   1.0000   1.0000   1.0000   1.0000   1.0000
     1.0000   1.0000   1.0000   1.0000   1.0000   1.0000   1.0000   1.0000
     1.0000   1.0000   1.0000   1.0000   1.0000   1.0000   1.0000   1.0000
     1.0000   1.0000   1.0000   1.0000   1.0000   1.0000   1.0000   1.0000
     1.0000   1.0000   1.0000   1.0000   1.0000   1.0000   1.0000   1.0000
     1.0000   1.0000   1.0000   1.0000   1.0000   1.0000   1.0000   1.0000
     1.0000   1.0000   1.0000   1.0000   1.0000   1.0000   1.0000   1.0000
     1.0000   1.0000   1.0000   1.0000   1.0000   1.0000   1.0000   1.0000
     1.0000   1.0000   1.0000   1.0000   1.0000   1.0000   1.0000   1.0000
     1.0000   1.0000   1.0000   1.0000   1.0000   1.0000   1.0000   1.0000
     1.0000   1.0000   1.0000   1.0000   1.0000   1.0000   1.0000   1.0000
     1.0000   1.0000   1.0000   1.0000   1.0000   1.0000   1.0000   1.0000
     1.0000   1.0000   1.0000   1.0000   1.0000   1.0000   1.0000   1.0000
     1.0000   1.0000   1.0000   1.0000   1.0000   1.0000   1.0000   1.0000
     1.0000   1.0000   1.0000   1.0000   1.0000   1.0000   1.0000   1.0000
     1.0000   1.0000   1.0000   1.0000   1.0000   1.0000   1.0000   1.0000
     1.0000   1.0000   1.0000   1.0000   1.0000   1.0000   1.0000   1.0000
     1.0000   1.0000   1.0000   1.0000   1.0000   1.0000   0.0000   0.0000
     0.0000   0.0000   0.0000   0.0000   0.0000   0.0000   0.0000   0.0000
     0.0000   0.0000   0.0000   0.0000   0.0000   0.0000   0.0000   0.0000
     0.0000   0.0000   0.0000   0.0000   0.0000   0.0000   0.0000   0.0000
     0.0000   0.0000   0.0000   0.0000   0.0000   0.0000   0.0000   0.0000
     0.0000   0.0000   0.0000   0.0000   0.0000   0.0000   0.0000   0.0000
     0.0000   0.0000   0.0000   0.0000   0.0000   0.0000   0.0000   0.0000
     0.0000   0.0000   0.0000   0.0000   0.0000   0.0000   0.0000   0.0000
     0.0000   0.0000   0.0000   0.0000   0.0000   0.0000   0.0000   0.0000
     0.0000   0.0000   0.0000   0.0000   0.0000   0.0000   0.0000   0.0000
     0.0000   0.0000   0.0000   0.0000   0.0000   0.0000   0.0000   0.0000
     0.0000   0.0000   0.0000   0.0000   0.0000   0.0000   0.0000   0.0000
     0.0000   0.0000   0.0000   0.0000   0.0000   0.0000   0.0000   0.0000
     0.0000   0.0000   0.0000   0.0000   0.0000   0.0000   0.0000   0.0000
     0.0000   0.0000   0.0000   0.0000   0.0000   0.0000   0.0000   0.0000
     0.0000   0.0000   0.0000   0.0000   0.0000   0.0000   0.0000   0.0000
     0.0000   0.0000   0.0000   0.0000   0.0000   0.0000   0.0000   0.0000
     0.0000   0.0000   0.0000   0.0000   0.0000   0.0000   0.0000   0.0000
     0.0000   0.0000   0.0000   0.0000   0.0000   0.0000   0.0000   0.0000
     0.0000   0.0000   0.0000   0.0000   0.0000   0.0000   0.0000   0.0000
     0.0000   0.0000   0.0000   0.0000   0.0000   0.0000   0.0000   0.0000
     0.0000   0.0000   0.0000   0.0000   0.0000   0.0000   0.0000   0.0000
     0.0000   0.0000   0.0000   0.0000   0.0000   0.0000   0.0000   0.0000
     0.0000   0.0000   0.0000   0.0000   0.0000   0.0000   0.0000   0.0000
     0.0000   0.0000   0.0000   0.0000   0.0000   0.0000   0.0000   0.0000
     0.0000   0.0000   0.0000   0.0000   0.0000   0.0000   0.0000   0.0000
     0.0000   0.0000   0.0000   0.0000   0.0000   0.0000   0.0000   0.0000
     0.0000   0.0000   0.0000   0.0000   0.0000   0.0000   0.0000   0.0000
     0.0000   0.0000   0.0000   0.0000   0.0000   0.0000   0.0000   0.0000
     0.0000   0.0000   0.0000   0.0000   0.0000   0.0000   0.0000   0.0000
     0.0000   0.0000   0.0000   0.0000   0.0000   0.0000   0.0000   0.0000
     0.0000   0.0000   0.0000   0.0000   0.0000   0.0000   0.0000   0.0000
     0.0000   0.0000   0.0000   0.0000   0.0000   0.0000   0.0000   0.0000
     0.0000   0.0000   0.0000   0.0000   0.0000   0.0000   0.0000   0.0000
     0.0000   0.0000   0.0000   0.0000   0.0000   0.0000   0.0000   0.0000
     0.0000   0.0000   0.0000   0.0000   0.0000   0.0000   0.0000   0.0000
     0.0000   0.0000   0.0000   0.0000   0.0000   0.0000   0.0000   0.0000
     0.0000   0.0000   0.0000   0.0000   0.0000   0.0000   0.0000   0.0000
     0.0000   0.0000   0.0000   0.0000   0.0000   0.0000   0.0000   0.0000
     0.0000   0.0000   0.0000   0.0000   0.0000   0.0000   0.0000   0.0000
     0.0000   0.0000   0.0000   0.0000   0.0000   0.0000   0.0000   0.0000
     0.0000   0.0000   0.0000   0.0000   0.0000   0.0000   0.0000   0.0000
     0.0000   0.0000   0.0000   0.0000   0.0000   0.0000   0.0000   0.0000
     0.0000   0.0000   0.0000   0.0000   0.0000   0.0000   0.0000   0.0000
     0.0000   0.0000   0.0000   0.0000   0.0000   0.0000   0.0000   0.0000
     0.0000   0.0000   0.0000   0.0000   0.0000   0.0000   0.0000   0.0000
     0.0000   0.0000   0.0000   0.0000   0.0000   0.0000   0.0000   0.0000

     highest occupied, lowest unoccupied level (ev):    15.1315   16.3225

!    total energy              =   -2456.50451561 Ry
     Harris-Foulkes estimate   =   -2456.50451561 Ry
     estimated scf accuracy    <          4.5E-11 Ry

     The total energy is the sum of the following terms:

     one-electron contribution =     835.98540269 Ry
     hartree contribution      =     217.59810595 Ry
     xc contribution           =    -767.29521996 Ry
     ewald contribution        =   -2742.79280429 Ry

     total magnetization       =     2.00 Bohr mag/cell
     absolute magnetization    =     2.28 Bohr mag/cell

     convergence has been achieved in  20 iterations

     Forces acting on atoms (cartesian axes, Ry/au):

     atom    1 type  1   force =    -0.00002098    0.00006380   -0.00001496
     atom    2 type  1   force =     0.00006424    0.00000612    0.00001404
     atom    3 type  1   force =    -0.00003226    0.00002876    0.00000955
     atom    4 type  1   force =     0.00003025    0.00005017   -0.00000682
     atom    5 type  1   force =    -0.00004909    0.00003396    0.00000833
     atom    6 type  1   force =     0.00002758   -0.00004341   -0.00001718
     atom    7 type  1   force =    -0.00006727    0.00002856   -0.00007747
     atom    8 type  1   force =     0.00000895   -0.00000630    0.00000975
     atom    9 type  1   force =    -0.00008234    0.00008869    0.00019079
     atom   10 type  1   force =     0.00012036   -0.00009590   -0.00007125
     atom   11 type  1   force =    -0.00005661    0.00007191   -0.00005586
     atom   12 type  1   force =    -0.00039813    0.00031019    0.00001094
     atom   13 type  1   force =     0.00003897    0.00002471    0.00022116
     atom   14 type  1   force =    -0.00014342    0.00021859    0.00006068
     atom   15 type  1   force =     0.00000110    0.00000910   -0.00001548
     atom   16 type  1   force =     0.00010735   -0.00011563   -0.00004576
     atom   17 type  1   force =     0.00023196    0.00000845    0.00010546
     atom   18 type  1   force =    -0.00002650   -0.00004356   -0.00005418
     atom   19 type  1   force =    -0.00005064    0.00015773   -0.00005455
     atom   20 type  1   force =     0.00014092   -0.00002811    0.00014552
     atom   21 type  1   force =     0.00000129    0.00006343   -0.00002853
     atom   22 type  1   force =     0.00001791    0.00000170    0.00007051
     atom   23 type  1   force =    -0.00013413    0.00029591    0.00006123
     atom   24 type  1   force =    -0.00001057   -0.00002807    0.00001826
     atom   25 type  1   force =    -0.00009942    0.00001662   -0.00017217
     atom   26 type  1   force =     0.00005533    0.00003053    0.00001590
     atom   27 type  1   force =     0.00002686    0.00004827   -0.00010495
     atom   28 type  1   force =    -0.00077494   -0.00068300    0.00076412
     atom   29 type  1   force =    -0.00002101   -0.00000322   -0.00005133
     atom   30 type  1   force =    -0.00000720   -0.00006811   -0.00002875
     atom   31 type  1   force =    -0.00027656   -0.00024643   -0.00027873
     atom   32 type  1   force =    -0.00011119   -0.00014937   -0.00011286
     atom   33 type  1   force =    -0.00004794    0.00003065    0.00000467
     atom   34 type  1   force =     0.00023898   -0.00044318    0.00006005
     atom   35 type  1   force =    -0.00000721    0.00119827   -0.00048156
     atom   36 type  1   force =     0.00050332    0.00003460   -0.00000904
     atom   37 type  1   force =     0.00005027    0.00008134   -0.00014015
     atom   38 type  1   force =     0.00010197   -0.00014162   -0.00003598
     atom   39 type  1   force =     0.00006340    0.00012848    0.00009673
     atom   40 type  1   force =    -0.00008983    0.00003997    0.00012373
     atom   41 type  1   force =    -0.00160337    0.00114731   -0.00084285
     atom   42 type  1   force =     0.00055392   -0.00029604    0.00039759
     atom   43 type  1   force =    -0.00180153   -0.00112266   -0.00179563
     atom   44 type  1   force =    -0.00064001    0.00063971   -0.00064196
     atom   45 type  1   force =    -0.00017578    0.00001724   -0.00011010
     atom   46 type  1   force =     0.00001486    0.00003146    0.00005253
     atom   47 type  1   force =    -0.00029907   -0.00000946    0.00006545
     atom   48 type  1   force =     0.00018771    0.00011155   -0.00011460
     atom   49 type  1   force =    -0.00005275   -0.00002232    0.00000561
     atom   50 type  1   force =    -0.00000110    0.00008661   -0.00004587
     atom   51 type  1   force =     0.00000479   -0.00012822    0.00003292
     atom   52 type  1   force =     0.00007769   -0.00005938   -0.00001181
     atom   53 type  1   force =    -0.00017785    0.00036402    0.00017551
     atom   54 type  1   force =     0.00013824   -0.00001065    0.00011212
     atom   55 type  1   force =     0.00005597    0.00000250    0.00003631
     atom   56 type  1   force =     0.00004832   -0.00005878    0.00003949
     atom   57 type  1   force =    -0.00122687    0.00276534    0.00106903
     atom   58 type  1   force =     0.00023813    0.00029287   -0.00003723
     atom   59 type  1   force =    -0.00052456    0.00035977    0.00196121
     atom   60 type  1   force =     0.00014928    0.00033814   -0.00047331
     atom   61 type  1   force =     0.00014846   -0.00017011   -0.00021216
     atom   62 type  1   force =     0.00004243    0.00021329    0.00003391
     atom   63 type  1   force =    -0.00004657   -0.00003560   -0.00002028
     atom   64 type  1   force =     0.00013696   -0.00016667    0.00001258
     atom   65 type  1   force =    -0.00144729   -0.00036692   -0.00008502
     atom   66 type  1   force =    -0.00026712    0.00031745    0.00009440
     atom   67 type  1   force =     0.00002394    0.00005731    0.00002172
     atom   68 type  1   force =     0.00007065   -0.00002527    0.00008414
     atom   69 type  1   force =     0.00000583   -0.00002202   -0.00005325
     atom   70 type  1   force =    -0.00005399    0.00008044    0.00000463
     atom   71 type  1   force =    -0.00006917   -0.00013591    0.00009875
     atom   72 type  1   force =    -0.00002153   -0.00010554    0.00008695
     atom   73 type  1   force =     0.00001292    0.00003294   -0.00005290
     atom   74 type  1   force =    -0.00001703   -0.00003871    0.00002917
     atom   75 type  1   force =     0.00000433   -0.00001269   -0.00000129
     atom   76 type  1   force =    -0.00002866    0.00000993   -0.00003013
     atom   77 type  1   force =     0.00002367    0.00003978   -0.00001912
     atom   78 type  1   force =     0.00007942   -0.00012760    0.00012888
     atom   79 type  1   force =    -0.00001201    0.00000703   -0.00000269
     atom   80 type  1   force =    -0.00004248   -0.00012193    0.00011468
     atom   81 type  1   force =    -0.00001852    0.00004410    0.00001739
     atom   82 type  1   force =     0.00012571   -0.00012463    0.00008388
     atom   83 type  1   force =    -0.00015306    0.00001427    0.00004360
     atom   84 type  1   force =    -0.00011038   -0.00019636   -0.00026516
     atom   85 type  1   force =    -0.00016782   -0.00007146   -0.00014336
     atom   86 type  1   force =    -0.00003299    0.00001610   -0.00004036
     atom   87 type  1   force =     0.00002154    0.00001041    0.00002291
     atom   88 type  1   force =     0.00005531    0.00007285    0.00005917
     atom   89 type  1   force =    -0.00019548    0.00015935   -0.00055076
     atom   90 type  1   force =    -0.00001489   -0.00005742    0.00010719
     atom   91 type  1   force =     0.00000278    0.00001964   -0.00004314
     atom   92 type  1   force =    -0.00000272    0.00004627    0.00003260
     atom   93 type  1   force =     0.00018214    0.00008033   -0.00008919
     atom   94 type  1   force =    -0.00007291   -0.00009443    0.00012500
     atom   95 type  1   force =     0.00004827    0.00006854   -0.00006190
     atom   96 type  1   force =    -0.00000722    0.00002813    0.00023318
     atom   97 type  1   force =    -0.00004776   -0.00000543   -0.00002242
     atom   98 type  1   force =    -0.00002368   -0.00006833   -0.00000526
     atom   99 type  1   force =    -0.00005125    0.00007470   -0.00004774
     atom  100 type  1   force =     0.00010508    0.00007217    0.00010194
     atom  101 type  1   force =     0.00006595   -0.00001675    0.00001499
     atom  102 type  1   force =    -0.00005924   -0.00008908    0.00000292
     atom  103 type  1   force =     0.00009008    0.00013017    0.00006814
     atom  104 type  1   force =     0.00012931    0.00004100   -0.00008292
     atom  105 type  1   force =     0.00001986   -0.00001159    0.00006542
     atom  106 type  1   force =    -0.00000212   -0.00009176   -0.00006244
     atom  107 type  1   force =     0.00011169   -0.00001706    0.00005438
     atom  108 type  1   force =     0.00003469    0.00003815   -0.00007861
     atom  109 type  1   force =    -0.00013797   -0.00033501    0.00064784
     atom  110 type  1   force =    -0.00063760   -0.00117057   -0.00150656
     atom  111 type  1   force =     0.00008481   -0.00042394    0.00009289
     atom  112 type  1   force =     0.00163122    0.00066682    0.00162034
     atom  113 type  1   force =    -0.00007439   -0.00004773    0.00006284
     atom  114 type  1   force =    -0.00027387   -0.00005910   -0.00013757
     atom  115 type  1   force =    -0.00010379    0.00004655    0.00002141
     atom  116 type  1   force =     0.00076051   -0.00068585   -0.00076935
     atom  117 type  1   force =     0.00000981    0.00002732   -0.00005369
     atom  118 type  1   force =     0.00006124   -0.00044887    0.00024289
     atom  119 type  1   force =    -0.00057747    0.00048301    0.00042320
     atom  120 type  1   force =     0.00222635   -0.00975405   -0.00223869
     atom  121 type  1   force =     0.00017556    0.00037075   -0.00018365
     atom  122 type  1   force =     0.00011300   -0.00001163    0.00013798
     atom  123 type  1   force =    -0.00003828   -0.00002007   -0.00003449
     atom  124 type  1   force =    -0.00000996   -0.00006834   -0.00000854
     atom  125 type  1   force =     0.00000472   -0.00001726    0.00002694
     atom  126 type  1   force =     0.00011151    0.00010108    0.00035736
     atom  127 type  1   force =    -0.00002127   -0.00003645   -0.00004479
     atom  128 type  1   force =     0.00000767   -0.00017218    0.00013937
     atom  129 type  1   force =     0.00003033   -0.00001838    0.00000717
     atom  130 type  1   force =     0.00035433    0.00010357    0.00010753
     atom  131 type  1   force =     0.00008776   -0.00004174   -0.00012635
     atom  132 type  1   force =    -0.00038662    0.00048651    0.00110633
     atom  133 type  1   force =     0.00169917   -0.00029401    0.00009693
     atom  134 type  1   force =    -0.00312316    0.00522689    0.00787289
     atom  135 type  1   force =    -0.00009522    0.00007226   -0.00009560
     atom  136 type  1   force =     0.00039838   -0.00024472    0.00039022
     atom  137 type  1   force =    -0.00014282   -0.00024007    0.00024456
     atom  138 type  1   force =    -0.00007375    0.00032963    0.00004324
     atom  139 type  1   force =     0.00004477   -0.00011818    0.00000509
     atom  140 type  1   force =    -0.00000794   -0.00006424    0.00007641
     atom  141 type  1   force =     0.00108060    0.00277492   -0.00123902
     atom  142 type  1   force =    -0.00004475    0.00029834    0.00024354
     atom  143 type  1   force =     0.00003968    0.00097293   -0.00335022
     atom  144 type  1   force =    -0.00006250   -0.00024518   -0.00001439
     atom  145 type  1   force =     0.00021688    0.00002513    0.00003590
     atom  146 type  1   force =     0.00006336    0.00021844   -0.00013214
     atom  147 type  1   force =     0.00004896    0.00001807   -0.00015375
     atom  148 type  1   force =    -0.00025364   -0.00019177   -0.00011223
     atom  149 type  1   force =    -0.00054939    0.00016275   -0.00019430
     atom  150 type  1   force =     0.00011049   -0.00005841   -0.00001669
     atom  151 type  1   force =     0.00006741    0.00029052   -0.00012848
     atom  152 type  1   force =     0.00001940   -0.00003463   -0.00001181
     atom  153 type  1   force =    -0.00014780   -0.00007959   -0.00015905
     atom  154 type  1   force =    -0.00003515    0.00001498   -0.00003572
     atom  155 type  1   force =    -0.00008428   -0.00002221   -0.00007449
     atom  156 type  1   force =    -0.00005502   -0.00017641   -0.00006561
     atom  157 type  1   force =    -0.00012264   -0.00034841    0.00030404
     atom  158 type  1   force =     0.00004925   -0.00005278    0.00001351
     atom  159 type  1   force =    -0.00006139    0.00007202    0.00005292
     atom  160 type  1   force =     0.00022737    0.00001767   -0.00001744
     atom  161 type  1   force =     0.00030520   -0.00035319   -0.00011939
     atom  162 type  1   force =     0.00001409   -0.00005594    0.00005488
     atom  163 type  1   force =    -0.00005633    0.00007231   -0.00006243
     atom  164 type  1   force =     0.00001484    0.00030540   -0.00039420
     atom  165 type  1   force =     0.00011404    0.00000560    0.00022848
     atom  166 type  1   force =    -0.00005051   -0.00004335   -0.00001703
     atom  167 type  1   force =     0.00019000    0.00017774    0.00019471
     atom  168 type  1   force =     0.00018561   -0.00039110    0.00018604
     atom  169 type  1   force =    -0.00013968    0.00008018    0.00004905
     atom  170 type  1   force =    -0.00003725   -0.00015247    0.00010148
     atom  171 type  1   force =     0.00005785   -0.00001996    0.00011189
     atom  172 type  1   force =    -0.00008624    0.00003334    0.00004402
     atom  173 type  1   force =     0.00006121   -0.00004846   -0.00007375
     atom  174 type  1   force =    -0.00013942   -0.00005388   -0.00027014
     atom  175 type  1   force =     0.00007336   -0.00000156   -0.00029541
     atom  176 type  1   force =    -0.00011418    0.00010747    0.00019256
     atom  177 type  1   force =     0.00064269   -0.00033589   -0.00014377
     atom  178 type  1   force =    -0.00150256   -0.00117146   -0.00064321
     atom  179 type  1   force =    -0.00025956    0.00007628   -0.00021608
     atom  180 type  1   force =     0.00322892   -0.00424578   -0.00221229
     atom  181 type  1   force =     0.00042608    0.00048409   -0.00057831
     atom  182 type  1   force =    -0.00223909   -0.00974126    0.00221884
     atom  183 type  1   force =    -0.00021874    0.00007848   -0.00026101
     atom  184 type  1   force =    -0.00221250   -0.00425193    0.00323644
     atom  185 type  1   force =    -0.00048495    0.00119997    0.00000167
     atom  186 type  1   force =    -0.00001518    0.00003486    0.00050996
     atom  187 type  1   force =    -0.00084375    0.00114217   -0.00159954
     atom  188 type  1   force =     0.00039308   -0.00029708    0.00055765
     atom  189 type  1   force =     0.00951682   -0.03063183    0.00951709
     atom  190 type  1   force =     0.00146639    0.00743613    0.00147668
     atom  191 type  1   force =    -0.00020729   -0.00016886    0.00015194
     atom  192 type  1   force =     0.00002393    0.00021061    0.00005245
     atom  193 type  1   force =    -0.00012247   -0.00004816    0.00008055
     atom  194 type  1   force =     0.00112280    0.00048955   -0.00038410
     atom  195 type  1   force =     0.00025501   -0.00023860   -0.00014285
     atom  196 type  1   force =     0.00004142    0.00032512   -0.00007062
     atom  197 type  1   force =     0.00010530   -0.00014264   -0.00007274
     atom  198 type  1   force =     0.00008903   -0.00010038   -0.00001217
     atom  199 type  1   force =     0.00009326   -0.00028331    0.00170772
     atom  200 type  1   force =     0.00789124    0.00522018   -0.00314536
     atom  201 type  1   force =    -0.00149851   -0.00126811   -0.00148453
     atom  202 type  1   force =    -0.00010567    0.00036844   -0.00010593
     atom  203 type  1   force =    -0.02982057    0.01627766    0.01875066
     atom  204 type  1   force =     0.00184010    0.00468801   -0.00369667
     atom  205 type  1   force =    -0.00336057    0.00098799    0.00002971
     atom  206 type  1   force =    -0.00002280   -0.00025241   -0.00006463
     atom  207 type  1   force =     0.01875371    0.01627473   -0.02978504
     atom  208 type  1   force =    -0.00368521    0.00468132    0.00183421
     atom  209 type  1   force =     0.00194888    0.00035547   -0.00052875
     atom  210 type  1   force =    -0.00047367    0.00033564    0.00015659
     atom  211 type  1   force =    -0.00008599   -0.00036936   -0.00144036
     atom  212 type  1   force =     0.00008764    0.00032529   -0.00026350
     atom  213 type  1   force =     0.00169960   -0.00044338    0.00171095
     atom  214 type  1   force =    -0.00032469    0.00020501   -0.00032854
     atom  215 type  2   force =     0.00199655   -0.00909174    0.00200671
     The non-local contrib.  to forces
     atom    1 type  1   force =     0.00494006    0.00313748    0.00375981
     atom    2 type  1   force =     0.00416216    0.00133351    0.00240122
     atom    3 type  1   force =     0.00500234   -0.00229885   -0.00176357
     atom    4 type  1   force =     0.00524798   -0.00311443   -0.00316461
     atom    5 type  1   force =     0.00295339    0.00286570   -0.00276205
     atom    6 type  1   force =     0.00191360    0.00102462   -0.00070322
     atom    7 type  1   force =     0.00332250   -0.00300828    0.00331011
     atom    8 type  1   force =     0.00204118   -0.00114357    0.00203582
     atom    9 type  1   force =     0.01044581    0.00871989   -0.01126869
     atom   10 type  1   force =     0.00538938    0.00169236   -0.00045271
     atom   11 type  1   force =     0.00267804   -0.00447089   -0.01167929
     atom   12 type  1   force =     0.01652325   -0.01808917   -0.01773793
     atom   13 type  1   force =     0.00631620    0.00549433   -0.01556106
     atom   14 type  1   force =     0.00297076    0.00296105    0.00021926
     atom   15 type  1   force =     0.00369700   -0.00199614   -0.00743207
     atom   16 type  1   force =     0.00386294   -0.00508471   -0.00397060
     atom   17 type  1   force =     0.00637987    0.01008167   -0.00070503
     atom   18 type  1   force =     0.00801799    0.00042867    0.00424213
     atom   19 type  1   force =     0.01066129   -0.00797341    0.01065605
     atom   20 type  1   force =     0.00644391   -0.00438518    0.00644513
     atom   21 type  1   force =     0.00378037    0.00313354    0.00493106
     atom   22 type  1   force =     0.00240836    0.00132977    0.00416444
     atom   23 type  1   force =     0.00622521   -0.00314304    0.00772840
     atom   24 type  1   force =     0.00425192   -0.00411692    0.00145967
     atom   25 type  1   force =     0.01163646   -0.01215877    0.01105960
     atom   26 type  1   force =     0.00628474   -0.00002286    0.00315510
     atom   27 type  1   force =     0.00261614   -0.00913794   -0.00166615
     atom   28 type  1   force =     0.01294897   -0.02102085   -0.01471845
     atom   29 type  1   force =     0.00375614   -0.00665897   -0.00174245
     atom   30 type  1   force =     0.00344870   -0.00349920   -0.00516721
     atom   31 type  1   force =     0.00616774   -0.01445803    0.00616375
     atom   32 type  1   force =     0.00307426   -0.00244188    0.00306790
     atom   33 type  1   force =     0.00419338   -0.01034458   -0.01158535
     atom   34 type  1   force =     0.02329840   -0.02179868   -0.02443191
     atom   35 type  1   force =     0.06545776    0.00358217   -0.01024673
     atom   36 type  1   force =     0.03601538   -0.00296720   -0.00435454
     atom   37 type  1   force =     0.01228088   -0.00549807   -0.00290881
     atom   38 type  1   force =     0.00631045   -0.00775806   -0.00273210
     atom   39 type  1   force =     0.01088223   -0.00061140   -0.00600281
     atom   40 type  1   force =     0.00528527   -0.00244469   -0.00833304
     atom   41 type  1   force =     0.03692526   -0.03689473    0.04778485
     atom   42 type  1   force =     0.02897731   -0.00864350    0.00497850
     atom   43 type  1   force =     0.03826978   -0.05794498    0.03827907
     atom   44 type  1   force =     0.01873139    0.02066268    0.01872983
     atom   45 type  1   force =     0.01105391   -0.01215928    0.01162522
     atom   46 type  1   force =     0.00315624   -0.00002013    0.00627492
     atom   47 type  1   force =     0.01921089   -0.00716588    0.00420457
     atom   48 type  1   force =     0.00443554    0.00056408    0.00713931
     atom   49 type  1   force =     0.00573811   -0.00121299    0.01204390
     atom   50 type  1   force =     0.00786250    0.00441763    0.00250118
     atom   51 type  1   force =     0.00989920    0.00910544   -0.00603467
     atom   52 type  1   force =     0.00537820    0.00474029   -0.00336592
     atom   53 type  1   force =     0.00505782    0.01107672   -0.00162049
     atom   54 type  1   force =     0.00324343    0.00017326   -0.00344443
     atom   55 type  1   force =     0.00378170    0.00527950    0.00375610
     atom   56 type  1   force =     0.00228762    0.00300202    0.00227429
     atom   57 type  1   force =     0.02684287    0.05352949   -0.02592534
     atom   58 type  1   force =     0.02403225    0.00314733   -0.00943810
     atom   59 type  1   force =     0.03522394    0.03470524   -0.05543081
     atom   60 type  1   force =     0.01823880    0.01852211    0.01944903
     atom   61 type  1   force =     0.01822831    0.00580479   -0.00954488
     atom   62 type  1   force =     0.00346173    0.00688109    0.00019687
     atom   63 type  1   force =     0.00936895    0.01050455   -0.01212371
     atom   64 type  1   force =     0.00238983    0.00425887   -0.00007791
     atom   65 type  1   force =     0.06601908    0.00512246   -0.00603608
     atom   66 type  1   force =     0.02661193    0.02256347    0.02219983
     atom   67 type  1   force =     0.01004179    0.01056328    0.01003577
     atom   68 type  1   force =     0.00924615    0.00801947    0.00925902
     atom   69 type  1   force =     0.01204447   -0.00121687    0.00573462
     atom   70 type  1   force =     0.00249293    0.00441168    0.00786539
     atom   71 type  1   force =     0.01157567    0.00560860   -0.00229457
     atom   72 type  1   force =     0.00209663    0.00704703    0.00517121
     atom   73 type  1   force =    -0.00275212    0.00286140    0.00295036
     atom   74 type  1   force =    -0.00069803    0.00103321    0.00191276
     atom   75 type  1   force =    -0.00215327   -0.00201232   -0.00215821
     atom   76 type  1   force =    -0.00181231   -0.00202094   -0.00181836
     atom   77 type  1   force =    -0.00751079    0.00363133   -0.00197222
     atom   78 type  1   force =    -0.00263531    0.00247959   -0.00412284
     atom   79 type  1   force =    -0.00742748   -0.00200468    0.00369262
     atom   80 type  1   force =    -0.00396227   -0.00509113    0.00387034
     atom   81 type  1   force =    -0.00197247    0.00363832   -0.00751799
     atom   82 type  1   force =    -0.00412880    0.00248478   -0.00263270
     atom   83 type  1   force =    -0.00104626   -0.00137436   -0.00958495
     atom   84 type  1   force =    -0.00592851   -0.00573381    0.00635960
     atom   85 type  1   force =    -0.00628400    0.01026336   -0.00438790
     atom   86 type  1   force =    -0.00822234    0.00478363   -0.00204483
     atom   87 type  1   force =    -0.00782872   -0.00216436   -0.00782413
     atom   88 type  1   force =    -0.00269904   -0.00644766   -0.00269387
     atom   89 type  1   force =    -0.00308145    0.00558277    0.00724107
     atom   90 type  1   force =    -0.00349916    0.00316176    0.00134909
     atom   91 type  1   force =    -0.00177133   -0.00231656    0.00498985
     atom   92 type  1   force =    -0.00315859   -0.00311657    0.00524497
     atom   93 type  1   force =    -0.01127833    0.00870526    0.01043681
     atom   94 type  1   force =    -0.00045627    0.00169827    0.00539312
     atom   95 type  1   force =    -0.00626801   -0.00243480    0.00189548
     atom   96 type  1   force =    -0.00274583   -0.01216062    0.00434884
     atom   97 type  1   force =    -0.00173824   -0.00666482    0.00375526
     atom   98 type  1   force =    -0.00515804   -0.00349715    0.00344709
     atom   99 type  1   force =    -0.00118933   -0.00842740   -0.00118398
     atom  100 type  1   force =    -0.00552673    0.00779457   -0.00553108
     atom  101 type  1   force =    -0.00791316   -0.00722880   -0.00214082
     atom  102 type  1   force =    -0.00223804   -0.00119939   -0.00697709
     atom  103 type  1   force =    -0.00601285   -0.00061346    0.01089232
     atom  104 type  1   force =    -0.00832458   -0.00244214    0.00529365
     atom  105 type  1   force =    -0.00213837   -0.00722144   -0.00791342
     atom  106 type  1   force =    -0.00698196   -0.00120312   -0.00224157
     atom  107 type  1   force =    -0.00182952   -0.00518231   -0.00592935
     atom  108 type  1   force =    -0.01635085   -0.00285214   -0.00398360
     atom  109 type  1   force =    -0.02975799   -0.03032364   -0.04832087
     atom  110 type  1   force =     0.11683302    0.12455326   -0.12961346
     atom  111 type  1   force =    -0.02952873   -0.05109545   -0.02951759
     atom  112 type  1   force =     0.12464198   -0.12138520    0.12463470
     atom  113 type  1   force =    -0.00101588   -0.00572966    0.00171972
     atom  114 type  1   force =    -0.01197911   -0.00087561    0.00505548
     atom  115 type  1   force =    -0.00166546   -0.00914370    0.00261135
     atom  116 type  1   force =    -0.01471995   -0.02101740    0.01294896
     atom  117 type  1   force =    -0.01158023   -0.01035561    0.00418906
     atom  118 type  1   force =    -0.02443256   -0.02180166    0.02330350
     atom  119 type  1   force =    -0.03909811   -0.03659901   -0.01578750
     atom  120 type  1   force =    -0.08471797   -0.07066806    0.04809011
     atom  121 type  1   force =    -0.00161969    0.01108085    0.00504980
     atom  122 type  1   force =    -0.00344507    0.00017442    0.00324367
     atom  123 type  1   force =    -0.00226144    0.00553533   -0.00225552
     atom  124 type  1   force =    -0.00274279    0.00356053   -0.00274171
     atom  125 type  1   force =    -0.00575373    0.00269821   -0.00106592
     atom  126 type  1   force =    -0.00180349    0.00339879   -0.01038125
     atom  127 type  1   force =    -0.01212488    0.01049836    0.00937279
     atom  128 type  1   force =    -0.00008145    0.00425470    0.00239285
     atom  129 type  1   force =    -0.00106161    0.00269996   -0.00575214
     atom  130 type  1   force =    -0.01038646    0.00340173   -0.00180708
     atom  131 type  1   force =    -0.00267780    0.00230545   -0.01113106
     atom  132 type  1   force =    -0.01768256    0.01625586   -0.01721972
     atom  133 type  1   force =    -0.03810279   -0.01410593   -0.03675285
     atom  134 type  1   force =    -0.09208856    0.06788485   -0.05383858
     atom  135 type  1   force =    -0.01114954    0.00453131   -0.01115008
     atom  136 type  1   force =    -0.01847831    0.02064090   -0.01848368
     atom  137 type  1   force =    -0.00479346   -0.00105699   -0.00097242
     atom  138 type  1   force =    -0.02532022    0.00381534    0.00440056
     atom  139 type  1   force =    -0.00601987    0.00911322    0.00989850
     atom  140 type  1   force =    -0.00336050    0.00473976    0.00537616
     atom  141 type  1   force =    -0.02591289    0.05353169    0.02682898
     atom  142 type  1   force =    -0.00944848    0.00315660    0.02403698
     atom  143 type  1   force =    -0.03182638    0.03269204    0.04510534
     atom  144 type  1   force =    -0.00956525    0.02515520    0.00391833
     atom  145 type  1   force =    -0.01556496    0.00549000    0.00630972
     atom  146 type  1   force =     0.00022331    0.00296006    0.00298745
     atom  147 type  1   force =    -0.00957758   -0.00136990   -0.00104421
     atom  148 type  1   force =     0.00637638   -0.00572977   -0.00592929
     atom  149 type  1   force =     0.00724329    0.00559180   -0.00308264
     atom  150 type  1   force =     0.00135870    0.00315703   -0.00349722
     atom  151 type  1   force =     0.00773393   -0.00315298    0.00623332
     atom  152 type  1   force =     0.00146751   -0.00412772    0.00425309
     atom  153 type  1   force =    -0.00439466    0.01025684   -0.00627288
     atom  154 type  1   force =    -0.00204287    0.00477995   -0.00822189
     atom  155 type  1   force =    -0.00688801   -0.00432952   -0.00687583
     atom  156 type  1   force =    -0.00408448   -0.01968649   -0.00409713
     atom  157 type  1   force =     0.00341489    0.01548613   -0.00708626
     atom  158 type  1   force =     0.00697217    0.00195432   -0.00058883
     atom  159 type  1   force =     0.00189657   -0.00242669   -0.00626504
     atom  160 type  1   force =     0.00434548   -0.01217876   -0.00275823
     atom  161 type  1   force =    -0.00708229    0.01547606    0.00341868
     atom  162 type  1   force =    -0.00059040    0.00194959    0.00698210
     atom  163 type  1   force =    -0.01167847   -0.00447723    0.00267203
     atom  164 type  1   force =    -0.01773149   -0.01809623    0.01652846
     atom  165 type  1   force =    -0.00069160    0.01007455    0.00637632
     atom  166 type  1   force =     0.00424802    0.00042650    0.00802853
     atom  167 type  1   force =    -0.00170770   -0.00823648   -0.00170072
     atom  168 type  1   force =     0.00527396   -0.02986306    0.00527546
     atom  169 type  1   force =    -0.00291115   -0.00550593    0.01228148
     atom  170 type  1   force =    -0.00272940   -0.00777279    0.00630899
     atom  171 type  1   force =    -0.00592630   -0.00518764   -0.00182668
     atom  172 type  1   force =    -0.00399129   -0.00286129   -0.01633718
     atom  173 type  1   force =     0.00171789   -0.00572667   -0.00101683
     atom  174 type  1   force =     0.00505653   -0.00087207   -0.01197455
     atom  175 type  1   force =     0.00421255   -0.00715792    0.01921813
     atom  176 type  1   force =     0.00714416    0.00055784    0.00444364
     atom  177 type  1   force =    -0.04833045   -0.03032286   -0.02976574
     atom  178 type  1   force =    -0.12961016    0.12454914    0.11682835
     atom  179 type  1   force =    -0.01961542   -0.04551894   -0.04642562
     atom  180 type  1   force =     0.07474082   -0.10695563   -0.08089890
     atom  181 type  1   force =    -0.01578528   -0.03658909   -0.03909717
     atom  182 type  1   force =     0.04808421   -0.07064962   -0.08472381
     atom  183 type  1   force =    -0.04642606   -0.04551922   -0.01961577
     atom  184 type  1   force =    -0.08089851   -0.10696190    0.07475183
     atom  185 type  1   force =    -0.01025343    0.00357385    0.06547302
     atom  186 type  1   force =    -0.00436352   -0.00296457    0.03602909
     atom  187 type  1   force =     0.04778248   -0.03690618    0.03693168
     atom  188 type  1   force =     0.00497363   -0.00864579    0.02898412
     atom  189 type  1   force =     0.26797345   -0.32706555    0.26798564
     atom  190 type  1   force =     0.08499926    0.08369428    0.08501618
     atom  191 type  1   force =    -0.00953983    0.00580237    0.01823508
     atom  192 type  1   force =     0.00018764    0.00687693    0.00347632
     atom  193 type  1   force =    -0.01112583    0.00229678   -0.00268815
     atom  194 type  1   force =    -0.01719918    0.01626233   -0.01768052
     atom  195 type  1   force =    -0.00096137   -0.00105519   -0.00479081
     atom  196 type  1   force =     0.00440219    0.00380724   -0.02531647
     atom  197 type  1   force =    -0.00228721    0.00560245    0.01157167
     atom  198 type  1   force =     0.00517643    0.00705038    0.00210850
     atom  199 type  1   force =    -0.03675770   -0.01408764   -0.03809483
     atom  200 type  1   force =    -0.05381452    0.06787998   -0.09211207
     atom  201 type  1   force =    -0.01130724    0.05783586   -0.01129563
     atom  202 type  1   force =    -0.00449907    0.03426403   -0.00449505
     atom  203 type  1   force =     0.15666129    0.22640212   -0.19709706
     atom  204 type  1   force =     0.06869028    0.08272173    0.05095205
     atom  205 type  1   force =     0.04509533    0.03271748   -0.03184464
     atom  206 type  1   force =     0.00390970    0.02514463   -0.00956509
     atom  207 type  1   force =    -0.19709151    0.22640239    0.15671910
     atom  208 type  1   force =     0.05096406    0.08271081    0.06869147
     atom  209 type  1   force =    -0.05544065    0.03469751    0.03522015
     atom  210 type  1   force =     0.01944630    0.01851622    0.01824914
     atom  211 type  1   force =    -0.00603595    0.00511931    0.06602935
     atom  212 type  1   force =     0.02219146    0.02257294    0.02662094
     atom  213 type  1   force =     0.00632304    0.06171270    0.00633114
     atom  214 type  1   force =     0.01856378    0.02632811    0.01856051
     atom  215 type  2   force =    -0.76724589   -0.78256522   -0.76724358
     The ionic contribution  to forces
     atom    1 type  1   force =    -0.05715143   -0.02215204   -0.06409715
     atom    2 type  1   force =    -0.04198245    0.00264751   -0.00277185
     atom    3 type  1   force =    -0.04258975    0.01346718    0.02491707
     atom    4 type  1   force =    -0.09973199    0.05268152    0.08877129
     atom    5 type  1   force =    -0.04021561   -0.01098479    0.00702465
     atom    6 type  1   force =    -0.01631254   -0.01869456    0.05232829
     atom    7 type  1   force =    -0.04740615    0.00225655   -0.04736491
     atom    8 type  1   force =    -0.01979268    0.01249364   -0.01979422
     atom    9 type  1   force =    -0.08505879   -0.03835765    0.08153156
     atom   10 type  1   force =    -0.11279586    0.00850521    0.09394613
     atom   11 type  1   force =    -0.14059980    0.10532051    0.01315755
     atom   12 type  1   force =    -0.18636594    0.10979081    0.01329664
     atom   13 type  1   force =    -0.06319101   -0.03000070   -0.02608195
     atom   14 type  1   force =    -0.02774943   -0.01629831    0.04487045
     atom   15 type  1   force =    -0.07772603   -0.00200233    0.02584370
     atom   16 type  1   force =    -0.07860323    0.01351601    0.07617298
     atom   17 type  1   force =    -0.16349872   -0.10373672   -0.02160198
     atom   18 type  1   force =    -0.09947484   -0.00439373   -0.04248173
     atom   19 type  1   force =    -0.10620797    0.04882384   -0.10619604
     atom   20 type  1   force =    -0.07189953    0.03672096   -0.07185989
     atom   21 type  1   force =    -0.06404557   -0.02219137   -0.05712554
     atom   22 type  1   force =    -0.00277189    0.00266123   -0.04196603
     atom   23 type  1   force =    -0.09115839    0.03448337   -0.01292773
     atom   24 type  1   force =    -0.02198634    0.04748929   -0.02645272
     atom   25 type  1   force =    -0.08695512    0.03768513   -0.07993604
     atom   26 type  1   force =    -0.09713342    0.02628143   -0.01433854
     atom   27 type  1   force =    -0.13873687   -0.03212862    0.11048943
     atom   28 type  1   force =    -0.12771475   -0.07361875    0.09239658
     atom   29 type  1   force =    -0.07891513   -0.01499730    0.00932811
     atom   30 type  1   force =    -0.07332754    0.01569123    0.04597224
     atom   31 type  1   force =    -0.06630740   -0.05644989   -0.06624210
     atom   32 type  1   force =    -0.02957629    0.00233142   -0.02955013
     atom   33 type  1   force =    -0.11174228    0.09860648    0.16064116
     atom   34 type  1   force =    -0.26442600    0.08966568    0.16081375
     atom   35 type  1   force =    -0.71920856    0.12628667    0.26474000
     atom   36 type  1   force =    -0.45325053   -0.01194938    0.02781681
     atom   37 type  1   force =    -0.16728929    0.07386006    0.04827849
     atom   38 type  1   force =    -0.08598783    0.06136944    0.05660922
     atom   39 type  1   force =    -0.15523678    0.00042760    0.13505553
     atom   40 type  1   force =    -0.07029504    0.04337030    0.10896550
     atom   41 type  1   force =    -0.32733956    0.27066570   -0.21610293
     atom   42 type  1   force =    -0.23814654    0.08465301   -0.13916618
     atom   43 type  1   force =    -0.27903007    0.10215757   -0.27899179
     atom   44 type  1   force =    -0.13901405    0.05134791   -0.13897929
     atom   45 type  1   force =    -0.07998306    0.03767477   -0.08693042
     atom   46 type  1   force =    -0.01437664    0.02633167   -0.09712692
     atom   47 type  1   force =    -0.18365626    0.04497221   -0.05117200
     atom   48 type  1   force =    -0.03756091   -0.00136655   -0.08036973
     atom   49 type  1   force =    -0.13706791   -0.01749052   -0.12802153
     atom   50 type  1   force =    -0.08253861   -0.00072395   -0.01459666
     atom   51 type  1   force =    -0.08219996   -0.02283575    0.03922726
     atom   52 type  1   force =    -0.06860741   -0.02341621    0.07597963
     atom   53 type  1   force =    -0.05831718    0.04806567    0.02937683
     atom   54 type  1   force =    -0.00437911    0.00933482    0.08442382
     atom   55 type  1   force =    -0.05699290    0.00374632   -0.05703231
     atom   56 type  1   force =     0.00080968   -0.00778496    0.00076699
     atom   57 type  1   force =    -0.22799873   -0.08205856    0.23433939
     atom   58 type  1   force =    -0.21785153   -0.08510434    0.14844818
     atom   59 type  1   force =    -0.27925273   -0.18977646    0.16583384
     atom   60 type  1   force =    -0.15073631   -0.08594290    0.07520758
     atom   61 type  1   force =    -0.16066517   -0.03934290    0.09754367
     atom   62 type  1   force =    -0.02098371   -0.04001209    0.01166691
     atom   63 type  1   force =    -0.04973687   -0.01020274    0.06675500
     atom   64 type  1   force =     0.00512320   -0.06049303    0.08859627
     atom   65 type  1   force =    -0.79066014   -0.19572192   -0.17606894
     atom   66 type  1   force =    -0.24776676   -0.08677089   -0.12739773
     atom   67 type  1   force =    -0.17713750   -0.12192254   -0.17713160
     atom   68 type  1   force =    -0.08418327   -0.04071066   -0.08411187
     atom   69 type  1   force =    -0.12804876   -0.01749844   -0.13702111
     atom   70 type  1   force =    -0.01464821   -0.00067545   -0.08241431
     atom   71 type  1   force =    -0.12526217   -0.09306287   -0.03000113
     atom   72 type  1   force =    -0.01019530   -0.03807452   -0.03814606
     atom   73 type  1   force =     0.00701835   -0.01105564   -0.04020579
     atom   74 type  1   force =     0.05234164   -0.01866617   -0.01634052
     atom   75 type  1   force =    -0.02051516   -0.03152755   -0.02052033
     atom   76 type  1   force =     0.01875163   -0.02473033    0.01869423
     atom   77 type  1   force =     0.02466110   -0.04823298    0.02206559
     atom   78 type  1   force =     0.08279594   -0.08713886    0.06845871
     atom   79 type  1   force =     0.02586426   -0.00209277   -0.07769354
     atom   80 type  1   force =     0.07626001    0.01355829   -0.07858796
     atom   81 type  1   force =     0.02207332   -0.04818691    0.02463679
     atom   82 type  1   force =     0.06846422   -0.08710627    0.08276030
     atom   83 type  1   force =    -0.00235256   -0.02937067    0.00533121
     atom   84 type  1   force =     0.05832008    0.01621958    0.14012659
     atom   85 type  1   force =     0.14843546   -0.15653776    0.02637904
     atom   86 type  1   force =     0.11917784   -0.08387095    0.04753889
     atom   87 type  1   force =     0.02670748   -0.08284784    0.02671506
     atom   88 type  1   force =     0.11463955   -0.10585679    0.11463457
     atom   89 type  1   force =     0.05266509   -0.04836928   -0.01524630
     atom   90 type  1   force =     0.09326405   -0.00367623   -0.03494923
     atom   91 type  1   force =     0.02492311    0.01335184   -0.04253611
     atom   92 type  1   force =     0.08883384    0.05272982   -0.09968547
     atom   93 type  1   force =     0.08155505   -0.03848541   -0.08500751
     atom   94 type  1   force =     0.09395896    0.00856267   -0.11270799
     atom   95 type  1   force =     0.14775037    0.03727926    0.05547883
     atom   96 type  1   force =     0.23758780    0.20480351   -0.11743964
     atom   97 type  1   force =     0.00929766   -0.01505594   -0.07881662
     atom   98 type  1   force =     0.04604950    0.01573158   -0.07333769
     atom   99 type  1   force =    -0.01227773   -0.02598495   -0.01223416
     atom  100 type  1   force =     0.04238515    0.15258705    0.04235389
     atom  101 type  1   force =     0.01877159   -0.02710729   -0.06479699
     atom  102 type  1   force =     0.11073467    0.06406752   -0.07232630
     atom  103 type  1   force =     0.13507237    0.00035945   -0.15515007
     atom  104 type  1   force =     0.10903437    0.04343705   -0.07025764
     atom  105 type  1   force =    -0.06483266   -0.02707306    0.01877081
     atom  106 type  1   force =    -0.07230915    0.06407591    0.11062294
     atom  107 type  1   force =     0.01655296    0.10384548    0.13321825
     atom  108 type  1   force =     0.21716613    0.12624135    0.11371379
     atom  109 type  1   force =    -0.02916269   -0.09372682    0.23522033
     atom  110 type  1   force =     0.32421475    0.26886928    1.26869465
     atom  111 type  1   force =    -0.05871697    0.17384891   -0.05873262
     atom  112 type  1   force =     0.27575909    1.33925720    0.27571601
     atom  113 type  1   force =     0.05431162    0.08384149    0.05332274
     atom  114 type  1   force =     0.21206435    0.14449856   -0.09426317
     atom  115 type  1   force =     0.11045693   -0.03220075   -0.13867321
     atom  116 type  1   force =     0.09238538   -0.07356182   -0.12763804
     atom  117 type  1   force =     0.16070456    0.09852959   -0.11169935
     atom  118 type  1   force =     0.16093592    0.08971446   -0.26444207
     atom  119 type  1   force =     0.74520916    0.19096494    0.07885403
     atom  120 type  1   force =     0.70881668   -0.37903816   -0.71801278
     atom  121 type  1   force =     0.02936440    0.04806753   -0.05827876
     atom  122 type  1   force =     0.08447880    0.00937869   -0.00439441
     atom  123 type  1   force =     0.03127502    0.02062596    0.03124261
     atom  124 type  1   force =     0.10020928   -0.06886755    0.10017042
     atom  125 type  1   force =     0.13582778    0.08385090    0.06868713
     atom  126 type  1   force =     0.20952030   -0.04732513    0.24188146
     atom  127 type  1   force =     0.06680057   -0.01025172   -0.04973042
     atom  128 type  1   force =     0.08860378   -0.06051139    0.00514688
     atom  129 type  1   force =     0.06869270    0.08386639    0.13577831
     atom  130 type  1   force =     0.24186275   -0.04729333    0.20942397
     atom  131 type  1   force =     0.13437803   -0.08255844   -0.00011731
     atom  132 type  1   force =     0.15330896   -0.12343532   -0.01798256
     atom  133 type  1   force =     0.74440730    0.16569053    0.23353177
     atom  134 type  1   force =     0.90712795   -0.70133926   -0.29392995
     atom  135 type  1   force =     0.16651241   -0.06084871    0.16646016
     atom  136 type  1   force =     0.20146936   -0.26908369    0.20137910
     atom  137 type  1   force =     0.13890433   -0.02530179   -0.06166425
     atom  138 type  1   force =     0.19174173   -0.06924626   -0.15018918
     atom  139 type  1   force =     0.03928044   -0.02282615   -0.08213126
     atom  140 type  1   force =     0.07598100   -0.02337712   -0.06858517
     atom  141 type  1   force =     0.23441894   -0.08205179   -0.22794356
     atom  142 type  1   force =     0.14845900   -0.08501458   -0.21781881
     atom  143 type  1   force =     0.31265058   -0.21643748   -0.22801673
     atom  144 type  1   force =     0.15187613   -0.17694115   -0.17102356
     atom  145 type  1   force =    -0.02607642   -0.03007291   -0.06318815
     atom  146 type  1   force =     0.04497461   -0.01626388   -0.02765850
     atom  147 type  1   force =     0.00538632   -0.02933541   -0.00240664
     atom  148 type  1   force =     0.14020085    0.01620278    0.05828874
     atom  149 type  1   force =    -0.01529167   -0.04836300    0.05267097
     atom  150 type  1   force =    -0.03497830   -0.00370974    0.09327923
     atom  151 type  1   force =    -0.01291776    0.03450268   -0.09112618
     atom  152 type  1   force =    -0.02642048    0.04744837   -0.02193290
     atom  153 type  1   force =     0.02639402   -0.15654024    0.14843626
     atom  154 type  1   force =     0.04759513   -0.08394583    0.11917618
     atom  155 type  1   force =     0.14273290   -0.00564297    0.14272435
     atom  156 type  1   force =     0.13618604    0.18978383    0.13615658
     atom  157 type  1   force =    -0.08182746   -0.18103619    0.10301760
     atom  158 type  1   force =    -0.09149394   -0.01950476    0.02168776
     atom  159 type  1   force =     0.05552884    0.03737872    0.14772891
     atom  160 type  1   force =    -0.11748777    0.20470629    0.23753384
     atom  161 type  1   force =     0.10308886   -0.18109822   -0.08182051
     atom  162 type  1   force =     0.02168619   -0.01946925   -0.09147399
     atom  163 type  1   force =     0.01321706    0.10528692   -0.14057841
     atom  164 type  1   force =     0.01334997    0.10985313   -0.18634827
     atom  165 type  1   force =    -0.02155768   -0.10373835   -0.16352684
     atom  166 type  1   force =    -0.04245266   -0.00442197   -0.09938366
     atom  167 type  1   force =    -0.04700425    0.13511601   -0.04703564
     atom  168 type  1   force =    -0.12955688    0.17758395   -0.12951992
     atom  169 type  1   force =     0.04830262    0.07384268   -0.16722713
     atom  170 type  1   force =     0.05666874    0.06134459   -0.08593451
     atom  171 type  1   force =     0.13323352    0.10386752    0.01659724
     atom  172 type  1   force =     0.11376916    0.12620580    0.21720287
     atom  173 type  1   force =     0.05326939    0.08386214    0.05433597
     atom  174 type  1   force =    -0.09424095    0.14446016    0.21207271
     atom  175 type  1   force =    -0.05116587    0.04499067   -0.18363392
     atom  176 type  1   force =    -0.08039080   -0.00140372   -0.03749991
     atom  177 type  1   force =     0.23525384   -0.09366546   -0.02920251
     atom  178 type  1   force =     1.26875602    0.26884763    0.32416607
     atom  179 type  1   force =     0.14534555    0.66196190    0.25843699
     atom  180 type  1   force =    -0.76599716    0.72128732   -0.11660393
     atom  181 type  1   force =     0.07883250    0.19105041    0.74515674
     atom  182 type  1   force =    -0.71808347   -0.37911696    0.70872054
     atom  183 type  1   force =     0.25844631    0.66193186    0.14539580
     atom  184 type  1   force =    -0.11658328    0.72133951   -0.76601253
     atom  185 type  1   force =     0.26476499    0.12627102   -0.71920195
     atom  186 type  1   force =     0.02784309   -0.01189955   -0.45320243
     atom  187 type  1   force =    -0.21612333    0.27065191   -0.32733008
     atom  188 type  1   force =    -0.13916544    0.08468441   -0.23811711
     atom  189 type  1   force =    -2.24726676    2.18954241   -2.24724425
     atom  190 type  1   force =    -0.73431296    0.27995131   -0.73423021
     atom  191 type  1   force =     0.09762521   -0.03939398   -0.16061026
     atom  192 type  1   force =     0.01162619   -0.04001973   -0.02091054
     atom  193 type  1   force =    -0.00007731   -0.08264859    0.13432156
     atom  194 type  1   force =    -0.01783628   -0.12353263    0.15339368
     atom  195 type  1   force =    -0.06164234   -0.02524175    0.13889873
     atom  196 type  1   force =    -0.15025129   -0.06933536    0.19171191
     atom  197 type  1   force =    -0.02996529   -0.09311149   -0.12530705
     atom  198 type  1   force =    -0.03816814   -0.03813593   -0.01012945
     atom  199 type  1   force =     0.23360887    0.16575250    0.74436480
     atom  200 type  1   force =    -0.29387410   -0.70151661    0.90712701
     atom  201 type  1   force =     0.22280968   -0.74145659    0.22279332
     atom  202 type  1   force =     0.00202497   -0.43183769    0.00205308
     atom  203 type  1   force =    -2.29765164   -1.96190694    2.29367185
     atom  204 type  1   force =    -0.90395414   -0.69189493    0.40120807
     atom  205 type  1   force =    -0.22813752   -0.21639034    0.31259262
     atom  206 type  1   force =    -0.17109608   -0.17696838    0.15184866
     atom  207 type  1   force =     2.29386124   -1.96197131   -2.29753674
     atom  208 type  1   force =     0.40118406   -0.69196378   -0.90393321
     atom  209 type  1   force =     0.16584103   -0.18982286   -0.27922896
     atom  210 type  1   force =     0.07519815   -0.08597037   -0.15066274
     atom  211 type  1   force =    -0.17607751   -0.19573271   -0.79070014
     atom  212 type  1   force =    -0.12748772   -0.08678796   -0.24769660
     atom  213 type  1   force =    -0.23595051   -0.81883548   -0.23595302
     atom  214 type  1   force =    -0.17414955   -0.21843659   -0.17409105
     atom  215 type  2   force =     3.11797545    3.02235091    3.11796571
     The local contribution  to forces
     atom    1 type  1   force =     0.05219193    0.01906664    0.06032473
     atom    2 type  1   force =     0.03788531   -0.00398669    0.00038672
     atom    3 type  1   force =     0.03755598   -0.01115134   -0.02314154
     atom    4 type  1   force =     0.09451583   -0.04952830   -0.08561041
     atom    5 type  1   force =     0.03721432    0.00814042   -0.00425175
     atom    6 type  1   force =     0.01442876    0.01761509   -0.05163848
     atom    7 type  1   force =     0.04401774    0.00076879    0.04397870
     atom    8 type  1   force =     0.01776277   -0.01136709    0.01777048
     atom    9 type  1   force =     0.07453175    0.02971428   -0.07006911
     atom   10 type  1   force =     0.10752853   -0.01030495   -0.09356066
     atom   11 type  1   force =     0.13786726   -0.10078945   -0.00153044
     atom   12 type  1   force =     0.16944666   -0.09140334    0.00445558
     atom   13 type  1   force =     0.05691625    0.02451933    0.04186804
     atom   14 type  1   force =     0.02463807    0.01354445   -0.04502583
     atom   15 type  1   force =     0.07403223    0.00399643   -0.01842309
     atom   16 type  1   force =     0.07485067   -0.00855823   -0.07224420
     atom   17 type  1   force =     0.15735300    0.09365211    0.02241496
     atom   18 type  1   force =     0.09143267    0.00391022    0.03818729
     atom   19 type  1   force =     0.09549784   -0.04070392    0.09548720
     atom   20 type  1   force =     0.06559805   -0.03237574    0.06556176
     atom   21 type  1   force =     0.06026883    0.01910955    0.05216745
     atom   22 type  1   force =     0.00038346   -0.00400107    0.03787286
     atom   23 type  1   force =     0.08480152   -0.03105590    0.00526298
     atom   24 type  1   force =     0.01772607   -0.04341263    0.02501286
     atom   25 type  1   force =     0.07522067   -0.02552218    0.06870625
     atom   26 type  1   force =     0.09090603   -0.02624015    0.01120209
     atom   27 type  1   force =     0.13614994    0.04130191   -0.10892550
     atom   28 type  1   force =     0.11399322    0.09394286   -0.07691123
     atom   29 type  1   force =     0.07514021    0.02164187   -0.00763407
     atom   30 type  1   force =     0.06987468   -0.01227204   -0.04083057
     atom   31 type  1   force =     0.05986570    0.07064848    0.05980223
     atom   32 type  1   force =     0.02639369   -0.00005299    0.02637224
     atom   33 type  1   force =     0.10750313   -0.08824331   -0.14904806
     atom   34 type  1   force =     0.24136910   -0.06832255   -0.13631832
     atom   35 type  1   force =     0.65374537   -0.12868383   -0.25497089
     atom   36 type  1   force =     0.41773997    0.01493688   -0.02346858
     atom   37 type  1   force =     0.15506130   -0.06829278   -0.04550638
     atom   38 type  1   force =     0.07978160   -0.05376613   -0.05391051
     atom   39 type  1   force =     0.14442066    0.00029928   -0.12895301
     atom   40 type  1   force =     0.06492224   -0.04089980   -0.10050606
     atom   41 type  1   force =     0.28881226   -0.23263538    0.16747800
     atom   42 type  1   force =     0.20972430   -0.07631866    0.13458694
     atom   43 type  1   force =     0.23895993   -0.04534926    0.23891821
     atom   44 type  1   force =     0.11964498   -0.07138503    0.11960981
     atom   45 type  1   force =     0.06875535   -0.02551068    0.07519649
     atom   46 type  1   force =     0.01123799   -0.02629218    0.09090653
     atom   47 type  1   force =     0.16414828   -0.03782948    0.04703509
     atom   48 type  1   force =     0.03331609    0.00090027    0.07311811
     atom   49 type  1   force =     0.13127917    0.01866692    0.11598610
     atom   50 type  1   force =     0.07467710   -0.00362142    0.01205246
     atom   51 type  1   force =     0.07230710    0.01358844   -0.03315658
     atom   52 type  1   force =     0.06330803    0.01860328   -0.07262254
     atom   53 type  1   force =     0.05308387   -0.05879298   -0.02757776
     atom   54 type  1   force =     0.00127614   -0.00953374   -0.08086444
     atom   55 type  1   force =     0.05326942   -0.00903708    0.05331479
     atom   56 type  1   force =    -0.00304702    0.00471041   -0.00299979
     atom   57 type  1   force =     0.19993105    0.03128050   -0.20734207
     atom   58 type  1   force =     0.19405917    0.08223543   -0.13904456
     atom   59 type  1   force =     0.24350612    0.15541738   -0.10843932
     atom   60 type  1   force =     0.13264932    0.06774677   -0.09512703
     atom   61 type  1   force =     0.14258756    0.03335352   -0.08820816
     atom   62 type  1   force =     0.01756746    0.03333046   -0.01182685
     atom   63 type  1   force =     0.04032322   -0.00035169   -0.05464844
     atom   64 type  1   force =    -0.00737348    0.05605455   -0.08850156
     atom   65 type  1   force =     0.72319558    0.19021733    0.18202213
     atom   66 type  1   force =     0.22089006    0.06451077    0.10529432
     atom   67 type  1   force =     0.16712180    0.11140347    0.16711967
     atom   68 type  1   force =     0.07500979    0.03265344    0.07493899
     atom   69 type  1   force =     0.11601297    0.01867902    0.13123533
     atom   70 type  1   force =     0.01210410   -0.00367015    0.07455563
     atom   71 type  1   force =     0.11362025    0.08730520    0.03239683
     atom   72 type  1   force =     0.00808003    0.03090959    0.03306350
     atom   73 type  1   force =    -0.00425081    0.00821456    0.03720374
     atom   74 type  1   force =    -0.05165688    0.01758282    0.01445921
     atom   75 type  1   force =     0.02267605    0.03351666    0.02268057
     atom   76 type  1   force =    -0.01696417    0.02675062   -0.01690219
     atom   77 type  1   force =    -0.01712233    0.04462942   -0.02010943
     atom   78 type  1   force =    -0.08007691    0.08452064   -0.06420355
     atom   79 type  1   force =    -0.01844476    0.00409334    0.07400034
     atom   80 type  1   force =    -0.07233622   -0.00860038    0.07483535
     atom   81 type  1   force =    -0.02011634    0.04458065   -0.01709711
     atom   82 type  1   force =    -0.06420628    0.08448582   -0.08003947
     atom   83 type  1   force =     0.00324854    0.03074774    0.00430098
     atom   84 type  1   force =    -0.05249965   -0.01069469   -0.14674870
     atom   85 type  1   force =    -0.14231602    0.14619134   -0.02213085
     atom   86 type  1   force =    -0.11098561    0.07909151   -0.04553174
     atom   87 type  1   force =    -0.01885346    0.08501174   -0.01886428
     atom   88 type  1   force =    -0.11188225    0.11236495   -0.11187862
     atom   89 type  1   force =    -0.04977617    0.04293404    0.00745676
     atom   90 type  1   force =    -0.08977713    0.00044510    0.03370862
     atom   91 type  1   force =    -0.02314663   -0.01102740    0.03750391
     atom   92 type  1   force =    -0.08567490   -0.04957835    0.09447466
     atom   93 type  1   force =    -0.07009162    0.02984833    0.07448260
     atom   94 type  1   force =    -0.09357153   -0.01036684    0.10744155
     atom   95 type  1   force =    -0.14143132   -0.03478834   -0.05743408
     atom   96 type  1   force =    -0.23484569   -0.19262694    0.11332605
     atom   97 type  1   force =    -0.00760428    0.02170415    0.07504117
     atom   98 type  1   force =    -0.04091193   -0.01231466    0.06988840
     atom   99 type  1   force =     0.01341857    0.03447394    0.01337319
     atom  100 type  1   force =    -0.03675107   -0.16032381   -0.03671857
     atom  101 type  1   force =    -0.01078897    0.03430781    0.06695611
     atom  102 type  1   force =    -0.10855312   -0.06297019    0.07930869
     atom  103 type  1   force =    -0.12896645    0.00037116    0.14432861
     atom  104 type  1   force =    -0.10057776   -0.04096809    0.06488339
     atom  105 type  1   force =     0.06699418    0.03427138   -0.01078847
     atom  106 type  1   force =     0.07929137   -0.06297753   -0.10844111
     atom  107 type  1   force =    -0.01460918   -0.09869392   -0.12723191
     atom  108 type  1   force =    -0.20077763   -0.12336479   -0.10980585
     atom  109 type  1   force =     0.05878601    0.12370341   -0.18624891
     atom  110 type  1   force =    -0.44168125   -0.39460521   -1.14058521
     atom  111 type  1   force =     0.08833365   -0.12319119    0.08834622
     atom  112 type  1   force =    -0.39876617   -1.21721964   -0.39872675
     atom  113 type  1   force =    -0.05336805   -0.07817216   -0.05497734
     atom  114 type  1   force =    -0.20035651   -0.14369460    0.08907234
     atom  115 type  1   force =    -0.10889257    0.04137807    0.13608560
     atom  116 type  1   force =    -0.07690216    0.09387962    0.11392210
     atom  117 type  1   force =    -0.14911143   -0.08815873    0.10745874
     atom  118 type  1   force =    -0.13643861   -0.06837405    0.24138400
     atom  119 type  1   force =    -0.70668497   -0.15389623   -0.06264141
     atom  120 type  1   force =    -0.62186894    0.43993840    0.66768632
     atom  121 type  1   force =    -0.02756612   -0.05879225    0.05304769
     atom  122 type  1   force =    -0.08091791   -0.00957976    0.00129095
     atom  123 type  1   force =    -0.02904936   -0.02619612   -0.02901904
     atom  124 type  1   force =    -0.09747308    0.06522541   -0.09743386
     atom  125 type  1   force =    -0.13006647   -0.08658107   -0.06759216
     atom  126 type  1   force =    -0.20760171    0.04401324   -0.23114026
     atom  127 type  1   force =    -0.05469381   -0.00029737    0.04031473
     atom  128 type  1   force =    -0.08851038    0.05607158   -0.00739774
     atom  129 type  1   force =    -0.06759868   -0.08659943   -0.13001616
     atom  130 type  1   force =    -0.23111938    0.04398100   -0.20750585
     atom  131 type  1   force =    -0.13160981    0.08019798    0.01112584
     atom  132 type  1   force =    -0.13601027    0.10765361    0.03631191
     atom  133 type  1   force =    -0.70460213   -0.15189338   -0.19667882
     atom  134 type  1   force =    -0.81815971    0.63866755    0.35564462
     atom  135 type  1   force =    -0.15545474    0.05637627   -0.15540233
     atom  136 type  1   force =    -0.18258906    0.24818602   -0.18250161
     atom  137 type  1   force =    -0.13425074    0.02610486    0.06288390
     atom  138 type  1   force =    -0.16649223    0.06574658    0.14583388
     atom  139 type  1   force =    -0.03321276    0.01358110    0.07223936
     atom  140 type  1   force =    -0.07262549    0.01855987    0.06328655
     atom  141 type  1   force =    -0.20742251    0.03128111    0.19987762
     atom  142 type  1   force =    -0.13905247    0.08214187    0.19402716
     atom  143 type  1   force =    -0.28078179    0.18470512    0.17956395
     atom  144 type  1   force =    -0.14237074    0.15152802    0.16709252
     atom  145 type  1   force =     0.04186221    0.02459631    0.05691681
     atom  146 type  1   force =    -0.04513129    0.01351086    0.02454175
     atom  147 type  1   force =     0.00424394    0.03071181    0.00329994
     atom  148 type  1   force =    -0.14682815   -0.01067734   -0.05246937
     atom  149 type  1   force =     0.00750135    0.04292212   -0.04977963
     atom  150 type  1   force =     0.03373144    0.00048235   -0.08979603
     atom  151 type  1   force =     0.00525372   -0.03107066    0.08476685
     atom  152 type  1   force =     0.02497395   -0.04336748    0.01767025
     atom  153 type  1   force =    -0.02214343    0.14619221   -0.14231919
     atom  154 type  1   force =    -0.04558464    0.07916895   -0.11098719
     atom  155 type  1   force =    -0.13592629    0.00993841   -0.13592019
     atom  156 type  1   force =    -0.13215334   -0.17028526   -0.13212189
     atom  157 type  1   force =     0.07829216    0.16518991   -0.09562461
     atom  158 type  1   force =     0.08457323    0.01748656   -0.02108245
     atom  159 type  1   force =    -0.05748460   -0.03489243   -0.14140820
     atom  160 type  1   force =     0.11337179   -0.19252203   -0.23478958
     atom  161 type  1   force =    -0.09569858    0.16525725    0.07828460
     atom  162 type  1   force =    -0.02107866    0.01745262    0.08454893
     atom  163 type  1   force =    -0.00159116   -0.10074913    0.13784604
     atom  164 type  1   force =     0.00439977   -0.09146338    0.16942772
     atom  165 type  1   force =     0.02236588    0.09365802    0.15738115
     atom  166 type  1   force =     0.03815605    0.00394084    0.09134040
     atom  167 type  1   force =     0.04890469   -0.12671301    0.04893374
     atom  168 type  1   force =     0.12447054   -0.14812311    0.12443244
     atom  169 type  1   force =    -0.04552764   -0.06826869    0.15499733
     atom  170 type  1   force =    -0.05397393   -0.05373739    0.07972927
     atom  171 type  1   force =    -0.12724669   -0.09871353   -0.01465608
     atom  172 type  1   force =    -0.10986106   -0.12332487   -0.20081867
     atom  173 type  1   force =    -0.05492375   -0.07819653   -0.05339077
     atom  174 type  1   force =     0.08904727   -0.14365451   -0.20036568
     atom  175 type  1   force =     0.04702895   -0.03784801    0.16412238
     atom  176 type  1   force =     0.07313480    0.00093959    0.03325188
     atom  177 type  1   force =    -0.18627794    0.12364039    0.05882775
     atom  178 type  1   force =    -1.14064579   -0.39458033   -0.44163356
     atom  179 type  1   force =    -0.12598765   -0.61637802   -0.21222354
     atom  180 type  1   force =     0.69448668   -0.61858933    0.19529505
     atom  181 type  1   force =    -0.06261913   -0.15399051   -0.70663433
     atom  182 type  1   force =     0.66776253    0.44001160   -0.62177450
     atom  183 type  1   force =    -0.21223503   -0.61634551   -0.12603908
     atom  184 type  1   force =     0.19527390   -0.61864141    0.69449849
     atom  185 type  1   force =    -0.25499248   -0.12865819    0.65373236
     atom  186 type  1   force =    -0.02349193    0.01488466    0.41768480
     atom  187 type  1   force =     0.16749994   -0.23261528    0.28880015
     atom  188 type  1   force =     0.13458661   -0.07634880    0.20969177
     atom  189 type  1   force =     1.98881273   -1.89312278    1.98877821
     atom  190 type  1   force =     0.65078127   -0.35622518    0.65069183
     atom  191 type  1   force =    -0.08828981    0.03340826    0.14252940
     atom  192 type  1   force =    -0.01178680    0.03333958    0.01748977
     atom  193 type  1   force =     0.01108458    0.08029037   -0.13155016
     atom  194 type  1   force =     0.03616166    0.10774749   -0.13609449
     atom  195 type  1   force =     0.06286146    0.02604450   -0.13424778
     atom  196 type  1   force =     0.14589257    0.06583926   -0.16646299
     atom  197 type  1   force =     0.03236026    0.08735324    0.11366557
     atom  198 type  1   force =     0.03308249    0.03097278    0.00801170
     atom  199 type  1   force =    -0.19675464   -0.15196294   -0.70455903
     atom  200 type  1   force =     0.35558320    0.63884304   -0.81815749
     atom  201 type  1   force =    -0.21299772    0.68233980   -0.21297910
     atom  202 type  1   force =     0.00237112    0.39792964    0.00233860
     atom  203 type  1   force =     2.11117274    1.75176794   -2.07782137
     atom  204 type  1   force =     0.83710623    0.61384682   -0.45585420
     atom  205 type  1   force =     0.17968449    0.18464758   -0.28071553
     atom  206 type  1   force =     0.16716532    0.15155855   -0.14234560
     atom  207 type  1   force =    -2.07801317    1.75182911    2.11103548
     atom  208 type  1   force =    -0.45583060    0.61391990    0.83707819
     atom  209 type  1   force =    -0.10844891    0.15546724    0.24348197
     atom  210 type  1   force =    -0.09511513    0.06777764    0.13257273
     atom  211 type  1   force =     0.18202970    0.19022883    0.72323222
     atom  212 type  1   force =     0.10538597    0.06452623    0.22081449
     atom  213 type  1   force =     0.23132943    0.75666628    0.23133508
     atom  214 type  1   force =     0.15526328    0.19230126    0.15520413
     atom  215 type  2   force =    -2.34872931   -2.24889131   -2.34871184
     The core correction contribution to forces
     atom    1 type  1   force =     0.00000000    0.00000000    0.00000000
     atom    2 type  1   force =     0.00000000    0.00000000    0.00000000
     atom    3 type  1   force =     0.00000000    0.00000000    0.00000000
     atom    4 type  1   force =     0.00000000    0.00000000    0.00000000
     atom    5 type  1   force =     0.00000000    0.00000000    0.00000000
     atom    6 type  1   force =     0.00000000    0.00000000    0.00000000
     atom    7 type  1   force =     0.00000000    0.00000000    0.00000000
     atom    8 type  1   force =     0.00000000    0.00000000    0.00000000
     atom    9 type  1   force =     0.00000000    0.00000000    0.00000000
     atom   10 type  1   force =     0.00000000    0.00000000    0.00000000
     atom   11 type  1   force =     0.00000000    0.00000000    0.00000000
     atom   12 type  1   force =     0.00000000    0.00000000    0.00000000
     atom   13 type  1   force =     0.00000000    0.00000000    0.00000000
     atom   14 type  1   force =     0.00000000    0.00000000    0.00000000
     atom   15 type  1   force =     0.00000000    0.00000000    0.00000000
     atom   16 type  1   force =     0.00000000    0.00000000    0.00000000
     atom   17 type  1   force =     0.00000000    0.00000000    0.00000000
     atom   18 type  1   force =     0.00000000    0.00000000    0.00000000
     atom   19 type  1   force =     0.00000000    0.00000000    0.00000000
     atom   20 type  1   force =     0.00000000    0.00000000    0.00000000
     atom   21 type  1   force =     0.00000000    0.00000000    0.00000000
     atom   22 type  1   force =     0.00000000    0.00000000    0.00000000
     atom   23 type  1   force =     0.00000000    0.00000000    0.00000000
     atom   24 type  1   force =     0.00000000    0.00000000    0.00000000
     atom   25 type  1   force =     0.00000000    0.00000000    0.00000000
     atom   26 type  1   force =     0.00000000    0.00000000    0.00000000
     atom   27 type  1   force =     0.00000000    0.00000000    0.00000000
     atom   28 type  1   force =     0.00000000    0.00000000    0.00000000
     atom   29 type  1   force =     0.00000000    0.00000000    0.00000000
     atom   30 type  1   force =     0.00000000    0.00000000    0.00000000
     atom   31 type  1   force =     0.00000000    0.00000000    0.00000000
     atom   32 type  1   force =     0.00000000    0.00000000    0.00000000
     atom   33 type  1   force =     0.00000000    0.00000000    0.00000000
     atom   34 type  1   force =     0.00000000    0.00000000    0.00000000
     atom   35 type  1   force =     0.00000000    0.00000000    0.00000000
     atom   36 type  1   force =     0.00000000    0.00000000    0.00000000
     atom   37 type  1   force =     0.00000000    0.00000000    0.00000000
     atom   38 type  1   force =     0.00000000    0.00000000    0.00000000
     atom   39 type  1   force =     0.00000000    0.00000000    0.00000000
     atom   40 type  1   force =     0.00000000    0.00000000    0.00000000
     atom   41 type  1   force =     0.00000000    0.00000000    0.00000000
     atom   42 type  1   force =     0.00000000    0.00000000    0.00000000
     atom   43 type  1   force =     0.00000000    0.00000000    0.00000000
     atom   44 type  1   force =     0.00000000    0.00000000    0.00000000
     atom   45 type  1   force =     0.00000000    0.00000000    0.00000000
     atom   46 type  1   force =     0.00000000    0.00000000    0.00000000
     atom   47 type  1   force =     0.00000000    0.00000000    0.00000000
     atom   48 type  1   force =     0.00000000    0.00000000    0.00000000
     atom   49 type  1   force =     0.00000000    0.00000000    0.00000000
     atom   50 type  1   force =     0.00000000    0.00000000    0.00000000
     atom   51 type  1   force =     0.00000000    0.00000000    0.00000000
     atom   52 type  1   force =     0.00000000    0.00000000    0.00000000
     atom   53 type  1   force =     0.00000000    0.00000000    0.00000000
     atom   54 type  1   force =     0.00000000    0.00000000    0.00000000
     atom   55 type  1   force =     0.00000000    0.00000000    0.00000000
     atom   56 type  1   force =     0.00000000    0.00000000    0.00000000
     atom   57 type  1   force =     0.00000000    0.00000000    0.00000000
     atom   58 type  1   force =     0.00000000    0.00000000    0.00000000
     atom   59 type  1   force =     0.00000000    0.00000000    0.00000000
     atom   60 type  1   force =     0.00000000    0.00000000    0.00000000
     atom   61 type  1   force =     0.00000000    0.00000000    0.00000000
     atom   62 type  1   force =     0.00000000    0.00000000    0.00000000
     atom   63 type  1   force =     0.00000000    0.00000000    0.00000000
     atom   64 type  1   force =     0.00000000    0.00000000    0.00000000
     atom   65 type  1   force =     0.00000000    0.00000000    0.00000000
     atom   66 type  1   force =     0.00000000    0.00000000    0.00000000
     atom   67 type  1   force =     0.00000000    0.00000000    0.00000000
     atom   68 type  1   force =     0.00000000    0.00000000    0.00000000
     atom   69 type  1   force =     0.00000000    0.00000000    0.00000000
     atom   70 type  1   force =     0.00000000    0.00000000    0.00000000
     atom   71 type  1   force =     0.00000000    0.00000000    0.00000000
     atom   72 type  1   force =     0.00000000    0.00000000    0.00000000
     atom   73 type  1   force =     0.00000000    0.00000000    0.00000000
     atom   74 type  1   force =     0.00000000    0.00000000    0.00000000
     atom   75 type  1   force =     0.00000000    0.00000000    0.00000000
     atom   76 type  1   force =     0.00000000    0.00000000    0.00000000
     atom   77 type  1   force =     0.00000000    0.00000000    0.00000000
     atom   78 type  1   force =     0.00000000    0.00000000    0.00000000
     atom   79 type  1   force =     0.00000000    0.00000000    0.00000000
     atom   80 type  1   force =     0.00000000    0.00000000    0.00000000
     atom   81 type  1   force =     0.00000000    0.00000000    0.00000000
     atom   82 type  1   force =     0.00000000    0.00000000    0.00000000
     atom   83 type  1   force =     0.00000000    0.00000000    0.00000000
     atom   84 type  1   force =     0.00000000    0.00000000    0.00000000
     atom   85 type  1   force =     0.00000000    0.00000000    0.00000000
     atom   86 type  1   force =     0.00000000    0.00000000    0.00000000
     atom   87 type  1   force =     0.00000000    0.00000000    0.00000000
     atom   88 type  1   force =     0.00000000    0.00000000    0.00000000
     atom   89 type  1   force =     0.00000000    0.00000000    0.00000000
     atom   90 type  1   force =     0.00000000    0.00000000    0.00000000
     atom   91 type  1   force =     0.00000000    0.00000000    0.00000000
     atom   92 type  1   force =     0.00000000    0.00000000    0.00000000
     atom   93 type  1   force =     0.00000000    0.00000000    0.00000000
     atom   94 type  1   force =     0.00000000    0.00000000    0.00000000
     atom   95 type  1   force =     0.00000000    0.00000000    0.00000000
     atom   96 type  1   force =     0.00000000    0.00000000    0.00000000
     atom   97 type  1   force =     0.00000000    0.00000000    0.00000000
     atom   98 type  1   force =     0.00000000    0.00000000    0.00000000
     atom   99 type  1   force =     0.00000000    0.00000000    0.00000000
     atom  100 type  1   force =     0.00000000    0.00000000    0.00000000
     atom  101 type  1   force =     0.00000000    0.00000000    0.00000000
     atom  102 type  1   force =     0.00000000    0.00000000    0.00000000
     atom  103 type  1   force =     0.00000000    0.00000000    0.00000000
     atom  104 type  1   force =     0.00000000    0.00000000    0.00000000
     atom  105 type  1   force =     0.00000000    0.00000000    0.00000000
     atom  106 type  1   force =     0.00000000    0.00000000    0.00000000
     atom  107 type  1   force =     0.00000000    0.00000000    0.00000000
     atom  108 type  1   force =     0.00000000    0.00000000    0.00000000
     atom  109 type  1   force =     0.00000000    0.00000000    0.00000000
     atom  110 type  1   force =     0.00000000    0.00000000    0.00000000
     atom  111 type  1   force =     0.00000000    0.00000000    0.00000000
     atom  112 type  1   force =     0.00000000    0.00000000    0.00000000
     atom  113 type  1   force =     0.00000000    0.00000000    0.00000000
     atom  114 type  1   force =     0.00000000    0.00000000    0.00000000
     atom  115 type  1   force =     0.00000000    0.00000000    0.00000000
     atom  116 type  1   force =     0.00000000    0.00000000    0.00000000
     atom  117 type  1   force =     0.00000000    0.00000000    0.00000000
     atom  118 type  1   force =     0.00000000    0.00000000    0.00000000
     atom  119 type  1   force =     0.00000000    0.00000000    0.00000000
     atom  120 type  1   force =     0.00000000    0.00000000    0.00000000
     atom  121 type  1   force =     0.00000000    0.00000000    0.00000000
     atom  122 type  1   force =     0.00000000    0.00000000    0.00000000
     atom  123 type  1   force =     0.00000000    0.00000000    0.00000000
     atom  124 type  1   force =     0.00000000    0.00000000    0.00000000
     atom  125 type  1   force =     0.00000000    0.00000000    0.00000000
     atom  126 type  1   force =     0.00000000    0.00000000    0.00000000
     atom  127 type  1   force =     0.00000000    0.00000000    0.00000000
     atom  128 type  1   force =     0.00000000    0.00000000    0.00000000
     atom  129 type  1   force =     0.00000000    0.00000000    0.00000000
     atom  130 type  1   force =     0.00000000    0.00000000    0.00000000
     atom  131 type  1   force =     0.00000000    0.00000000    0.00000000
     atom  132 type  1   force =     0.00000000    0.00000000    0.00000000
     atom  133 type  1   force =     0.00000000    0.00000000    0.00000000
     atom  134 type  1   force =     0.00000000    0.00000000    0.00000000
     atom  135 type  1   force =     0.00000000    0.00000000    0.00000000
     atom  136 type  1   force =     0.00000000    0.00000000    0.00000000
     atom  137 type  1   force =     0.00000000    0.00000000    0.00000000
     atom  138 type  1   force =     0.00000000    0.00000000    0.00000000
     atom  139 type  1   force =     0.00000000    0.00000000    0.00000000
     atom  140 type  1   force =     0.00000000    0.00000000    0.00000000
     atom  141 type  1   force =     0.00000000    0.00000000    0.00000000
     atom  142 type  1   force =     0.00000000    0.00000000    0.00000000
     atom  143 type  1   force =     0.00000000    0.00000000    0.00000000
     atom  144 type  1   force =     0.00000000    0.00000000    0.00000000
     atom  145 type  1   force =     0.00000000    0.00000000    0.00000000
     atom  146 type  1   force =     0.00000000    0.00000000    0.00000000
     atom  147 type  1   force =     0.00000000    0.00000000    0.00000000
     atom  148 type  1   force =     0.00000000    0.00000000    0.00000000
     atom  149 type  1   force =     0.00000000    0.00000000    0.00000000
     atom  150 type  1   force =     0.00000000    0.00000000    0.00000000
     atom  151 type  1   force =     0.00000000    0.00000000    0.00000000
     atom  152 type  1   force =     0.00000000    0.00000000    0.00000000
     atom  153 type  1   force =     0.00000000    0.00000000    0.00000000
     atom  154 type  1   force =     0.00000000    0.00000000    0.00000000
     atom  155 type  1   force =     0.00000000    0.00000000    0.00000000
     atom  156 type  1   force =     0.00000000    0.00000000    0.00000000
     atom  157 type  1   force =     0.00000000    0.00000000    0.00000000
     atom  158 type  1   force =     0.00000000    0.00000000    0.00000000
     atom  159 type  1   force =     0.00000000    0.00000000    0.00000000
     atom  160 type  1   force =     0.00000000    0.00000000    0.00000000
     atom  161 type  1   force =     0.00000000    0.00000000    0.00000000
     atom  162 type  1   force =     0.00000000    0.00000000    0.00000000
     atom  163 type  1   force =     0.00000000    0.00000000    0.00000000
     atom  164 type  1   force =     0.00000000    0.00000000    0.00000000
     atom  165 type  1   force =     0.00000000    0.00000000    0.00000000
     atom  166 type  1   force =     0.00000000    0.00000000    0.00000000
     atom  167 type  1   force =     0.00000000    0.00000000    0.00000000
     atom  168 type  1   force =     0.00000000    0.00000000    0.00000000
     atom  169 type  1   force =     0.00000000    0.00000000    0.00000000
     atom  170 type  1   force =     0.00000000    0.00000000    0.00000000
     atom  171 type  1   force =     0.00000000    0.00000000    0.00000000
     atom  172 type  1   force =     0.00000000    0.00000000    0.00000000
     atom  173 type  1   force =     0.00000000    0.00000000    0.00000000
     atom  174 type  1   force =     0.00000000    0.00000000    0.00000000
     atom  175 type  1   force =     0.00000000    0.00000000    0.00000000
     atom  176 type  1   force =     0.00000000    0.00000000    0.00000000
     atom  177 type  1   force =     0.00000000    0.00000000    0.00000000
     atom  178 type  1   force =     0.00000000    0.00000000    0.00000000
     atom  179 type  1   force =     0.00000000    0.00000000    0.00000000
     atom  180 type  1   force =     0.00000000    0.00000000    0.00000000
     atom  181 type  1   force =     0.00000000    0.00000000    0.00000000
     atom  182 type  1   force =     0.00000000    0.00000000    0.00000000
     atom  183 type  1   force =     0.00000000    0.00000000    0.00000000
     atom  184 type  1   force =     0.00000000    0.00000000    0.00000000
     atom  185 type  1   force =     0.00000000    0.00000000    0.00000000
     atom  186 type  1   force =     0.00000000    0.00000000    0.00000000
     atom  187 type  1   force =     0.00000000    0.00000000    0.00000000
     atom  188 type  1   force =     0.00000000    0.00000000    0.00000000
     atom  189 type  1   force =     0.00000000    0.00000000    0.00000000
     atom  190 type  1   force =     0.00000000    0.00000000    0.00000000
     atom  191 type  1   force =     0.00000000    0.00000000    0.00000000
     atom  192 type  1   force =     0.00000000    0.00000000    0.00000000
     atom  193 type  1   force =     0.00000000    0.00000000    0.00000000
     atom  194 type  1   force =     0.00000000    0.00000000    0.00000000
     atom  195 type  1   force =     0.00000000    0.00000000    0.00000000
     atom  196 type  1   force =     0.00000000    0.00000000    0.00000000
     atom  197 type  1   force =     0.00000000    0.00000000    0.00000000
     atom  198 type  1   force =     0.00000000    0.00000000    0.00000000
     atom  199 type  1   force =     0.00000000    0.00000000    0.00000000
     atom  200 type  1   force =     0.00000000    0.00000000    0.00000000
     atom  201 type  1   force =     0.00000000    0.00000000    0.00000000
     atom  202 type  1   force =     0.00000000    0.00000000    0.00000000
     atom  203 type  1   force =     0.00000000    0.00000000    0.00000000
     atom  204 type  1   force =     0.00000000    0.00000000    0.00000000
     atom  205 type  1   force =     0.00000000    0.00000000    0.00000000
     atom  206 type  1   force =     0.00000000    0.00000000    0.00000000
     atom  207 type  1   force =     0.00000000    0.00000000    0.00000000
     atom  208 type  1   force =     0.00000000    0.00000000    0.00000000
     atom  209 type  1   force =     0.00000000    0.00000000    0.00000000
     atom  210 type  1   force =     0.00000000    0.00000000    0.00000000
     atom  211 type  1   force =     0.00000000    0.00000000    0.00000000
     atom  212 type  1   force =     0.00000000    0.00000000    0.00000000
     atom  213 type  1   force =     0.00000000    0.00000000    0.00000000
     atom  214 type  1   force =     0.00000000    0.00000000    0.00000000
     atom  215 type  2   force =     0.00000000    0.00000000    0.00000000
     The Hubbard contrib.    to forces
     atom    1 type  1   force =     0.00000000    0.00000000    0.00000000
     atom    2 type  1   force =     0.00000000    0.00000000    0.00000000
     atom    3 type  1   force =     0.00000000    0.00000000    0.00000000
     atom    4 type  1   force =     0.00000000    0.00000000    0.00000000
     atom    5 type  1   force =     0.00000000    0.00000000    0.00000000
     atom    6 type  1   force =     0.00000000    0.00000000    0.00000000
     atom    7 type  1   force =     0.00000000    0.00000000    0.00000000
     atom    8 type  1   force =     0.00000000    0.00000000    0.00000000
     atom    9 type  1   force =     0.00000000    0.00000000    0.00000000
     atom   10 type  1   force =     0.00000000    0.00000000    0.00000000
     atom   11 type  1   force =     0.00000000    0.00000000    0.00000000
     atom   12 type  1   force =     0.00000000    0.00000000    0.00000000
     atom   13 type  1   force =     0.00000000    0.00000000    0.00000000
     atom   14 type  1   force =     0.00000000    0.00000000    0.00000000
     atom   15 type  1   force =     0.00000000    0.00000000    0.00000000
     atom   16 type  1   force =     0.00000000    0.00000000    0.00000000
     atom   17 type  1   force =     0.00000000    0.00000000    0.00000000
     atom   18 type  1   force =     0.00000000    0.00000000    0.00000000
     atom   19 type  1   force =     0.00000000    0.00000000    0.00000000
     atom   20 type  1   force =     0.00000000    0.00000000    0.00000000
     atom   21 type  1   force =     0.00000000    0.00000000    0.00000000
     atom   22 type  1   force =     0.00000000    0.00000000    0.00000000
     atom   23 type  1   force =     0.00000000    0.00000000    0.00000000
     atom   24 type  1   force =     0.00000000    0.00000000    0.00000000
     atom   25 type  1   force =     0.00000000    0.00000000    0.00000000
     atom   26 type  1   force =     0.00000000    0.00000000    0.00000000
     atom   27 type  1   force =     0.00000000    0.00000000    0.00000000
     atom   28 type  1   force =     0.00000000    0.00000000    0.00000000
     atom   29 type  1   force =     0.00000000    0.00000000    0.00000000
     atom   30 type  1   force =     0.00000000    0.00000000    0.00000000
     atom   31 type  1   force =     0.00000000    0.00000000    0.00000000
     atom   32 type  1   force =     0.00000000    0.00000000    0.00000000
     atom   33 type  1   force =     0.00000000    0.00000000    0.00000000
     atom   34 type  1   force =     0.00000000    0.00000000    0.00000000
     atom   35 type  1   force =     0.00000000    0.00000000    0.00000000
     atom   36 type  1   force =     0.00000000    0.00000000    0.00000000
     atom   37 type  1   force =     0.00000000    0.00000000    0.00000000
     atom   38 type  1   force =     0.00000000    0.00000000    0.00000000
     atom   39 type  1   force =     0.00000000    0.00000000    0.00000000
     atom   40 type  1   force =     0.00000000    0.00000000    0.00000000
     atom   41 type  1   force =     0.00000000    0.00000000    0.00000000
     atom   42 type  1   force =     0.00000000    0.00000000    0.00000000
     atom   43 type  1   force =     0.00000000    0.00000000    0.00000000
     atom   44 type  1   force =     0.00000000    0.00000000    0.00000000
     atom   45 type  1   force =     0.00000000    0.00000000    0.00000000
     atom   46 type  1   force =     0.00000000    0.00000000    0.00000000
     atom   47 type  1   force =     0.00000000    0.00000000    0.00000000
     atom   48 type  1   force =     0.00000000    0.00000000    0.00000000
     atom   49 type  1   force =     0.00000000    0.00000000    0.00000000
     atom   50 type  1   force =     0.00000000    0.00000000    0.00000000
     atom   51 type  1   force =     0.00000000    0.00000000    0.00000000
     atom   52 type  1   force =     0.00000000    0.00000000    0.00000000
     atom   53 type  1   force =     0.00000000    0.00000000    0.00000000
     atom   54 type  1   force =     0.00000000    0.00000000    0.00000000
     atom   55 type  1   force =     0.00000000    0.00000000    0.00000000
     atom   56 type  1   force =     0.00000000    0.00000000    0.00000000
     atom   57 type  1   force =     0.00000000    0.00000000    0.00000000
     atom   58 type  1   force =     0.00000000    0.00000000    0.00000000
     atom   59 type  1   force =     0.00000000    0.00000000    0.00000000
     atom   60 type  1   force =     0.00000000    0.00000000    0.00000000
     atom   61 type  1   force =     0.00000000    0.00000000    0.00000000
     atom   62 type  1   force =     0.00000000    0.00000000    0.00000000
     atom   63 type  1   force =     0.00000000    0.00000000    0.00000000
     atom   64 type  1   force =     0.00000000    0.00000000    0.00000000
     atom   65 type  1   force =     0.00000000    0.00000000    0.00000000
     atom   66 type  1   force =     0.00000000    0.00000000    0.00000000
     atom   67 type  1   force =     0.00000000    0.00000000    0.00000000
     atom   68 type  1   force =     0.00000000    0.00000000    0.00000000
     atom   69 type  1   force =     0.00000000    0.00000000    0.00000000
     atom   70 type  1   force =     0.00000000    0.00000000    0.00000000
     atom   71 type  1   force =     0.00000000    0.00000000    0.00000000
     atom   72 type  1   force =     0.00000000    0.00000000    0.00000000
     atom   73 type  1   force =     0.00000000    0.00000000    0.00000000
     atom   74 type  1   force =     0.00000000    0.00000000    0.00000000
     atom   75 type  1   force =     0.00000000    0.00000000    0.00000000
     atom   76 type  1   force =     0.00000000    0.00000000    0.00000000
     atom   77 type  1   force =     0.00000000    0.00000000    0.00000000
     atom   78 type  1   force =     0.00000000    0.00000000    0.00000000
     atom   79 type  1   force =     0.00000000    0.00000000    0.00000000
     atom   80 type  1   force =     0.00000000    0.00000000    0.00000000
     atom   81 type  1   force =     0.00000000    0.00000000    0.00000000
     atom   82 type  1   force =     0.00000000    0.00000000    0.00000000
     atom   83 type  1   force =     0.00000000    0.00000000    0.00000000
     atom   84 type  1   force =     0.00000000    0.00000000    0.00000000
     atom   85 type  1   force =     0.00000000    0.00000000    0.00000000
     atom   86 type  1   force =     0.00000000    0.00000000    0.00000000
     atom   87 type  1   force =     0.00000000    0.00000000    0.00000000
     atom   88 type  1   force =     0.00000000    0.00000000    0.00000000
     atom   89 type  1   force =     0.00000000    0.00000000    0.00000000
     atom   90 type  1   force =     0.00000000    0.00000000    0.00000000
     atom   91 type  1   force =     0.00000000    0.00000000    0.00000000
     atom   92 type  1   force =     0.00000000    0.00000000    0.00000000
     atom   93 type  1   force =     0.00000000    0.00000000    0.00000000
     atom   94 type  1   force =     0.00000000    0.00000000    0.00000000
     atom   95 type  1   force =     0.00000000    0.00000000    0.00000000
     atom   96 type  1   force =     0.00000000    0.00000000    0.00000000
     atom   97 type  1   force =     0.00000000    0.00000000    0.00000000
     atom   98 type  1   force =     0.00000000    0.00000000    0.00000000
     atom   99 type  1   force =     0.00000000    0.00000000    0.00000000
     atom  100 type  1   force =     0.00000000    0.00000000    0.00000000
     atom  101 type  1   force =     0.00000000    0.00000000    0.00000000
     atom  102 type  1   force =     0.00000000    0.00000000    0.00000000
     atom  103 type  1   force =     0.00000000    0.00000000    0.00000000
     atom  104 type  1   force =     0.00000000    0.00000000    0.00000000
     atom  105 type  1   force =     0.00000000    0.00000000    0.00000000
     atom  106 type  1   force =     0.00000000    0.00000000    0.00000000
     atom  107 type  1   force =     0.00000000    0.00000000    0.00000000
     atom  108 type  1   force =     0.00000000    0.00000000    0.00000000
     atom  109 type  1   force =     0.00000000    0.00000000    0.00000000
     atom  110 type  1   force =     0.00000000    0.00000000    0.00000000
     atom  111 type  1   force =     0.00000000    0.00000000    0.00000000
     atom  112 type  1   force =     0.00000000    0.00000000    0.00000000
     atom  113 type  1   force =     0.00000000    0.00000000    0.00000000
     atom  114 type  1   force =     0.00000000    0.00000000    0.00000000
     atom  115 type  1   force =     0.00000000    0.00000000    0.00000000
     atom  116 type  1   force =     0.00000000    0.00000000    0.00000000
     atom  117 type  1   force =     0.00000000    0.00000000    0.00000000
     atom  118 type  1   force =     0.00000000    0.00000000    0.00000000
     atom  119 type  1   force =     0.00000000    0.00000000    0.00000000
     atom  120 type  1   force =     0.00000000    0.00000000    0.00000000
     atom  121 type  1   force =     0.00000000    0.00000000    0.00000000
     atom  122 type  1   force =     0.00000000    0.00000000    0.00000000
     atom  123 type  1   force =     0.00000000    0.00000000    0.00000000
     atom  124 type  1   force =     0.00000000    0.00000000    0.00000000
     atom  125 type  1   force =     0.00000000    0.00000000    0.00000000
     atom  126 type  1   force =     0.00000000    0.00000000    0.00000000
     atom  127 type  1   force =     0.00000000    0.00000000    0.00000000
     atom  128 type  1   force =     0.00000000    0.00000000    0.00000000
     atom  129 type  1   force =     0.00000000    0.00000000    0.00000000
     atom  130 type  1   force =     0.00000000    0.00000000    0.00000000
     atom  131 type  1   force =     0.00000000    0.00000000    0.00000000
     atom  132 type  1   force =     0.00000000    0.00000000    0.00000000
     atom  133 type  1   force =     0.00000000    0.00000000    0.00000000
     atom  134 type  1   force =     0.00000000    0.00000000    0.00000000
     atom  135 type  1   force =     0.00000000    0.00000000    0.00000000
     atom  136 type  1   force =     0.00000000    0.00000000    0.00000000
     atom  137 type  1   force =     0.00000000    0.00000000    0.00000000
     atom  138 type  1   force =     0.00000000    0.00000000    0.00000000
     atom  139 type  1   force =     0.00000000    0.00000000    0.00000000
     atom  140 type  1   force =     0.00000000    0.00000000    0.00000000
     atom  141 type  1   force =     0.00000000    0.00000000    0.00000000
     atom  142 type  1   force =     0.00000000    0.00000000    0.00000000
     atom  143 type  1   force =     0.00000000    0.00000000    0.00000000
     atom  144 type  1   force =     0.00000000    0.00000000    0.00000000
     atom  145 type  1   force =     0.00000000    0.00000000    0.00000000
     atom  146 type  1   force =     0.00000000    0.00000000    0.00000000
     atom  147 type  1   force =     0.00000000    0.00000000    0.00000000
     atom  148 type  1   force =     0.00000000    0.00000000    0.00000000
     atom  149 type  1   force =     0.00000000    0.00000000    0.00000000
     atom  150 type  1   force =     0.00000000    0.00000000    0.00000000
     atom  151 type  1   force =     0.00000000    0.00000000    0.00000000
     atom  152 type  1   force =     0.00000000    0.00000000    0.00000000
     atom  153 type  1   force =     0.00000000    0.00000000    0.00000000
     atom  154 type  1   force =     0.00000000    0.00000000    0.00000000
     atom  155 type  1   force =     0.00000000    0.00000000    0.00000000
     atom  156 type  1   force =     0.00000000    0.00000000    0.00000000
     atom  157 type  1   force =     0.00000000    0.00000000    0.00000000
     atom  158 type  1   force =     0.00000000    0.00000000    0.00000000
     atom  159 type  1   force =     0.00000000    0.00000000    0.00000000
     atom  160 type  1   force =     0.00000000    0.00000000    0.00000000
     atom  161 type  1   force =     0.00000000    0.00000000    0.00000000
     atom  162 type  1   force =     0.00000000    0.00000000    0.00000000
     atom  163 type  1   force =     0.00000000    0.00000000    0.00000000
     atom  164 type  1   force =     0.00000000    0.00000000    0.00000000
     atom  165 type  1   force =     0.00000000    0.00000000    0.00000000
     atom  166 type  1   force =     0.00000000    0.00000000    0.00000000
     atom  167 type  1   force =     0.00000000    0.00000000    0.00000000
     atom  168 type  1   force =     0.00000000    0.00000000    0.00000000
     atom  169 type  1   force =     0.00000000    0.00000000    0.00000000
     atom  170 type  1   force =     0.00000000    0.00000000    0.00000000
     atom  171 type  1   force =     0.00000000    0.00000000    0.00000000
     atom  172 type  1   force =     0.00000000    0.00000000    0.00000000
     atom  173 type  1   force =     0.00000000    0.00000000    0.00000000
     atom  174 type  1   force =     0.00000000    0.00000000    0.00000000
     atom  175 type  1   force =     0.00000000    0.00000000    0.00000000
     atom  176 type  1   force =     0.00000000    0.00000000    0.00000000
     atom  177 type  1   force =     0.00000000    0.00000000    0.00000000
     atom  178 type  1   force =     0.00000000    0.00000000    0.00000000
     atom  179 type  1   force =     0.00000000    0.00000000    0.00000000
     atom  180 type  1   force =     0.00000000    0.00000000    0.00000000
     atom  181 type  1   force =     0.00000000    0.00000000    0.00000000
     atom  182 type  1   force =     0.00000000    0.00000000    0.00000000
     atom  183 type  1   force =     0.00000000    0.00000000    0.00000000
     atom  184 type  1   force =     0.00000000    0.00000000    0.00000000
     atom  185 type  1   force =     0.00000000    0.00000000    0.00000000
     atom  186 type  1   force =     0.00000000    0.00000000    0.00000000
     atom  187 type  1   force =     0.00000000    0.00000000    0.00000000
     atom  188 type  1   force =     0.00000000    0.00000000    0.00000000
     atom  189 type  1   force =     0.00000000    0.00000000    0.00000000
     atom  190 type  1   force =     0.00000000    0.00000000    0.00000000
     atom  191 type  1   force =     0.00000000    0.00000000    0.00000000
     atom  192 type  1   force =     0.00000000    0.00000000    0.00000000
     atom  193 type  1   force =     0.00000000    0.00000000    0.00000000
     atom  194 type  1   force =     0.00000000    0.00000000    0.00000000
     atom  195 type  1   force =     0.00000000    0.00000000    0.00000000
     atom  196 type  1   force =     0.00000000    0.00000000    0.00000000
     atom  197 type  1   force =     0.00000000    0.00000000    0.00000000
     atom  198 type  1   force =     0.00000000    0.00000000    0.00000000
     atom  199 type  1   force =     0.00000000    0.00000000    0.00000000
     atom  200 type  1   force =     0.00000000    0.00000000    0.00000000
     atom  201 type  1   force =     0.00000000    0.00000000    0.00000000
     atom  202 type  1   force =     0.00000000    0.00000000    0.00000000
     atom  203 type  1   force =     0.00000000    0.00000000    0.00000000
     atom  204 type  1   force =     0.00000000    0.00000000    0.00000000
     atom  205 type  1   force =     0.00000000    0.00000000    0.00000000
     atom  206 type  1   force =     0.00000000    0.00000000    0.00000000
     atom  207 type  1   force =     0.00000000    0.00000000    0.00000000
     atom  208 type  1   force =     0.00000000    0.00000000    0.00000000
     atom  209 type  1   force =     0.00000000    0.00000000    0.00000000
     atom  210 type  1   force =     0.00000000    0.00000000    0.00000000
     atom  211 type  1   force =     0.00000000    0.00000000    0.00000000
     atom  212 type  1   force =     0.00000000    0.00000000    0.00000000
     atom  213 type  1   force =     0.00000000    0.00000000    0.00000000
     atom  214 type  1   force =     0.00000000    0.00000000    0.00000000
     atom  215 type  2   force =     0.00000000    0.00000000    0.00000000
     The SCF correction term to forces
     atom    1 type  1   force =     0.00000110   -0.00000106    0.00000026
     atom    2 type  1   force =     0.00000186   -0.00000100    0.00000056
     atom    3 type  1   force =     0.00000181   -0.00000101    0.00000021
     atom    4 type  1   force =     0.00000107   -0.00000140   -0.00000047
     atom    5 type  1   force =     0.00000144   -0.00000017    0.00000009
     atom    6 type  1   force =     0.00000040   -0.00000135   -0.00000116
     atom    7 type  1   force =     0.00000127   -0.00000129    0.00000124
     atom    8 type  1   force =     0.00000032   -0.00000207    0.00000027
     atom    9 type  1   force =     0.00000153   -0.00000062   -0.00000035
     atom   10 type  1   force =     0.00000096   -0.00000131   -0.00000139
     atom   11 type  1   force =     0.00000052   -0.00000105   -0.00000107
     atom   12 type  1   force =     0.00000053   -0.00000091   -0.00000074
     atom   13 type  1   force =     0.00000017   -0.00000105   -0.00000126
     atom   14 type  1   force =    -0.00000017   -0.00000139   -0.00000058
     atom   15 type  1   force =     0.00000054   -0.00000164   -0.00000140
     atom   16 type  1   force =    -0.00000040   -0.00000149   -0.00000133
     atom   17 type  1   force =     0.00000045   -0.00000141    0.00000013
     atom   18 type  1   force =     0.00000031   -0.00000151    0.00000075
     atom   19 type  1   force =     0.00000083   -0.00000157    0.00000085
     atom   20 type  1   force =     0.00000112   -0.00000094    0.00000112
     atom   21 type  1   force =     0.00000030   -0.00000107    0.00000111
     atom   22 type  1   force =     0.00000062   -0.00000102    0.00000185
     atom   23 type  1   force =     0.00000018   -0.00000132    0.00000019
     atom   24 type  1   force =     0.00000042   -0.00000060    0.00000108
     atom   25 type  1   force =     0.00000120   -0.00000036    0.00000062
     atom   26 type  1   force =     0.00000062   -0.00000069   -0.00000013
     atom   27 type  1   force =     0.00000029    0.00000013   -0.00000012
     atom   28 type  1   force =     0.00000027    0.00000095   -0.00000018
     atom   29 type  1   force =     0.00000041   -0.00000161   -0.00000031
     atom   30 type  1   force =    -0.00000040   -0.00000089   -0.00000060
     atom   31 type  1   force =     0.00000003    0.00000022    0.00000001
     atom   32 type  1   force =    -0.00000021    0.00000130   -0.00000026
     atom   33 type  1   force =     0.00000047   -0.00000073   -0.00000047
     atom   34 type  1   force =     0.00000011   -0.00000042   -0.00000085
     atom   35 type  1   force =     0.00000086    0.00000047   -0.00000133
     atom   36 type  1   force =     0.00000114    0.00000151   -0.00000012
     atom   37 type  1   force =     0.00000002   -0.00000066   -0.00000084
     atom   38 type  1   force =     0.00000038    0.00000034    0.00000002
     atom   39 type  1   force =    -0.00000007    0.00000020   -0.00000038
     atom   40 type  1   force =     0.00000034    0.00000137   -0.00000005
     atom   41 type  1   force =     0.00000130   -0.00000108   -0.00000015
     atom   42 type  1   force =     0.00000149    0.00000032    0.00000094
     atom   43 type  1   force =     0.00000147    0.00000121    0.00000148
     atom   44 type  1   force =     0.00000031    0.00000136    0.00000030
     atom   45 type  1   force =     0.00000066   -0.00000036    0.00000122
     atom   46 type  1   force =    -0.00000009   -0.00000069    0.00000061
     atom   47 type  1   force =     0.00000065    0.00000090    0.00000040
     atom   48 type  1   force =    -0.00000037    0.00000096    0.00000032
     atom   49 type  1   force =     0.00000052    0.00000147   -0.00000025
     atom   50 type  1   force =     0.00000055    0.00000156   -0.00000024
     atom   51 type  1   force =     0.00000109    0.00000086   -0.00000047
     atom   52 type  1   force =     0.00000150    0.00000046   -0.00000036
     atom   53 type  1   force =     0.00000027    0.00000183   -0.00000045
     atom   54 type  1   force =     0.00000043    0.00000222   -0.00000022
     atom   55 type  1   force =     0.00000039    0.00000097    0.00000034
     atom   56 type  1   force =     0.00000068    0.00000097    0.00000062
     atom   57 type  1   force =     0.00000058    0.00000111   -0.00000034
     atom   58 type  1   force =     0.00000088    0.00000167   -0.00000013
     atom   59 type  1   force =     0.00000074    0.00000082    0.00000012
     atom   60 type  1   force =     0.00000010   -0.00000063   -0.00000029
     atom   61 type  1   force =     0.00000039    0.00000169   -0.00000017
     atom   62 type  1   force =    -0.00000041    0.00000105   -0.00000040
     atom   63 type  1   force =     0.00000076    0.00000149   -0.00000053
     atom   64 type  1   force =     0.00000004    0.00000014   -0.00000161
     atom   65 type  1   force =     0.00000083    0.00000241    0.00000048
     atom   66 type  1   force =     0.00000029    0.00000130    0.00000060
     atom   67 type  1   force =     0.00000049    0.00000030    0.00000049
     atom   68 type  1   force =     0.00000063   -0.00000031    0.00000061
     atom   69 type  1   force =    -0.00000021    0.00000148    0.00000052
     atom   70 type  1   force =    -0.00000018    0.00000157    0.00000053
     atom   71 type  1   force =    -0.00000028    0.00000037    0.00000022
     atom   72 type  1   force =    -0.00000025   -0.00000043    0.00000092
     atom   73 type  1   force =     0.00000015   -0.00000017    0.00000140
     atom   74 type  1   force =    -0.00000113   -0.00000136    0.00000034
     atom   75 type  1   force =    -0.00000065   -0.00000228   -0.00000070
     atom   76 type  1   force =    -0.00000117   -0.00000221   -0.00000120
     atom   77 type  1   force =    -0.00000167   -0.00000078   -0.00000045
     atom   78 type  1   force =    -0.00000166   -0.00000175   -0.00000083
     atom   79 type  1   force =    -0.00000139   -0.00000165    0.00000051
     atom   80 type  1   force =    -0.00000135   -0.00000149   -0.00000044
     atom   81 type  1   force =    -0.00000039   -0.00000076   -0.00000168
     atom   82 type  1   force =    -0.00000080   -0.00000174   -0.00000164
     atom   83 type  1   force =    -0.00000016   -0.00000123   -0.00000104
     atom   84 type  1   force =     0.00000034   -0.00000024   -0.00000003
     atom   85 type  1   force =    -0.00000062   -0.00000119   -0.00000104
     atom   86 type  1   force =    -0.00000024   -0.00000088   -0.00000006
     atom   87 type  1   force =    -0.00000112   -0.00000192   -0.00000112
     atom   88 type  1   force =    -0.00000032   -0.00000044   -0.00000029
     atom   89 type  1   force =    -0.00000031   -0.00000098    0.00000031
     atom   90 type  1   force =    -0.00000001   -0.00000085    0.00000131
     atom   91 type  1   force =     0.00000027   -0.00000103    0.00000181
     atom   92 type  1   force =    -0.00000043   -0.00000141    0.00000106
     atom   93 type  1   force =    -0.00000034   -0.00000064    0.00000153
     atom   94 type  1   force =    -0.00000142   -0.00000132    0.00000094
     atom   95 type  1   force =    -0.00000014   -0.00000037    0.00000047
     atom   96 type  1   force =    -0.00000087   -0.00000062    0.00000053
     atom   97 type  1   force =    -0.00000026   -0.00000161    0.00000039
     atom   98 type  1   force =    -0.00000057   -0.00000089   -0.00000044
     atom   99 type  1   force =    -0.00000012    0.00000031   -0.00000018
     atom  100 type  1   force =     0.00000036    0.00000157    0.00000031
     atom  101 type  1   force =    -0.00000088   -0.00000127   -0.00000070
     atom  102 type  1   force =    -0.00000011    0.00000019    0.00000023
     atom  103 type  1   force =    -0.00000036    0.00000022   -0.00000011
     atom  104 type  1   force =    -0.00000008    0.00000139    0.00000028
     atom  105 type  1   force =    -0.00000065   -0.00000126   -0.00000088
     atom  106 type  1   force =     0.00000026    0.00000019   -0.00000009
     atom  107 type  1   force =     0.00000007    0.00000090    0.00000000
     atom  108 type  1   force =    -0.00000033    0.00000094   -0.00000034
     atom  109 type  1   force =    -0.00000066   -0.00000075   -0.00000009
     atom  110 type  1   force =    -0.00000148   -0.00000068    0.00000007
     atom  111 type  1   force =    -0.00000050    0.00000099   -0.00000050
     atom  112 type  1   force =    -0.00000105    0.00000167   -0.00000102
     atom  113 type  1   force =     0.00000054   -0.00000019    0.00000035
     atom  114 type  1   force =     0.00000005   -0.00000024    0.00000040
     atom  115 type  1   force =    -0.00000006    0.00000014    0.00000028
     atom  116 type  1   force =    -0.00000012    0.00000096    0.00000025
     atom  117 type  1   force =    -0.00000045   -0.00000072    0.00000047
     atom  118 type  1   force =    -0.00000087   -0.00000040    0.00000008
     atom  119 type  1   force =    -0.00000091    0.00000053    0.00000070
     atom  120 type  1   force =    -0.00000078    0.00000098    0.00000027
     atom  121 type  1   force =    -0.00000040    0.00000184    0.00000024
     atom  122 type  1   force =    -0.00000017    0.00000223    0.00000037
     atom  123 type  1   force =     0.00000013    0.00000198    0.00000007
     atom  124 type  1   force =    -0.00000073    0.00000048   -0.00000078
     atom  125 type  1   force =    -0.00000022    0.00000192    0.00000051
     atom  126 type  1   force =    -0.00000094    0.00000138    0.00000002
     atom  127 type  1   force =    -0.00000051    0.00000149    0.00000072
     atom  128 type  1   force =    -0.00000164    0.00000013   -0.00000001
     atom  129 type  1   force =     0.00000057    0.00000191   -0.00000023
     atom  130 type  1   force =     0.00000007    0.00000138   -0.00000090
     atom  131 type  1   force =    -0.00000003    0.00000048   -0.00000120
     atom  132 type  1   force =    -0.00000011   -0.00000044   -0.00000069
     atom  133 type  1   force =    -0.00000058    0.00000198   -0.00000056
     atom  134 type  1   force =    -0.00000021    0.00000096   -0.00000058
     atom  135 type  1   force =    -0.00000071    0.00000060   -0.00000074
     atom  136 type  1   force =    -0.00000098   -0.00000075   -0.00000096
     atom  137 type  1   force =    -0.00000031    0.00000106   -0.00000005
     atom  138 type  1   force =    -0.00000040    0.00000119    0.00000060
     atom  139 type  1   force =    -0.00000041    0.00000086    0.00000111
     atom  140 type  1   force =    -0.00000031    0.00000046    0.00000149
     atom  141 type  1   force =    -0.00000030    0.00000112    0.00000055
     atom  142 type  1   force =    -0.00000015    0.00000167    0.00000084
     atom  143 type  1   force =    -0.00000009    0.00000046   -0.00000017
     atom  144 type  1   force =    -0.00000001   -0.00000004    0.00000092
     atom  145 type  1   force =    -0.00000131   -0.00000105    0.00000014
     atom  146 type  1   force =    -0.00000063   -0.00000139   -0.00000023
     atom  147 type  1   force =    -0.00000109   -0.00000123   -0.00000022
     atom  148 type  1   force =    -0.00000009   -0.00000023    0.00000030
     atom  149 type  1   force =     0.00000027   -0.00000097   -0.00000038
     atom  150 type  1   force =     0.00000130   -0.00000084   -0.00000006
     atom  151 type  1   force =     0.00000015   -0.00000131    0.00000014
     atom  152 type  1   force =     0.00000106   -0.00000060    0.00000036
     atom  153 type  1   force =    -0.00000110   -0.00000120   -0.00000063
     atom  154 type  1   force =    -0.00000012   -0.00000087   -0.00000021
     atom  155 type  1   force =    -0.00000025   -0.00000092   -0.00000020
     atom  156 type  1   force =    -0.00000061   -0.00000128   -0.00000055
     atom  157 type  1   force =     0.00000040   -0.00000104   -0.00000009
     atom  158 type  1   force =     0.00000042   -0.00000169   -0.00000035
     atom  159 type  1   force =     0.00000043   -0.00000037   -0.00000014
     atom  160 type  1   force =     0.00000051   -0.00000062   -0.00000086
     atom  161 type  1   force =    -0.00000014   -0.00000107    0.00000045
     atom  162 type  1   force =    -0.00000040   -0.00000169    0.00000045
     atom  163 type  1   force =    -0.00000112   -0.00000104    0.00000053
     atom  164 type  1   force =    -0.00000078   -0.00000090    0.00000051
     atom  165 type  1   force =     0.00000009   -0.00000141    0.00000045
     atom  166 type  1   force =     0.00000072   -0.00000151    0.00000031
     atom  167 type  1   force =    -0.00000010   -0.00000156   -0.00000006
     atom  168 type  1   force =     0.00000063   -0.00000167    0.00000067
     atom  169 type  1   force =    -0.00000088   -0.00000067   -0.00000002
     atom  170 type  1   force =    -0.00000003    0.00000034    0.00000034
     atom  171 type  1   force =    -0.00000004    0.00000091    0.00000002
     atom  172 type  1   force =    -0.00000041    0.00000092   -0.00000039
     atom  173 type  1   force =     0.00000031   -0.00000018    0.00000049
     atom  174 type  1   force =     0.00000037   -0.00000025    0.00000000
     atom  175 type  1   force =     0.00000036    0.00000090    0.00000061
     atom  176 type  1   force =     0.00000030    0.00000096   -0.00000043
     atom  177 type  1   force =    -0.00000013   -0.00000075   -0.00000066
     atom  178 type  1   force =     0.00000001   -0.00000070   -0.00000147
     atom  179 type  1   force =     0.00000059   -0.00000146   -0.00000129
     atom  180 type  1   force =     0.00000123   -0.00000092   -0.00000191
     atom  181 type  1   force =     0.00000064    0.00000049   -0.00000095
     atom  182 type  1   force =     0.00000027    0.00000093   -0.00000078
     atom  183 type  1   force =    -0.00000133   -0.00000144    0.00000065
     atom  184 type  1   force =    -0.00000197   -0.00000092    0.00000125
     atom  185 type  1   force =    -0.00000138    0.00000049    0.00000084
     atom  186 type  1   force =    -0.00000018    0.00000152    0.00000111
     atom  187 type  1   force =    -0.00000020   -0.00000108    0.00000131
     atom  188 type  1   force =     0.00000092    0.00000031    0.00000147
     atom  189 type  1   force =     0.00000004    0.00000130    0.00000011
     atom  190 type  1   force =     0.00000145    0.00000293    0.00000149
     atom  191 type  1   force =    -0.00000022    0.00000169    0.00000034
     atom  192 type  1   force =    -0.00000046    0.00000104   -0.00000048
     atom  193 type  1   force =    -0.00000128    0.00000049   -0.00000009
     atom  194 type  1   force =    -0.00000076   -0.00000043   -0.00000015
     atom  195 type  1   force =    -0.00000010    0.00000105   -0.00000038
     atom  196 type  1   force =     0.00000059    0.00000120   -0.00000047
     atom  197 type  1   force =     0.00000018    0.00000036   -0.00000031
     atom  198 type  1   force =     0.00000089   -0.00000042   -0.00000031
     atom  199 type  1   force =    -0.00000064    0.00000198   -0.00000061
     atom  200 type  1   force =    -0.00000070    0.00000098   -0.00000020
     atom  201 type  1   force =    -0.00000059    0.00000003   -0.00000051
     atom  202 type  1   force =    -0.00000004   -0.00000033    0.00000005
     atom  203 type  1   force =    -0.00000032    0.00000175   -0.00000015
     atom  204 type  1   force =     0.00000036    0.00000160    0.00000002
     atom  205 type  1   force =    -0.00000023    0.00000048   -0.00000013
     atom  206 type  1   force =     0.00000090   -0.00000001    0.00000001
     atom  207 type  1   force =    -0.00000022    0.00000176   -0.00000026
     atom  208 type  1   force =    -0.00000009    0.00000159    0.00000037
     atom  209 type  1   force =     0.00000006    0.00000079    0.00000071
     atom  210 type  1   force =    -0.00000035   -0.00000064    0.00000007
     atom  211 type  1   force =     0.00000041    0.00000241    0.00000083
     atom  212 type  1   force =     0.00000056    0.00000130    0.00000027
     atom  213 type  1   force =     0.00000028    0.00000033    0.00000036
     atom  214 type  1   force =     0.00000045   -0.00000057    0.00000048
     atom  215 type  2   force =    -0.00000107    0.00000108   -0.00000097

     Total force =     0.070461     Total SCF correction =     0.000023


     Computing stress (Cartesian axis) and pressure

          total   stress  (Ry/bohr**3)                   (kbar)     P=   25.97
   0.00018541   0.00003676   0.00002233         27.27      5.41      3.28
   0.00003676   0.00015871   0.00003677          5.41     23.35      5.41
   0.00002233   0.00003677   0.00018540          3.28      5.41     27.27

     kinetic stress (kbar)  21594.22     16.56     15.15
                               16.56  21589.44     16.56
                               15.15     16.56  21594.22

     local   stress (kbar)  -3670.19     15.41     11.58
                               15.41  -3699.17     15.42
                               11.58     15.42  -3670.21

     nonloc. stress (kbar)   1304.03     -3.39     -3.31
                               -3.39   1304.35     -3.39
                               -3.31     -3.39   1304.03

     hartree stress (kbar)   1285.82    -10.84     -8.50
                              -10.84   1296.02    -10.84
                               -8.50    -10.84   1285.82

     exc-cor stress (kbar)  -4229.76     -0.06     -0.02
                               -0.06  -4229.70     -0.06
                               -0.02     -0.06  -4229.76

     corecor stress (kbar)      0.00      0.00      0.00
                                0.00      0.00      0.00
                                0.00      0.00      0.00

     ewald   stress (kbar) -16256.83    -12.27    -11.61
                              -12.27 -16237.59    -12.28
                              -11.61    -12.28 -16256.82

     hubbard stress (kbar)      0.00      0.00      0.00
                                0.00      0.00      0.00
                                0.00      0.00      0.00

     london  stress (kbar)      0.00      0.00      0.00
                                0.00      0.00      0.00
                                0.00      0.00      0.00

     XDM     stress (kbar)      0.00      0.00      0.00
                                0.00      0.00      0.00
                                0.00      0.00      0.00

     dft-nl  stress (kbar)      0.00      0.00      0.00
                                0.00      0.00      0.00
                                0.00      0.00      0.00

     TS-vdW  stress (kbar)      0.00      0.00      0.00
                                0.00      0.00      0.00
                                0.00      0.00      0.00



     Writing output data file pwscf.save
 
     init_run     :      2.59s CPU      2.74s WALL (       1 calls)
     electrons    :    406.88s CPU    413.16s WALL (       1 calls)
     forces       :      0.96s CPU      1.01s WALL (       1 calls)
     stress       :     18.62s CPU     18.71s WALL (       1 calls)

     Called by init_run:
     wfcinit      :      1.67s CPU      1.74s WALL (       1 calls)
     wfcinit:atom :      0.00s CPU      0.00s WALL (       1 calls)
     wfcinit:wfcr :      1.63s CPU      1.68s WALL (       1 calls)
     potinit      :      0.10s CPU      0.10s WALL (       1 calls)

     Called by electrons:
     c_bands      :    395.97s CPU    401.91s WALL (      20 calls)
     sum_band     :      9.02s CPU      9.24s WALL (      20 calls)
     v_of_rho     :      1.46s CPU      1.48s WALL (      21 calls)
     v_h          :      0.06s CPU      0.06s WALL (      21 calls)
     v_xc         :      1.40s CPU      1.42s WALL (      21 calls)
     mix_rho      :      0.23s CPU      0.25s WALL (      20 calls)

     Called by c_bands:
     init_us_2    :      0.38s CPU      0.54s WALL (      41 calls)
     regterg      :    392.77s CPU    398.59s WALL (      20 calls)

     Called by sum_band:

     Called by *egterg:
     h_psi        :     84.69s CPU     85.40s WALL (     157 calls)
     g_psi        :      0.27s CPU      0.28s WALL (     136 calls)
     rdiaghg      :    261.91s CPU    265.02s WALL (     156 calls)
     regterg:over :     19.73s CPU     19.82s WALL (     136 calls)
     regterg:upda :     17.16s CPU     17.30s WALL (     136 calls)
     regterg:last :      6.52s CPU      6.62s WALL (      22 calls)
     rdiaghg:chol :     10.59s CPU     10.73s WALL (     156 calls)
     rdiaghg:inve :      7.80s CPU      7.84s WALL (     156 calls)
     rdiaghg:para :     15.82s CPU     16.84s WALL (     312 calls)

     Called by h_psi:
     h_psi:pot    :     84.05s CPU     84.73s WALL (     157 calls)
     h_psi:calbec :     12.83s CPU     12.95s WALL (     157 calls)
     vloc_psi     :     59.10s CPU     59.49s WALL (     157 calls)
     add_vuspsi   :     12.12s CPU     12.29s WALL (     157 calls)

     General routines
     calbec       :     13.75s CPU     13.87s WALL (     162 calls)
     fft          :      2.45s CPU      2.53s WALL (     450 calls)
     fftw         :     64.11s CPU     64.54s WALL (   63294 calls)
 
     Parallel routines
     fft_scatter  :     39.66s CPU     40.00s WALL (   63744 calls)
 
     PWSCF        :  7m14.22s CPU     7m45.31s WALL

 
   This run was terminated on:   6:50:21  22Jun2022            

=------------------------------------------------------------------------------=
   JOB DONE.
=------------------------------------------------------------------------------=
