
     Program PWSCF v.6.1 (svn rev. 13369) starts on 11Aug2023 at 23:51:57 

     This program is part of the open-source Quantum ESPRESSO suite
     for quantum simulation of materials; please cite
         "P. Giannozzi et al., J. Phys.:Condens. Matter 21 395502 (2009);
          URL http://www.quantum-espresso.org", 
     in publications or presentations arising from this work. More details at
     http://www.quantum-espresso.org/quote

     Parallel version (MPI & OpenMP), running on      80 processor cores
     Number of MPI processes:                80
     Threads/MPI process:                     1
     R & G space division:  proc/nbgrp/npool/nimage =      80
     Reading input from pw.in
Warning: card &IONS ignored
Warning: card     ION_DYNAMICS='BFGS' ignored
Warning: card  / ignored
Warning: card  &CELL ignored
Warning: card  / ignored

     Current dimensions of program PWSCF are:
     Max number of different atomic species (ntypx) = 10
     Max number of k-points (npk) =  40000
     Max angular momentum in pseudopotentials (lmaxx) =  3

     gamma-point specific algorithms are used

     Subspace diagonalization in iterative solution of the eigenvalue problem:
     one sub-group per band group will be used
     scalapack distributed-memory algorithm (size of sub-group:  6*  6 procs)

 
     Parallelization info
     --------------------
     sticks:   dense  smooth     PW     G-vecs:    dense   smooth      PW
     Min         509     509    126                77829    77829    9718
     Max         512     512    128                77844    77844    9740
     Sum       40945   40945  10229              6227117  6227117  778439
 


     bravais-lattice index     =            0
     lattice parameter (alat)  =      37.7945  a.u.
     unit-cell volume          =   53986.6767 (a.u.)^3
     number of atoms/cell      =            4
     number of atomic types    =            3
     number of electrons       =        12.00 (up:   6.00, down:   6.00)
     number of Kohn-Sham states=           10
     kinetic-energy cutoff     =      90.0000  Ry
     charge density cutoff     =     360.0000  Ry
     convergence threshold     =      1.0E-08
     mixing beta               =       0.7000
     number of iterations used =            8  plain     mixing
     Exchange-correlation      = PBE ( 1  4  3  4 0 0)

     celldm(1)=  37.794523  celldm(2)=   0.000000  celldm(3)=   0.000000
     celldm(4)=   0.000000  celldm(5)=   0.000000  celldm(6)=   0.000000

     crystal axes: (cart. coord. in units of alat)
               a(1) = (   1.000000   0.000000   0.000000 )  
               a(2) = (   0.000000   1.000000   0.000000 )  
               a(3) = (   0.000000   0.000000   1.000000 )  

     reciprocal axes: (cart. coord. in units 2 pi/alat)
               b(1) = (  1.000000  0.000000  0.000000 )  
               b(2) = (  0.000000  1.000000  0.000000 )  
               b(3) = (  0.000000  0.000000  1.000000 )  


     PseudoPot. # 1 for C  read from file:
     /home/jinyuchem/program/QE/pseudo-potential/C_ONCV_PBE-1.0.upf
     MD5 check sum: 40f8c33130f0afa4272e9dcc1c4fb0df
     Pseudo is Norm-conserving, Zval =  4.0
     Generated using ONCVPSP code by D. R. Hamann
     Using radial grid of  602 points,  4 beta functions with: 
                l(1) =   0
                l(2) =   0
                l(3) =   1
                l(4) =   1

     PseudoPot. # 2 for H  read from file:
     /home/jinyuchem/program/QE/pseudo-potential/H_ONCV_PBE-1.0.upf
     MD5 check sum: 10f92816c437af099bca1a183851adc8
     Pseudo is Norm-conserving, Zval =  1.0
     Generated using ONCVPSP code by D. R. Hamann
     Using radial grid of  602 points,  2 beta functions with: 
                l(1) =   0
                l(2) =   0

     PseudoPot. # 3 for O  read from file:
     /home/jinyuchem/program/QE/pseudo-potential/O_ONCV_PBE-1.0.upf
     MD5 check sum: 80a85145cbbb6f60b39549a50e3ff56c
     Pseudo is Norm-conserving, Zval =  6.0
     Generated using ONCVPSP code by D. R. Hamann
     Using radial grid of  602 points,  4 beta functions with: 
                l(1) =   0
                l(2) =   0
                l(3) =   1
                l(4) =   1

     atomic species   valence    mass     pseudopotential
        C              4.00    12.01070     C ( 1.00)
        H              1.00     1.00790     H ( 1.00)
        O              6.00    16.00000     O ( 1.00)

     Starting magnetic structure 
     atomic species   magnetization
        C            0.000
        H            0.000
        O            0.000

      2 Sym. Ops. (no inversion) found


                                    s                        frac. trans.

      isym =  1     identity                                     

 cryst.   s( 1) = (     1          0          0      )
                  (     0          1          0      )
                  (     0          0          1      )

 cart.    s( 1) = (  1.0000000  0.0000000  0.0000000 )
                  (  0.0000000  1.0000000  0.0000000 )
                  (  0.0000000  0.0000000  1.0000000 )


      isym =  2     inv. 180 deg rotation - cart. axis [0,1,0]   

 cryst.   s( 2) = (     1          0          0      )
                  (     0         -1          0      )
                  (     0          0          1      )

 cart.    s( 2) = (  1.0000000  0.0000000  0.0000000 )
                  (  0.0000000 -1.0000000  0.0000000 )
                  (  0.0000000  0.0000000  1.0000000 )


   Cartesian axes

     site n.     atom                  positions (alat units)
         1           C   tau(   1) = (   0.4749202   0.5000002   0.4934707  )
         2           H   tau(   2) = (   0.4456280   0.4538452   0.5017384  )
         3           H   tau(   3) = (   0.4456269   0.5461550   0.5017346  )
         4           O   tau(   4) = (   0.5329553   0.4999998   0.5230548  )

   Crystallographic axes

     site n.     atom                  positions (cryst. coord.)
         1           C   tau(   1) = (  0.4749202  0.5000002  0.4934707  )
         2           H   tau(   2) = (  0.4456280  0.4538452  0.5017384  )
         3           H   tau(   3) = (  0.4456269  0.5461550  0.5017346  )
         4           O   tau(   4) = (  0.5329553  0.4999998  0.5230548  )

     number of k points=     1
                       cart. coord. in units 2pi/alat
        k(    1) = (   0.0000000   0.0000000   0.0000000), wk =   1.0000000

                       cryst. coord.
        k(    1) = (   0.0000000   0.0000000   0.0000000), wk =   1.0000000

     Dense  grid:  3113559 G-vectors     FFT dimensions: ( 240, 240, 240)

     Estimated max dynamical RAM per process >     106.90MB

     Estimated total allocated dynamical RAM >    8551.65MB
     Generating pointlists ...
     new r_m :   0.0228 (alat units)  0.8619 (a.u.) for type    1
     new r_m :   0.0228 (alat units)  0.8619 (a.u.) for type    2
     new r_m :   0.0269 (alat units)  1.0156 (a.u.) for type    3

     Initial potential from superposition of free atoms
     Check: negative starting charge=(component1):   -0.000285
     Check: negative starting charge=(component2):   -0.000285

     starting charge   11.98781, renormalised to   12.00000

     negative rho (up, down):  2.851E-04 2.851E-04
     Starting wfc are random

     total cpu time spent up to now is        2.7 secs

     per-process dynamical memory:    75.5 Mb

     Self-consistent Calculation

     iteration #  1     ecut=    90.00 Ry     beta=0.70
     Davidson diagonalization with overlap
     ethr =  1.00E-02,  avg # of iterations = 12.5

     negative rho (up, down):  2.849E-05 2.398E-05

     total cpu time spent up to now is        4.8 secs

     total energy              =     -45.45063969 Ry
     Harris-Foulkes estimate   =     -45.68596341 Ry
     estimated scf accuracy    <       0.38022304 Ry

     total magnetization       =     0.00 Bohr mag/cell
     absolute magnetization    =     0.03 Bohr mag/cell

     iteration #  2     ecut=    90.00 Ry     beta=0.70
     Davidson diagonalization with overlap
     ethr =  3.17E-03,  avg # of iterations =  3.0

     negative rho (up, down):  1.485E-05 1.211E-05

     total cpu time spent up to now is        5.8 secs

     total energy              =     -45.40680609 Ry
     Harris-Foulkes estimate   =     -45.67779098 Ry
     estimated scf accuracy    <       0.62193701 Ry

     total magnetization       =     0.00 Bohr mag/cell
     absolute magnetization    =     0.01 Bohr mag/cell

     iteration #  3     ecut=    90.00 Ry     beta=0.70
     Davidson diagonalization with overlap
     ethr =  3.17E-03,  avg # of iterations =  2.0

     negative rho (up, down):  2.905E-06 2.487E-06

     total cpu time spent up to now is        6.7 secs

     total energy              =     -45.54794190 Ry
     Harris-Foulkes estimate   =     -45.58438368 Ry
     estimated scf accuracy    <       0.10716235 Ry

     total magnetization       =    -0.00 Bohr mag/cell
     absolute magnetization    =     0.01 Bohr mag/cell

     iteration #  4     ecut=    90.00 Ry     beta=0.70
     Davidson diagonalization with overlap
     ethr =  8.93E-04,  avg # of iterations =  1.0

     negative rho (up, down):  9.491E-08 8.940E-08

     total cpu time spent up to now is        7.5 secs

     total energy              =     -45.56177032 Ry
     Harris-Foulkes estimate   =     -45.56255243 Ry
     estimated scf accuracy    <       0.00202131 Ry

     total magnetization       =     0.00 Bohr mag/cell
     absolute magnetization    =     0.00 Bohr mag/cell

     iteration #  5     ecut=    90.00 Ry     beta=0.70
     Davidson diagonalization with overlap
     WARNING:     1 eigenvalues not converged
     c_bands:  1 eigenvalues not converged
     WARNING:     1 eigenvalues not converged
     c_bands:  1 eigenvalues not converged
     ethr =  1.68E-05,  avg # of iterations = 20.0

     negative rho (up, down):  2.143E-08 2.141E-08

     total cpu time spent up to now is        9.3 secs

     total energy              =     -45.56300473 Ry
     Harris-Foulkes estimate   =     -45.56328450 Ry
     estimated scf accuracy    <       0.00097240 Ry

     total magnetization       =    -0.00 Bohr mag/cell
     absolute magnetization    =     0.00 Bohr mag/cell

     iteration #  6     ecut=    90.00 Ry     beta=0.70
     Davidson diagonalization with overlap
     WARNING:     1 eigenvalues not converged
     c_bands:  1 eigenvalues not converged
     ethr =  8.10E-06,  avg # of iterations = 15.0

     total cpu time spent up to now is       10.7 secs

     total energy              =     -45.56306098 Ry
     Harris-Foulkes estimate   =     -45.56308568 Ry
     estimated scf accuracy    <       0.00007153 Ry

     total magnetization       =     0.00 Bohr mag/cell
     absolute magnetization    =     0.00 Bohr mag/cell

     iteration #  7     ecut=    90.00 Ry     beta=0.70
     Davidson diagonalization with overlap
     WARNING:     1 eigenvalues not converged
     c_bands:  1 eigenvalues not converged
     ethr =  5.96E-07,  avg # of iterations = 19.5

     total cpu time spent up to now is       12.4 secs

     total energy              =     -45.56308188 Ry
     Harris-Foulkes estimate   =     -45.56308485 Ry
     estimated scf accuracy    <       0.00000783 Ry

     total magnetization       =    -0.00 Bohr mag/cell
     absolute magnetization    =     0.00 Bohr mag/cell

     iteration #  8     ecut=    90.00 Ry     beta=0.70
     Davidson diagonalization with overlap
     WARNING:     1 eigenvalues not converged
     c_bands:  1 eigenvalues not converged
     ethr =  6.53E-08,  avg # of iterations = 14.5

     total cpu time spent up to now is       13.8 secs

     total energy              =     -45.56308290 Ry
     Harris-Foulkes estimate   =     -45.56308295 Ry
     estimated scf accuracy    <       0.00000017 Ry

     total magnetization       =     0.00 Bohr mag/cell
     absolute magnetization    =     0.00 Bohr mag/cell

     iteration #  9     ecut=    90.00 Ry     beta=0.70
     Davidson diagonalization with overlap
     WARNING:     1 eigenvalues not converged
     c_bands:  1 eigenvalues not converged
     ethr =  1.46E-09,  avg # of iterations = 19.5

     total cpu time spent up to now is       15.6 secs

     total energy              =     -45.56308298 Ry
     Harris-Foulkes estimate   =     -45.56308299 Ry
     estimated scf accuracy    <       0.00000004 Ry

     total magnetization       =     0.00 Bohr mag/cell
     absolute magnetization    =     0.00 Bohr mag/cell

     iteration # 10     ecut=    90.00 Ry     beta=0.70
     Davidson diagonalization with overlap
     ethr =  3.30E-10,  avg # of iterations = 10.0
 
     Magnetic moment per site:
     atom:    1    charge:    0.8469    magn:    0.0000    constr:    0.0000
     atom:    2    charge:    0.5000    magn:    0.0000    constr:    0.0000
     atom:    3    charge:    0.5000    magn:   -0.0000    constr:    0.0000
     atom:    4    charge:    3.3022    magn:   -0.0001    constr:    0.0000

     total cpu time spent up to now is       16.8 secs

     End of self-consistent calculation

 ------ SPIN UP ------------


          k = 0.0000 0.0000 0.0000 (389220 PWs)   bands (ev):

   -25.5644 -15.9543 -11.8511 -10.7283  -9.4418  -6.1961  -3.8806  -0.4669
     0.0910   0.2054

     occupation numbers 
     1.0000   1.0000   1.0000   1.0000   1.0000   1.0000   0.0000   0.0000
     0.0000   0.0000

 ------ SPIN DOWN ----------


          k = 0.0000 0.0000 0.0000 (389220 PWs)   bands (ev):

   -25.5645 -15.9543 -11.8511 -10.7284  -9.4419  -6.1961  -3.8804  -0.4669
     0.0910   0.2054

     occupation numbers 
     1.0000   1.0000   1.0000   1.0000   1.0000   1.0000   0.0000   0.0000
     0.0000   0.0000

     highest occupied, lowest unoccupied level (ev):    -6.1961   -3.8806

!    total energy              =     -45.56308298 Ry
     Harris-Foulkes estimate   =     -45.56308298 Ry
     estimated scf accuracy    <          7.5E-10 Ry

     The total energy is the sum of the following terms:

     one-electron contribution =    -117.67685216 Ry
     hartree contribution      =      60.52395216 Ry
     xc contribution           =     -11.63974549 Ry
     ewald contribution        =      23.22956252 Ry

     total magnetization       =     0.00 Bohr mag/cell
     absolute magnetization    =     0.00 Bohr mag/cell

     convergence has been achieved in  10 iterations

     Forces acting on atoms (cartesian axes, Ry/au):

     atom    1 type  1   force =     0.13143746    0.00000000    0.22832823
     atom    2 type  2   force =     0.00259722   -0.01707913   -0.05309009
     atom    3 type  2   force =     0.00259722    0.01707913   -0.05309009
     atom    4 type  3   force =    -0.13663190    0.00000000   -0.12214806
     The non-local contrib.  to forces
     atom    1 type  1   force =     0.35565106    0.00000000    0.09474710
     atom    2 type  2   force =     0.04164414    0.06642219   -0.01683556
     atom    3 type  2   force =     0.04164414   -0.06642219   -0.01683556
     atom    4 type  3   force =    -2.18833975    0.00000000   -1.24727832
     The ionic contribution  to forces
     atom    1 type  1   force =    -5.10697433    0.00004110   -4.13994462
     atom    2 type  2   force =    -1.67800054   -2.06649390    0.10096663
     atom    3 type  2   force =    -1.67801686    2.06648527    0.10081123
     atom    4 type  3   force =     8.46299173   -0.00003247    3.93816676
     The local contribution  to forces
     atom    1 type  1   force =     4.88262831   -0.00004455    4.27359040
     atom    2 type  2   force =     1.63881743    1.98299166   -0.13716599
     atom    3 type  2   force =     1.63883804   -1.98297871   -0.13701249
     atom    4 type  3   force =    -6.41136651   -0.00000137   -2.81293343
     The core correction contribution to forces
     atom    1 type  1   force =     0.00000000    0.00000000    0.00000000
     atom    2 type  2   force =     0.00000000    0.00000000    0.00000000
     atom    3 type  2   force =     0.00000000    0.00000000    0.00000000
     atom    4 type  3   force =     0.00000000    0.00000000    0.00000000
     The Hubbard contrib.    to forces
     atom    1 type  1   force =     0.00000000    0.00000000    0.00000000
     atom    2 type  2   force =     0.00000000    0.00000000    0.00000000
     atom    3 type  2   force =     0.00000000    0.00000000    0.00000000
     atom    4 type  3   force =     0.00000000    0.00000000    0.00000000
     The SCF correction term to forces
     atom    1 type  1   force =     0.00000052   -0.00000129   -0.00001264
     atom    2 type  2   force =     0.00000220    0.00000304   -0.00000221
     atom    3 type  2   force =     0.00000207   -0.00000311   -0.00000221
     atom    4 type  3   force =    -0.00004926   -0.00000195   -0.00005107

     Total force =     0.330503     Total SCF correction =     0.000072


     Computing stress (Cartesian axis) and pressure

          total   stress  (Ry/bohr**3)                   (kbar)     P=   -0.38
  -0.00000565   0.00000000  -0.00000279         -0.83      0.00     -0.41
   0.00000000   0.00000109   0.00000000          0.00      0.16      0.00
  -0.00000279   0.00000000  -0.00000315         -0.41      0.00     -0.46

     kinetic stress (kbar)     55.56      0.00     -0.79
                                0.00     64.08      0.00
                               -0.79      0.00     55.49

     local   stress (kbar)   -166.04      0.00    -33.57
                                0.00   -110.71      0.00
                              -33.57      0.00    -92.70

     nonloc. stress (kbar)     -1.41      0.00     -0.19
                                0.00     -2.90      0.00
                               -0.19      0.00     -0.75

     hartree stress (kbar)     69.86     -0.00     11.15
                               -0.00     49.83     -0.00
                               11.15     -0.00     45.23

     exc-cor stress (kbar)     -9.89     -0.00      0.08
                               -0.00    -10.00     -0.00
                                0.08     -0.00    -10.08

     corecor stress (kbar)      0.00      0.00      0.00
                                0.00      0.00      0.00
                                0.00      0.00      0.00

     ewald   stress (kbar)     51.09     -0.00     22.91
                               -0.00      9.86     -0.00
                               22.91     -0.00      2.35

     hubbard stress (kbar)      0.00      0.00      0.00
                                0.00      0.00      0.00
                                0.00      0.00      0.00

     london  stress (kbar)      0.00      0.00      0.00
                                0.00      0.00      0.00
                                0.00      0.00      0.00

     XDM     stress (kbar)      0.00      0.00      0.00
                                0.00      0.00      0.00
                                0.00      0.00      0.00

     dft-nl  stress (kbar)      0.00      0.00      0.00
                                0.00      0.00      0.00
                                0.00      0.00      0.00

     TS-vdW  stress (kbar)      0.00      0.00      0.00
                                0.00      0.00      0.00
                                0.00      0.00      0.00



     Writing output data file pwscf.save
 
     init_run     :      2.35s CPU      2.49s WALL (       1 calls)
     electrons    :     13.29s CPU     15.23s WALL (       1 calls)
     forces       :      0.18s CPU      0.19s WALL (       1 calls)
     stress       :      0.48s CPU      0.50s WALL (       1 calls)

     Called by init_run:
     wfcinit      :      0.20s CPU      0.22s WALL (       1 calls)
     wfcinit:atom :      0.00s CPU      0.00s WALL (       2 calls)
     wfcinit:wfcr :      0.19s CPU      0.21s WALL (       2 calls)
     potinit      :      0.49s CPU      0.55s WALL (       1 calls)

     Called by electrons:
     c_bands      :      7.49s CPU      8.53s WALL (      10 calls)
     sum_band     :      1.14s CPU      1.36s WALL (      10 calls)
     v_of_rho     :      3.33s CPU      3.77s WALL (      11 calls)
     v_h          :      0.20s CPU      0.24s WALL (      11 calls)
     v_xc         :      3.14s CPU      3.54s WALL (      11 calls)
     mix_rho      :      0.60s CPU      0.69s WALL (      10 calls)

     Called by c_bands:
     init_us_2    :      0.05s CPU      0.06s WALL (      46 calls)
     regterg      :      7.40s CPU      8.43s WALL (      20 calls)

     Called by sum_band:

     Called by *egterg:
     h_psi        :      5.46s CPU      6.48s WALL (     256 calls)
     g_psi        :      0.01s CPU      0.01s WALL (     234 calls)
     rdiaghg      :      0.97s CPU      0.99s WALL (     254 calls)
     regterg:over :      0.42s CPU      0.43s WALL (     234 calls)
     regterg:upda :      0.41s CPU      0.41s WALL (     234 calls)
     regterg:last :      0.11s CPU      0.11s WALL (      32 calls)
     rdiaghg:chol :      0.08s CPU      0.08s WALL (     254 calls)
     rdiaghg:inve :      0.01s CPU      0.02s WALL (     254 calls)
     rdiaghg:para :      0.10s CPU      0.10s WALL (     508 calls)

     Called by h_psi:
     h_psi:pot    :      5.41s CPU      6.43s WALL (     256 calls)
     h_psi:calbec :      0.14s CPU      0.14s WALL (     256 calls)
     vloc_psi     :      5.16s CPU      6.17s WALL (     256 calls)
     add_vuspsi   :      0.11s CPU      0.12s WALL (     256 calls)

     General routines
     calbec       :      0.14s CPU      0.15s WALL (     266 calls)
     fft          :      3.26s CPU      3.82s WALL (     240 calls)
     fftw         :      4.93s CPU      6.07s WALL (    1206 calls)
 
     Parallel routines
     fft_scatter  :      5.08s CPU      6.25s WALL (    1446 calls)
 
     PWSCF        :    18.33s CPU        21.08s WALL

 
   This run was terminated on:  23:52:18  11Aug2023            

=------------------------------------------------------------------------------=
   JOB DONE.
=------------------------------------------------------------------------------=
